#------------------------------------------------------------------------------
#$Date: 2020-07-21 12:38:03 +0300 (Tue, 21 Jul 2020) $
#$Revision: 254431 $
#$URL: file:///home/coder/svn-repositories/cod/cif/4/12/90/4129028.cif $
#------------------------------------------------------------------------------
#
# This file is available in the Crystallography Open Database (COD),
# http://www.crystallography.net/
#
# All data on this site have been placed in the public domain by the
# contributors.
#
data_4129028
loop_
_publ_author_name
'Omori, Hiroto'
'Hiroto, Satoru'
'Takeda, Youhei'
'Fliegl, Heike'
'Minakata, Satoshi'
'Shinokubo, Hiroshi'
_publ_section_title
;
 Ni(II) 10-Phosphacorrole: A Porphyrin Analogue Containing Phosphorus at
 the Meso Position.
;
_journal_issue                   12
_journal_name_full               'Journal of the American Chemical Society'
_journal_page_first              4800
_journal_page_last               4805
_journal_paper_doi               10.1021/jacs.8b13169
_journal_volume                  141
_journal_year                    2019
_chemical_formula_sum            'C48.5 H45 N4 Ni O P'
_chemical_formula_weight         789.56
_space_group_crystal_system      orthorhombic
_space_group_IT_number           61
_space_group_name_Hall           '-P 2ac 2ab'
_space_group_name_H-M_alt        'P b c a'
_atom_sites_solution_hydrogens   geom
_cell_angle_alpha                90
_cell_angle_beta                 90
_cell_angle_gamma                90
_cell_formula_units_Z            16
_cell_length_a                   16.4476(3)
_cell_length_b                   24.3351(4)
_cell_length_c                   40.0869(5)
_cell_measurement_reflns_used    49045
_cell_measurement_temperature    107.(2)
_cell_measurement_theta_max      31.3760
_cell_measurement_theta_min      1.9970
_cell_volume                     16044.9(4)
_computing_cell_refinement       'CrysAlisPro 1.171.38.41 (Rigaku OD, 2015)'
_computing_data_collection       'CrysAlisPro 1.171.38.41 (Rigaku OD, 2015)'
_computing_data_reduction        'CrysAlisPro 1.171.38.41 (Rigaku OD, 2015)'
_computing_molecular_graphics    'CrystalStructure 4.0 (Rigaku, 2010)'
_computing_publication_material  'CrystalStructure 4.0 (Rigaku, 2010)'
_computing_structure_refinement  'SHELXL-2014/7 (Sheldrick, 2014)'
_diffrn_ambient_temperature      107.(2)
_diffrn_detector_area_resol_mean 10.4167
_diffrn_measured_fraction_theta_full 1.000
_diffrn_measured_fraction_theta_max 1.000
_diffrn_measurement_device_type  'Rigaku Saturn724'
_diffrn_measurement_method       dtprofit.ref
_diffrn_radiation_monochromator  graphite
_diffrn_radiation_type           MoK\a
_diffrn_radiation_wavelength     0.71073
_diffrn_reflns_av_R_equivalents  0.0725
_diffrn_reflns_av_unetI/netI     0.0396
_diffrn_reflns_limit_h_max       19
_diffrn_reflns_limit_h_min       -18
_diffrn_reflns_limit_k_max       28
_diffrn_reflns_limit_k_min       -28
_diffrn_reflns_limit_l_max       47
_diffrn_reflns_limit_l_min       -46
_diffrn_reflns_number            106822
_diffrn_reflns_theta_full        25.00
_diffrn_reflns_theta_max         25.00
_diffrn_reflns_theta_min         1.58
_diffrn_source                   'fine-focus sealed X-ray tube'
_diffrn_source_type              'Enhance (Mo) X-ray Source'
_exptl_absorpt_coefficient_mu    0.566
_exptl_absorpt_correction_T_max  0.85
_exptl_absorpt_correction_T_min  0.79
_exptl_absorpt_correction_type   multi-scan
_exptl_absorpt_process_details
;
;
_exptl_crystal_colour            blue
_exptl_crystal_density_diffrn    1.307
_exptl_crystal_density_method    'not measured'
_exptl_crystal_description       block
_exptl_crystal_F_000             6640
_exptl_crystal_size_max          0.440
_exptl_crystal_size_mid          0.430
_exptl_crystal_size_min          0.300
_refine_diff_density_max         0.884
_refine_diff_density_min         -0.496
_refine_ls_extinction_method     none
_refine_ls_goodness_of_fit_ref   1.093
_refine_ls_hydrogen_treatment    constr
_refine_ls_matrix_type           full
_refine_ls_number_parameters     1019
_refine_ls_number_reflns         14126
_refine_ls_number_restraints     0
_refine_ls_restrained_S_all      1.093
_refine_ls_R_factor_all          0.0654
_refine_ls_R_factor_gt           0.0457
_refine_ls_shift/su_max          0.002
_refine_ls_shift/su_mean         0.000
_refine_ls_structure_factor_coef Fsqd
_refine_ls_weighting_details
'w=1/[\s^2^(Fo^2^)+(0.0782P)^2^+9.3575P] where P=(Fo^2^+2Fc^2^)/3'
_refine_ls_weighting_scheme      calc
_refine_ls_wR_factor_gt          0.1215
_refine_ls_wR_factor_ref         0.1380
_reflns_number_gt                11073
_reflns_number_total             14126
_reflns_threshold_expression     'I > 2\s(I)'
_cod_data_source_file            ja8b13169_si_003.cif
_cod_data_source_block           I
_cod_depositor_comments
;

2020-07-21
Z value and formula fixed to values more according to usual
chemical conventions.                 miguel
;
_cod_original_formula_sum            'C97 H90 N8 Ni2 O2 P2'
_cod_original_formula_weight         1579.12
_cod_original_formula_units_Z            8
_cod_database_code               4129028
_shelx_res_file
;
180522po_a.res created by SHELXL-2014/7


TITL 180522po_a.res
CELL 0.71073 16.4476 24.3351 40.0869 90.0000 90.0000 90.0000
ZERR 8.0 0.0003 0.0004 0.0005 0.0000 0.0000 0.0000
LATT 1
SYMM 1/2-X, -Y, 1/2+Z
SYMM 1/2+X, 1/2-Y, -Z
SYMM -X, 1/2+Y, 1/2-Z
SFAC C  H  N  Ni P  O
UNIT 776  720  64  16  16  16
OMIT -10 50
REM  Yadorkari-X generated
REM  SPGR Pbca orthorhombic
L.S. 10
ACTA
FMAP 2
PLAN -20
SIZE 0.30 0.43 0.44
TEMP -166
WGHT    0.078200    9.357500
FVAR       0.08629
PART 2
NI1   4    0.620791    0.740665    0.409531    11.00000    0.01396    0.01379 =
         0.00777    0.00055   -0.00169   -0.00228
PART 1
NI2   4    0.122899    0.720891    0.330892    11.00000    0.01390    0.01366 =
         0.00837    0.00061    0.00077   -0.00011
P2    5    0.292833    0.717669    0.272831    11.00000    0.01319    0.01699 =
         0.00950   -0.00006   -0.00073   -0.00124
PART 2
P1    5    0.785751    0.745525    0.469352    11.00000    0.01480    0.01947 =
         0.00722    0.00012   -0.00098   -0.00242
O1    6    0.865734    0.729969    0.454963    11.00000    0.02039    0.02758 =
         0.01064   -0.00410    0.00114   -0.00006
PART 1
O2    6    0.375063    0.729343    0.286512    11.00000    0.01418    0.02746 =
         0.01519   -0.00324   -0.00230   -0.00106
N5    3    0.078287    0.677386    0.364833    11.00000    0.01483    0.01691 =
         0.01035    0.00024    0.00131    0.00014
N7    3    0.160159    0.775783    0.299973    11.00000    0.01581    0.01552 =
         0.00922   -0.00132    0.00096   -0.00026
PART 2
N4    3    0.547619    0.689589    0.391464    11.00000    0.01429    0.01452 =
         0.00979   -0.00053    0.00090    0.00022
N3    3    0.654233    0.686714    0.442082    11.00000    0.01547    0.01667 =
         0.00869   -0.00065    0.00018   -0.00182
N1    3    0.577398    0.783671    0.375136    11.00000    0.01397    0.01678 =
         0.01119   -0.00021   -0.00199   -0.00297
PART 1
N6    3    0.191477    0.660545    0.317612    11.00000    0.01556    0.01540 =
         0.00852   -0.00028   -0.00155   -0.00142
PART 2
N2    3    0.690740    0.800874    0.422082    11.00000    0.01542    0.01770 =
         0.01045    0.00099    0.00053   -0.00194
PART 1
N8    3    0.047598    0.771255    0.348220    11.00000    0.01642    0.01517 =
         0.01028   -0.00008    0.00035    0.00073
C60   1    0.021531    0.822531    0.338888    11.00000    0.01604    0.01760 =
         0.01147   -0.00311   -0.00181    0.00076
C46   1    0.021845    0.700046    0.384724    11.00000    0.01405    0.01881 =
         0.01192   -0.00131   -0.00036   -0.00196
PART 2
C4    1    0.595872    0.834496    0.362243    11.00000    0.01719    0.01408 =
         0.01407    0.00078    0.00009    0.00113
C31   1    0.482076    0.442491    0.441335    11.00000    0.02633    0.01788 =
         0.01365    0.00258   -0.00255   -0.00172
C39   1    0.860977    0.767928    0.565678    11.00000    0.01659    0.01494 =
         0.01382   -0.00022   -0.00229   -0.00109
PART 0
AFIX  43
H39   2    0.911031    0.769747    0.577452    11.00000   -1.20000
PART 2
AFIX   0
C37   1    0.788059    0.761072    0.513559    11.00000    0.01864    0.01497 =
         0.00810   -0.00021    0.00145   -0.00185
PART 1
C54   1    0.249352    0.659445    0.293373    11.00000    0.01502    0.01882 =
         0.00872   -0.00009   -0.00244   -0.00150
PART 2
C30   1    0.546279    0.454548    0.419759    11.00000    0.02451    0.01537 =
         0.01710   -0.00223   -0.00077    0.00029
PART 0
AFIX  43
H30   2    0.572144    0.425223    0.408266    11.00000   -1.20000
PART 2
AFIX   0
C32   1    0.446523    0.486131    0.458608    11.00000    0.02571    0.02148 =
         0.01300    0.00124    0.00283   -0.00542
PART 0
AFIX  43
H32   2    0.403071    0.478740    0.473563    11.00000   -1.20000
PART 1
AFIX   0
C59   1    0.060082    0.850453    0.313108    11.00000    0.01776    0.01476 =
         0.01152   -0.00230   -0.00265   -0.00023
C83   1    0.217033    0.698490    0.211202    11.00000    0.01486    0.01510 =
         0.01511    0.00317   -0.00097   -0.00051
C56   1    0.235314    0.824096    0.261940    11.00000    0.01952    0.02019 =
         0.01595    0.00323    0.00248   -0.00274
PART 0
AFIX  43
H56   2    0.276934    0.832584    0.246337    11.00000   -1.20000
PART 2
AFIX   0
C5    1    0.653975    0.867601    0.377033    11.00000    0.01695    0.01636 =
         0.01219   -0.00083    0.00135    0.00075
PART 1
C63   1    0.001647    0.755039    0.374335    11.00000    0.01656    0.01968 =
         0.00892   -0.00096   -0.00013   -0.00273
PART 2
C1    1    0.523491    0.759828    0.354228    11.00000    0.01437    0.01787 =
         0.01046   -0.00254    0.00044   -0.00077
C14   1    0.561951    0.609058    0.425650    11.00000    0.01439    0.01626 =
         0.01240   -0.00093    0.00423    0.00070
C19   1    0.680933    0.916727    0.357521    11.00000    0.01815    0.01911 =
         0.01218    0.00240   -0.00848   -0.00527
PART 1
C82   1    0.292130    0.702702    0.228327    11.00000    0.01539    0.01475 =
         0.01213    0.00298   -0.00130   -0.00112
PART 2
C42   1    0.714079    0.766144    0.531332    11.00000    0.01696    0.02019 =
         0.01558   -0.00073   -0.00139   -0.00138
C13   1    0.622334    0.633241    0.445549    11.00000    0.01735    0.01789 =
         0.00932   -0.00039    0.00088   -0.00187
C28   1    0.536471    0.551007    0.432010    11.00000    0.01749    0.01634 =
         0.01084    0.00190   -0.00292   -0.00264
C18   1    0.505169    0.704508    0.363897    11.00000    0.01428    0.01741 =
         0.00970   -0.00122    0.00106    0.00250
C38   1    0.862443    0.764171    0.530881    11.00000    0.01399    0.01370 =
         0.01268   -0.00049    0.00004    0.00043
PART 1
C78   1   -0.017312    0.911646    0.274459    11.00000    0.02029    0.02211 =
         0.01736    0.00197    0.00493    0.00158
PART 2
C3    1    0.548947    0.842292    0.332396    11.00000    0.02156    0.01757 =
         0.01309    0.00211   -0.00262   -0.00055
PART 0
AFIX  43
H3    2    0.549701    0.873893    0.318486    11.00000   -1.20000
PART 1
AFIX   0
C73   1    0.031817    0.906468    0.302891    11.00000    0.01789    0.01765 =
         0.01377   -0.00002    0.00375    0.00142
C51   1    0.192074    0.607844    0.331786    11.00000    0.01720    0.01576 =
         0.01245   -0.00090   -0.00242   -0.00016
PART 2
C29   1    0.573814    0.507931    0.414456    11.00000    0.01841    0.01887 =
         0.01548   -0.00105    0.00096    0.00079
PART 1
C64   1    0.160729    0.533777    0.372744    11.00000    0.02225    0.01765 =
         0.01403    0.00147    0.00756   -0.00046
PART 2
C33   1    0.472667    0.540026    0.454623    11.00000    0.01888    0.01968 =
         0.01161   -0.00032   -0.00083   -0.00024
C10   1    0.714486    0.690422    0.464914    11.00000    0.02075    0.02109 =
         0.00798   -0.00092    0.00090   -0.00135
C6    1    0.695363    0.852222    0.406475    11.00000    0.01831    0.01598 =
         0.01432    0.00206    0.00081   -0.00127
PART 1
C50   1    0.146690    0.590632    0.359865    11.00000    0.01645    0.01746 =
         0.01243    0.00100   -0.00276   -0.00367
C57   1    0.173654    0.858023    0.272078    11.00000    0.02262    0.01609 =
         0.01919    0.00267   -0.00076   -0.00254
PART 0
AFIX  43
H57   2    0.163889    0.894452    0.264560    11.00000   -1.20000
PART 2
AFIX   0
C16   1    0.468722    0.618138    0.374880    11.00000    0.02006    0.01565 =
         0.01357   -0.00112   -0.00140   -0.00267
PART 0
AFIX  43
H16   2    0.443756    0.582954    0.374166    11.00000   -1.20000
PART 1
AFIX   0
C49   1    0.092313    0.624649    0.376081    11.00000    0.01681    0.01601 =
         0.01492    0.00136   -0.00270   -0.00276
PART 2
C40   1    0.788717    0.769087    0.583591    11.00000    0.02000    0.01510 =
         0.01219   -0.00122   -0.00153   -0.00054
PART 1
C61   1   -0.043614    0.838215    0.360310    11.00000    0.02041    0.01821 =
         0.01538   -0.00380   -0.00062    0.00212
PART 0
AFIX  43
H61   2   -0.073069    0.871758    0.359352    11.00000   -1.20000
PART 1
AFIX   0
C55   1    0.224926    0.774086    0.279200    11.00000    0.01785    0.01631 =
         0.01055   -0.00276   -0.00064   -0.00213
PART 2
C36   1    0.433180    0.586151    0.474124    11.00000    0.02712    0.02039 =
         0.01850   -0.00269    0.00789   -0.00280
PART 0
AFIX 137
H36A  2    0.391417    0.570954    0.488920    11.00000   -1.50000
H36B  2    0.408081    0.612244    0.458610    11.00000   -1.50000
H36C  2    0.474487    0.605109    0.487465    11.00000   -1.50000
PART 1
AFIX   0
C52   1    0.250229    0.575242    0.315200    11.00000    0.02709    0.01565 =
         0.01679   -0.00041    0.00017    0.00244
PART 0
AFIX  43
H52   2    0.262496    0.537862    0.319822    11.00000   -1.20000
PART 2
AFIX   0
C15   1    0.526199    0.636459    0.399082    11.00000    0.01549    0.01369 =
         0.01367   -0.00111    0.00274   -0.00162
C41   1    0.716425    0.769664    0.566185    11.00000    0.01572    0.02367 =
         0.01406   -0.00326    0.00675   -0.00068
PART 0
AFIX  43
H41   2    0.666790    0.772531    0.578178    11.00000   -1.20000
PART 2
AFIX   0
C7    1    0.751842    0.885665    0.423386    11.00000    0.02557    0.01740 =
         0.01594   -0.00123   -0.00413   -0.00526
PART 0
AFIX  43
H7    2    0.766476    0.922278    0.417768    11.00000   -1.20000
PART 1
AFIX   0
C62   1   -0.056175    0.796322    0.382515    11.00000    0.01803    0.02275 =
         0.01357   -0.00378    0.00162    0.00100
PART 0
AFIX  43
H62   2   -0.095508    0.795090    0.399853    11.00000   -1.20000
PART 1
AFIX   0
C87   1    0.365797    0.693724    0.210951    11.00000    0.01668    0.01783 =
         0.01271    0.00395    0.00020   -0.00020
PART 2
C17   1    0.455861    0.660417    0.352770    11.00000    0.01842    0.01897 =
         0.01397   -0.00246   -0.00098   -0.00183
PART 0
AFIX  43
H17   2    0.421008    0.660139    0.333874    11.00000   -1.20000
PART 1
AFIX   0
C58   1    0.127150    0.828617    0.295879    11.00000    0.01917    0.01617 =
         0.01122    0.00051   -0.00340   -0.00040
C65   1    0.215464    0.525481    0.399374    11.00000    0.02532    0.02122 =
         0.02164    0.00526    0.00367    0.00338
PART 2
C8    1    0.781831    0.855206    0.449618    11.00000    0.02683    0.02317 =
         0.01397   -0.00120   -0.00641   -0.00817
PART 0
AFIX  43
H8    2    0.820306    0.867010    0.465776    11.00000   -1.20000
PART 1
AFIX   0
C48   1    0.041477    0.615608    0.404688    11.00000    0.02129    0.02049 =
         0.01341    0.00233   -0.00030   -0.00216
PART 0
AFIX  43
H48   2    0.038843    0.582880    0.417562    11.00000   -1.20000
PART 2
AFIX   0
C20   1    0.735818    0.906691    0.331168    11.00000    0.02130    0.02383 =
         0.01424    0.00200   -0.00480   -0.00583
C11   1    0.722748    0.641120    0.483389    11.00000    0.02783    0.02405 =
         0.01457    0.00634   -0.00897   -0.00338
PART 0
AFIX  43
H11   2    0.760495    0.634078    0.500810    11.00000   -1.20000
PART 1
AFIX   0
C74   1    0.058536    0.953143    0.320438    11.00000    0.02649    0.01884 =
         0.01990   -0.00346    0.00387   -0.00068
C53   1    0.285807    0.607250    0.291221    11.00000    0.02340    0.02034 =
         0.01361   -0.00255    0.00472    0.00330
PART 0
AFIX  43
H53   2    0.327140    0.596338    0.276051    11.00000   -1.20000
PART 1
AFIX   0
C69   1    0.120860    0.489248    0.357972    11.00000    0.03441    0.02082 =
         0.02062   -0.00237    0.00996   -0.00420
PART 2
C9    1    0.744632    0.803422    0.447878    11.00000    0.01867    0.02292 =
         0.00920    0.00085   -0.00096   -0.00373
C2    1    0.502831    0.795975    0.327544    11.00000    0.01586    0.02102 =
         0.01254    0.00006   -0.00418    0.00015
PART 0
AFIX  43
H2    2    0.465057    0.789377    0.310069    11.00000   -1.20000
PART 2
AFIX   0
C12   1    0.665624    0.605736    0.471160    11.00000    0.02790    0.01952 =
         0.01521    0.00432   -0.00178   -0.00283
PART 0
AFIX  43
H12   2    0.656505    0.569143    0.478519    11.00000   -1.20000
PART 1
AFIX   0
C85   1    0.289413    0.677582    0.159783    11.00000    0.02413    0.02479 =
         0.01045    0.00286    0.00056    0.00120
C81   1   -0.044185    0.861772    0.255000    11.00000    0.02787    0.02655 =
         0.01551   -0.00004   -0.00335    0.00048
PART 0
AFIX 137
H81A  2   -0.081988    0.873037    0.237385    11.00000   -1.50000
H81B  2   -0.071378    0.835866    0.270028    11.00000   -1.50000
H81C  2    0.003359    0.844021    0.244949    11.00000   -1.50000
PART 1
AFIX   0
C47   1   -0.002677    0.662699    0.410133    11.00000    0.01814    0.02229 =
         0.01189   -0.00119    0.00122   -0.00167
PART 0
AFIX  43
H47   2   -0.041459    0.669010    0.427272    11.00000   -1.20000
PART 1
AFIX   0
C77   1   -0.038383    0.963721    0.263743    11.00000    0.03278    0.02822 =
         0.02419    0.00748   -0.00365    0.00452
PART 0
AFIX  43
H77   2   -0.072423    0.967388    0.244727    11.00000   -1.20000
PART 1
AFIX   0
C90   1    0.450209    0.696760    0.226185    11.00000    0.01296    0.03003 =
         0.01751    0.00366    0.00270   -0.00046
PART 0
AFIX 137
H90A  2    0.489983    0.681671    0.210455    11.00000   -1.50000
H90B  2    0.451399    0.675406    0.246906    11.00000   -1.50000
H90C  2    0.463719    0.735163    0.231025    11.00000   -1.50000
PART 1
AFIX   0
C86   1    0.362142    0.680848    0.177073    11.00000    0.01673    0.02634 =
         0.01543    0.00417    0.00514    0.00211
PART 0
AFIX  43
H86   2    0.411424    0.674061    0.165420    11.00000   -1.20000
PART 2
AFIX   0
C24   1    0.649960    0.969375    0.363101    11.00000    0.02329    0.01683 =
         0.02373   -0.00167   -0.00591   -0.00238
C23   1    0.673830    1.011518    0.341365    11.00000    0.04133    0.01716 =
         0.03107    0.00451   -0.00938   -0.00178
PART 0
AFIX  43
H23   2    0.652710    1.047434    0.344704    11.00000   -1.20000
PART 1
AFIX   0
C88   1    0.134879    0.706215    0.227571    11.00000    0.01411    0.02541 =
         0.01511   -0.00105   -0.00311   -0.00132
PART 0
AFIX 137
H88A  2    0.125536    0.745413    0.231660    11.00000   -1.50000
H88B  2    0.133659    0.686280    0.248807    11.00000   -1.50000
H88C  2    0.092260    0.691952    0.212843    11.00000   -1.50000
PART 2
AFIX   0
C43   1    0.945237    0.763885    0.514378    11.00000    0.01530    0.03095 =
         0.01567   -0.00545    0.00272   -0.00417
PART 0
AFIX 137
H43A  2    0.955749    0.727492    0.504841    11.00000   -1.50000
H43B  2    0.987061    0.772439    0.530998    11.00000   -1.50000
H43C  2    0.946494    0.791538    0.496614    11.00000   -1.50000
PART 2
AFIX   0
C25   1    0.768405    0.849716    0.324648    11.00000    0.02498    0.02804 =
         0.01743    0.00073    0.00215   -0.00010
PART 0
AFIX 137
H25A  2    0.726937    0.827832    0.313173    11.00000   -1.50000
H25B  2    0.782325    0.832144    0.345890    11.00000   -1.50000
H25C  2    0.817113    0.852178    0.310647    11.00000   -1.50000
PART 1
AFIX   0
C84   1    0.217844    0.686551    0.176992    11.00000    0.01831    0.02304 =
         0.01304    0.00140   -0.00424    0.00015
PART 0
AFIX  43
H84   2    0.167698    0.684569    0.165293    11.00000   -1.20000
PART 2
AFIX   0
C21   1    0.757924    0.950197    0.310757    11.00000    0.03824    0.02899 =
         0.01738    0.00150    0.00314   -0.00979
PART 0
AFIX  43
H21   2    0.795435    0.943789    0.293162    11.00000   -1.20000
PART 2
AFIX   0
C35   1    0.451416    0.384277    0.445002    11.00000    0.04089    0.01873 =
         0.02268   -0.00015    0.00405   -0.00776
PART 0
AFIX 137
H35A  2    0.416741    0.381690    0.464820    11.00000   -1.50000
H35B  2    0.497710    0.359229    0.447380    11.00000   -1.50000
H35C  2    0.419911    0.374152    0.425183    11.00000   -1.50000
PART 2
AFIX   0
C44   1    0.789099    0.769881    0.621235    11.00000    0.02233    0.03333 =
         0.01115   -0.00349    0.00207   -0.00098
PART 0
AFIX 137
H44A  2    0.788914    0.808017    0.629089    11.00000   -1.50000
H44B  2    0.837964    0.751225    0.629447    11.00000   -1.50000
H44C  2    0.740667    0.750915    0.629615    11.00000   -1.50000
PART 1
AFIX   0
C79   1    0.113211    0.948230    0.350337    11.00000    0.03582    0.02573 =
         0.01915   -0.00478   -0.00176   -0.00725
PART 0
AFIX 137
H79A  2    0.128534    0.985004    0.358067    11.00000   -1.50000
H79B  2    0.162242    0.927687    0.344219    11.00000   -1.50000
H79C  2    0.084504    0.928795    0.368218    11.00000   -1.50000
PART 1
AFIX   0
C76   1   -0.011416    1.010935    0.279868    11.00000    0.04139    0.02262 =
         0.04012    0.00694   -0.00456    0.00768
C75   1    0.036176    1.004928    0.308388    11.00000    0.04151    0.01701 =
         0.03353   -0.00596    0.00451    0.00039
PART 0
AFIX  43
H75   2    0.053900    1.036829    0.319951    11.00000   -1.20000
PART 1
AFIX   0
C66   1    0.228167    0.471941    0.410428    11.00000    0.03479    0.03005 =
         0.02931    0.01342    0.00324    0.00881
PART 0
AFIX  43
H66   2    0.264694    0.466030    0.428432    11.00000   -1.20000
PART 2
AFIX   0
C34   1    0.641198    0.519217    0.389863    11.00000    0.03180    0.02152 =
         0.03048   -0.00200    0.01041    0.00179
PART 0
AFIX 137
H34A  2    0.621997    0.545207    0.372932    11.00000   -1.50000
H34B  2    0.657429    0.484798    0.379059    11.00000   -1.50000
H34C  2    0.687944    0.534978    0.401620    11.00000   -1.50000
PART 1
AFIX   0
C89   1    0.288575    0.663543    0.122665    11.00000    0.03027    0.04433 =
         0.01125   -0.00186   -0.00142    0.00659
PART 0
AFIX 137
H89A  2    0.299926    0.696740    0.109634    11.00000   -1.50000
H89B  2    0.235018    0.649082    0.116523    11.00000   -1.50000
H89C  2    0.330241    0.635795    0.118014    11.00000   -1.50000
PART 1
AFIX   0
C70   1    0.259878    0.572772    0.415276    11.00000    0.03073    0.03120 =
         0.03211    0.00820   -0.01237    0.00082
PART 0
AFIX 137
H70A  2    0.221486    0.594974    0.428231    11.00000   -1.50000
H70B  2    0.284675    0.595561    0.397876    11.00000   -1.50000
H70C  2    0.302399    0.558577    0.430076    11.00000   -1.50000
PART 2
AFIX   0
C45   1    0.631006    0.766837    0.515196    11.00000    0.01527    0.05125 =
         0.01609   -0.00255   -0.00017    0.00480
PART 0
AFIX 137
H45A  2    0.613198    0.729038    0.510985    11.00000   -1.50000
H45B  2    0.633806    0.786931    0.494041    11.00000   -1.50000
H45C  2    0.592163    0.784992    0.530102    11.00000   -1.50000
PART 2
AFIX   0
C22   1    0.727245    1.002551    0.315144    11.00000    0.05313    0.02355 =
         0.02312    0.00615   -0.00438   -0.01021
PART 1
C68   1    0.136671    0.436399    0.370175    11.00000    0.05357    0.01505 =
         0.03614   -0.00193    0.01296   -0.00920
PART 0
AFIX  43
H68   2    0.110063    0.405871    0.360226    11.00000   -1.20000
PART 2
AFIX   0
C27   1    0.591919    0.980569    0.391532    11.00000    0.03928    0.02339 =
         0.03463   -0.00374    0.00105    0.00369
PART 0
AFIX 137
H27A  2    0.577718    1.019677    0.391784    11.00000   -1.50000
H27B  2    0.617893    0.970684    0.412699    11.00000   -1.50000
H27C  2    0.542513    0.958603    0.388546    11.00000   -1.50000
PART 1
AFIX   0
C67   1    0.190219    0.427352    0.396445    11.00000    0.04796    0.01875 =
         0.03994    0.00816    0.01193    0.00306
C72   1    0.062972    0.498034    0.329378    11.00000    0.05196    0.02987 =
         0.02815   -0.00374   -0.00250   -0.01722
PART 0
AFIX 137
H72A  2    0.020630    0.524140    0.336063    11.00000   -1.50000
H72B  2    0.037826    0.462938    0.323272    11.00000   -1.50000
H72C  2    0.092774    0.512744    0.310185    11.00000   -1.50000
PART 1
AFIX   0
C80   1   -0.030941    1.067555    0.266086    11.00000    0.07816    0.02508 =
         0.07990    0.01594   -0.01648    0.00522
PART 0
AFIX 137
H80A  2    0.009036    1.077337    0.248959    11.00000   -1.50000
H80B  2   -0.028991    1.094609    0.284177    11.00000   -1.50000
H80C  2   -0.085465    1.067253    0.256230    11.00000   -1.50000
PART 2
AFIX   0
C26   1    0.752661    1.048725    0.292152    11.00000    0.11297    0.03600 =
         0.04428    0.01671    0.01648   -0.01099
PART 0
AFIX 137
H26A  2    0.708302    1.075437    0.290297    11.00000   -1.50000
H26B  2    0.765125    1.033774    0.270036    11.00000   -1.50000
H26C  2    0.801026    1.066887    0.301224    11.00000   -1.50000
PART 1
AFIX   0
C71   1    0.207075    0.369506    0.408723    11.00000    0.09441    0.02330 =
         0.07072    0.01868    0.00696    0.00470
PART 0
AFIX 137
H71A  2    0.213055    0.369846    0.433045    11.00000   -1.50000
H71B  2    0.257317    0.355855    0.398523    11.00000   -1.50000
H71C  2    0.161743    0.345442    0.402533    11.00000   -1.50000
AFIX   0
C91   1    0.954416    0.580740    0.523651    11.00000    0.06325    0.10593 =
         0.05012    0.02519   -0.00527    0.00042
C92   1    0.931005    0.530005    0.534248    11.00000    0.08164    0.08375 =
         0.05896    0.01221   -0.01162    0.00116
AFIX  43
H92   2    0.947380    0.518119    0.555798    11.00000   -1.20000
AFIX   0
C96   1    0.931663    0.597249    0.492181    11.00000    0.09822    0.08075 =
         0.06548    0.00590   -0.00136    0.01400
AFIX  43
H96   2    0.948114    0.632236    0.484122    11.00000   -1.20000
AFIX   0
C93   1    0.883050    0.494090    0.514375    11.00000    0.08813    0.13088 =
         0.05370    0.01082    0.00447   -0.02324
AFIX  43
H93   2    0.868405    0.458734    0.522429    11.00000   -1.20000
AFIX   0
C97   1    1.004223    0.619585    0.545678    11.00000    0.10186    0.08611 =
         0.10177    0.05442   -0.04915   -0.02850
AFIX 137
H97A  2    1.061982    0.616166    0.540045    11.00000   -1.50000
H97B  2    0.996097    0.609930    0.569176    11.00000   -1.50000
H97C  2    0.986469    0.657523    0.541911    11.00000   -1.50000
AFIX   0
C95   1    0.883778    0.562399    0.471649    11.00000    0.09974    0.09422 =
         0.06881   -0.00831   -0.00485    0.02310
AFIX  43
H95   2    0.868791    0.573686    0.449812    11.00000   -1.20000
AFIX   0
C94   1    0.858712    0.510868    0.484017    11.00000    0.08923    0.09034 =
         0.07794   -0.00828    0.01773    0.00274
AFIX  43
H94   2    0.824586    0.487976    0.470885    11.00000   -1.20000
AFIX   0
HKLF 4

REM  180522po_a.res
REM R1 =  0.0457 for   11073 Fo > 4sig(Fo)  and  0.0654 for all   14126 data
REM   1019 parameters refined using      0 restraints

END

WGHT      0.0762     16.1746

REM Highest difference peak  0.884,  deepest hole -0.496,  1-sigma level  0.114
Q1    1   1.0376  0.5529  0.5132  11.00000  0.05    0.88
Q2    1   0.9345  0.6226  0.5357  11.00000  0.05    0.56
Q3    1   1.0126  0.5240  0.5004  11.00000  0.05    0.52
Q4    1  -0.0670  1.0683  0.2840  11.00000  0.05    0.46
Q5    1   0.0536  0.9329  0.3095  11.00000  0.05    0.45
Q6    1   0.0364  0.9723  0.3159  11.00000  0.05    0.41
Q7    1   0.1820  0.5333  0.3884  11.00000  0.05    0.41
Q8    1  -0.0538  0.9854  0.2768  11.00000  0.05    0.39
Q9    1   0.6825  1.0069  0.3160  11.00000  0.05    0.38
Q10   1   0.5071  0.5418  0.4464  11.00000  0.05    0.38
Q11   1   0.6128  0.9695  0.3761  11.00000  0.05    0.38
Q12   1   0.2645  0.6877  0.2834  11.00000  0.05    0.38
Q13   1   0.0531  0.8803  0.3081  11.00000  0.05    0.38
Q14   1   0.2204  0.4539  0.3947  11.00000  0.05    0.37
Q15   1   0.1453  0.5140  0.3635  11.00000  0.05    0.37
Q16   1   0.9450  0.5320  0.4843  11.00000  0.05    0.37
Q17   1  -0.0175  1.0081  0.2994  11.00000  0.05    0.37
Q18   1   0.6967  1.0466  0.2820  11.00000  0.05    0.36
Q19   1   0.5512  0.5270  0.4238  11.00000  0.05    0.36
Q20   1   0.8908  0.5394  0.5057  11.00000  0.05    0.36
;
_shelx_res_checksum              78491
loop_
_space_group_symop_operation_xyz
'x, y, z'
'-x+1/2, -y, z+1/2'
'x+1/2, -y+1/2, -z'
'-x, y+1/2, -z+1/2'
'-x, -y, -z'
'x-1/2, y, -z-1/2'
'-x-1/2, y-1/2, z'
'x, -y-1/2, z-1/2'
loop_
_atom_site_type_symbol
_atom_site_label
_atom_site_fract_x
_atom_site_fract_y
_atom_site_fract_z
_atom_site_U_iso_or_equiv
_atom_site_adp_type
_atom_site_calc_flag
_atom_site_refinement_flags_adp
_atom_site_refinement_flags_posn
_atom_site_occupancy
_atom_site_disorder_assembly
_atom_site_disorder_group
Ni Ni1 0.62079(2) 0.74066(2) 0.40953(2) 0.01184(10) Uani d . . 1 A 2
Ni Ni2 0.12290(2) 0.72089(2) 0.33089(2) 0.01198(10) Uani d . . 1 B 1
P P2 0.29283(4) 0.71767(3) 0.27283(2) 0.01323(17) Uani d . . 1 B 1
P P1 0.78575(4) 0.74552(3) 0.46935(2) 0.01383(17) Uani d . . 1 A 2
O O1 0.86573(12) 0.72997(8) 0.45496(5) 0.0195(5) Uani d . . 1 A 2
O O2 0.37506(12) 0.72934(8) 0.28651(5) 0.0189(5) Uani d . . 1 B 1
N N5 0.07829(14) 0.67739(9) 0.36483(5) 0.0140(5) Uani d . . 1 B 1
N N7 0.16016(14) 0.77578(9) 0.29997(6) 0.0135(5) Uani d . . 1 B 1
N N4 0.54762(14) 0.68959(9) 0.39146(5) 0.0129(5) Uani d . . 1 A 2
N N3 0.65423(14) 0.68671(9) 0.44208(5) 0.0136(5) Uani d . . 1 A 2
N N1 0.57740(14) 0.78367(9) 0.37514(6) 0.0140(5) Uani d . . 1 A 2
N N6 0.19148(14) 0.66054(9) 0.31761(5) 0.0132(5) Uani d . . 1 B 1
N N2 0.69074(14) 0.80087(10) 0.42208(6) 0.0145(5) Uani d . . 1 A 2
N N8 0.04760(14) 0.77125(9) 0.34822(6) 0.0140(5) Uani d . . 1 B 1
C C60 0.02153(17) 0.82253(12) 0.33889(7) 0.0150(6) Uani d . . 1 B 1
C C46 0.02184(17) 0.70005(12) 0.38472(7) 0.0149(6) Uani d . . 1 B 1
C C4 0.59587(17) 0.83450(11) 0.36224(7) 0.0151(6) Uani d . . 1 A 2
C C31 0.48208(18) 0.44249(12) 0.44133(7) 0.0193(6) Uani d . . 1 A 2
C C39 0.86098(17) 0.76793(11) 0.56568(7) 0.0151(6) Uani d . . 1 A 2
H H39 0.911 0.7697 0.5775 0.018 Uiso calc U R 1 A 2
C C37 0.78806(17) 0.76107(11) 0.51356(7) 0.0139(6) Uani d . . 1 A 2
C C54 0.24935(17) 0.65944(12) 0.29337(7) 0.0142(6) Uani d . . 1 B 1
C C30 0.54628(18) 0.45455(12) 0.41976(7) 0.0190(6) Uani d . . 1 A 2
H H30 0.5721 0.4252 0.4083 0.023 Uiso calc U R 1 A 2
C C32 0.44652(19) 0.48613(12) 0.45861(7) 0.0201(7) Uani d . . 1 A 2
H H32 0.4031 0.4787 0.4736 0.024 Uiso calc U R 1 A 2
C C59 0.06008(17) 0.85045(11) 0.31311(7) 0.0147(6) Uani d . . 1 B 1
C C83 0.21703(17) 0.69849(12) 0.21120(7) 0.0150(6) Uani d . . 1 B 1
C C56 0.23531(18) 0.82410(12) 0.26194(7) 0.0186(6) Uani d . . 1 B 1
H H56 0.2769 0.8326 0.2463 0.022 Uiso calc U R 1 B 1
C C5 0.65397(17) 0.86760(11) 0.37703(7) 0.0152(6) Uani d . . 1 A 2
C C63 0.00165(17) 0.75504(12) 0.37433(7) 0.0151(6) Uani d . . 1 B 1
C C1 0.52349(17) 0.75983(11) 0.35423(7) 0.0142(6) Uani d . . 1 A 2
C C14 0.56195(17) 0.60906(11) 0.42565(7) 0.0143(6) Uani d . . 1 A 2
C C19 0.68093(17) 0.91673(12) 0.35752(7) 0.0165(6) Uani d . . 1 A 2
C C82 0.29213(17) 0.70270(11) 0.22833(7) 0.0141(6) Uani d . . 1 B 1
C C42 0.71408(17) 0.76614(12) 0.53133(7) 0.0176(6) Uani d . . 1 A 2
C C13 0.62233(17) 0.63324(12) 0.44555(7) 0.0149(6) Uani d . . 1 A 2
C C28 0.53647(17) 0.55101(11) 0.43201(7) 0.0149(6) Uani d . . 1 A 2
C C18 0.50517(17) 0.70451(11) 0.36390(7) 0.0138(6) Uani d . . 1 A 2
C C38 0.86244(17) 0.76417(11) 0.53088(7) 0.0135(6) Uani d . . 1 A 2
C C78 -0.01731(18) 0.91165(12) 0.27446(7) 0.0199(7) Uani d . . 1 B 1
C C3 0.54895(18) 0.84229(12) 0.33240(7) 0.0174(6) Uani d . . 1 A 2
H H3 0.5497 0.8739 0.3185 0.021 Uiso calc U R 1 A 2
C C73 0.03182(17) 0.90647(12) 0.30289(7) 0.0164(6) Uani d . . 1 B 1
C C51 0.19207(17) 0.60784(12) 0.33179(7) 0.0151(6) Uani d . . 1 B 1
C C29 0.57381(18) 0.50793(12) 0.41446(7) 0.0176(6) Uani d . . 1 A 2
C C64 0.16073(18) 0.53378(12) 0.37274(7) 0.0180(6) Uani d . . 1 B 1
C C33 0.47267(17) 0.54003(12) 0.45462(7) 0.0167(6) Uani d . . 1 A 2
C C10 0.71449(17) 0.69042(12) 0.46491(7) 0.0166(6) Uani d . . 1 A 2
C C6 0.69536(17) 0.85222(12) 0.40647(7) 0.0162(6) Uani d . . 1 A 2
C C50 0.14669(17) 0.59063(12) 0.35987(7) 0.0154(6) Uani d . . 1 B 1
C C57 0.17365(18) 0.85802(12) 0.27208(7) 0.0193(6) Uani d . . 1 B 1
H H57 0.1639 0.8945 0.2646 0.023 Uiso calc U R 1 B 1
C C16 0.46872(17) 0.61814(12) 0.37488(7) 0.0164(6) Uani d . . 1 A 2
H H16 0.4438 0.583 0.3742 0.02 Uiso calc U R 1 A 2
C C49 0.09231(17) 0.62465(11) 0.37608(7) 0.0159(6) Uani d . . 1 B 1
C C40 0.78872(18) 0.76909(11) 0.58359(7) 0.0158(6) Uani d . . 1 A 2
C C61 -0.04361(18) 0.83821(12) 0.36031(7) 0.0180(6) Uani d . . 1 B 1
H H61 -0.0731 0.8718 0.3594 0.022 Uiso calc U R 1 B 1
C C55 0.22493(17) 0.77409(12) 0.27920(7) 0.0149(6) Uani d . . 1 B 1
C C36 0.43318(19) 0.58615(12) 0.47412(7) 0.0220(7) Uani d . . 1 A 2
H H36A 0.3914 0.571 0.4889 0.033 Uiso calc U R 1 A 2
H H36B 0.4081 0.6122 0.4586 0.033 Uiso calc U R 1 A 2
H H36C 0.4745 0.6051 0.4875 0.033 Uiso calc U R 1 A 2
C C52 0.25023(18) 0.57524(12) 0.31520(7) 0.0198(7) Uani d . . 1 B 1
H H52 0.2625 0.5379 0.3198 0.024 Uiso calc U R 1 B 1
C C15 0.52620(17) 0.63646(11) 0.39908(7) 0.0143(6) Uani d . . 1 A 2
C C41 0.71643(18) 0.76966(12) 0.56619(7) 0.0178(6) Uani d . . 1 A 2
H H41 0.6668 0.7725 0.5782 0.021 Uiso calc U R 1 A 2
C C7 0.75184(18) 0.88566(12) 0.42339(7) 0.0196(6) Uani d . . 1 A 2
H H7 0.7665 0.9223 0.4178 0.024 Uiso calc U R 1 A 2
C C62 -0.05618(18) 0.79632(12) 0.38251(7) 0.0181(6) Uani d . . 1 B 1
H H62 -0.0955 0.7951 0.3999 0.022 Uiso calc U R 1 B 1
C C87 0.36580(17) 0.69372(12) 0.21095(7) 0.0157(6) Uani d . . 1 B 1
C C17 0.45586(17) 0.66042(12) 0.35277(7) 0.0171(6) Uani d . . 1 A 2
H H17 0.421 0.6601 0.3339 0.021 Uiso calc U R 1 A 2
C C58 0.12715(17) 0.82862(12) 0.29588(7) 0.0155(6) Uani d . . 1 B 1
C C65 0.21546(19) 0.52548(12) 0.39937(8) 0.0227(7) Uani d . . 1 B 1
C C8 0.78183(19) 0.85521(12) 0.44962(7) 0.0213(7) Uani d . . 1 A 2
H H8 0.8203 0.867 0.4658 0.026 Uiso calc U R 1 A 2
C C48 0.04148(18) 0.61561(12) 0.40469(7) 0.0184(6) Uani d . . 1 B 1
H H48 0.0388 0.5829 0.4176 0.022 Uiso calc U R 1 B 1
C C20 0.73582(18) 0.90669(13) 0.33117(7) 0.0198(7) Uani d . . 1 A 2
C C11 0.72275(19) 0.64112(12) 0.48339(7) 0.0222(7) Uani d . . 1 A 2
H H11 0.7605 0.6341 0.5008 0.027 Uiso calc U R 1 A 2
C C74 0.05854(19) 0.95314(12) 0.32044(8) 0.0217(7) Uani d . . 1 B 1
C C53 0.28581(18) 0.60725(12) 0.29122(7) 0.0191(7) Uani d . . 1 B 1
H H53 0.3271 0.5963 0.2761 0.023 Uiso calc U R 1 B 1
C C69 0.1209(2) 0.48925(13) 0.35797(8) 0.0253(7) Uani d . . 1 B 1
C C9 0.74463(18) 0.80342(12) 0.44788(7) 0.0169(6) Uani d . . 1 A 2
C C2 0.50283(17) 0.79597(12) 0.32754(7) 0.0165(6) Uani d . . 1 A 2
H H2 0.4651 0.7894 0.3101 0.02 Uiso calc U R 1 A 2
C C12 0.66562(18) 0.60574(13) 0.47116(7) 0.0209(7) Uani d . . 1 A 2
H H12 0.6565 0.5691 0.4785 0.025 Uiso calc U R 1 A 2
C C85 0.28941(18) 0.67758(13) 0.15978(7) 0.0198(7) Uani d . . 1 B 1
C C81 -0.04418(19) 0.86177(13) 0.25500(7) 0.0233(7) Uani d . . 1 B 1
H H81A -0.082 0.873 0.2374 0.035 Uiso calc U R 1 B 1
H H81B -0.0714 0.8359 0.27 0.035 Uiso calc U R 1 B 1
H H81C 0.0034 0.844 0.2449 0.035 Uiso calc U R 1 B 1
C C47 -0.00268(18) 0.66270(12) 0.41013(7) 0.0174(6) Uani d . . 1 B 1
H H47 -0.0415 0.669 0.4273 0.021 Uiso calc U R 1 B 1
C C77 -0.0384(2) 0.96372(13) 0.26374(8) 0.0284(8) Uani d . . 1 B 1
H H77 -0.0724 0.9674 0.2447 0.034 Uiso calc U R 1 B 1
C C90 0.45021(17) 0.69676(13) 0.22618(7) 0.0202(7) Uani d . . 1 B 1
H H90A 0.49 0.6817 0.2105 0.03 Uiso calc U R 1 B 1
H H90B 0.4514 0.6754 0.2469 0.03 Uiso calc U R 1 B 1
H H90C 0.4637 0.7352 0.231 0.03 Uiso calc U R 1 B 1
C C86 0.36214(18) 0.68085(13) 0.17707(7) 0.0195(7) Uani d . . 1 B 1
H H86 0.4114 0.6741 0.1654 0.023 Uiso calc U R 1 B 1
C C24 0.64996(19) 0.96938(12) 0.36310(8) 0.0213(7) Uani d . . 1 A 2
C C23 0.6738(2) 1.01152(13) 0.34136(8) 0.0299(8) Uani d . . 1 A 2
H H23 0.6527 1.0474 0.3447 0.036 Uiso calc U R 1 A 2
C C88 0.13488(17) 0.70621(13) 0.22757(7) 0.0182(6) Uani d . . 1 B 1
H H88A 0.1255 0.7454 0.2317 0.027 Uiso calc U R 1 B 1
H H88B 0.1337 0.6863 0.2488 0.027 Uiso calc U R 1 B 1
H H88C 0.0923 0.692 0.2128 0.027 Uiso calc U R 1 B 1
C C43 0.94524(17) 0.76388(13) 0.51438(7) 0.0206(7) Uani d . . 1 A 2
H H43A 0.9557 0.7275 0.5048 0.031 Uiso calc U R 1 A 2
H H43B 0.9871 0.7724 0.531 0.031 Uiso calc U R 1 A 2
H H43C 0.9465 0.7915 0.4966 0.031 Uiso calc U R 1 A 2
C C25 0.76841(19) 0.84972(13) 0.32465(8) 0.0235(7) Uani d . . 1 A 2
H H25A 0.7269 0.8278 0.3132 0.035 Uiso calc U R 1 A 2
H H25B 0.7823 0.8321 0.3459 0.035 Uiso calc U R 1 A 2
H H25C 0.8171 0.8522 0.3106 0.035 Uiso calc U R 1 A 2
C C84 0.21784(18) 0.68655(12) 0.17699(7) 0.0181(6) Uani d . . 1 B 1
H H84 0.1677 0.6846 0.1653 0.022 Uiso calc U R 1 B 1
C C21 0.7579(2) 0.95020(14) 0.31076(8) 0.0282(8) Uani d . . 1 A 2
H H21 0.7954 0.9438 0.2932 0.034 Uiso calc U R 1 A 2
C C35 0.4514(2) 0.38428(12) 0.44500(8) 0.0274(8) Uani d . . 1 A 2
H H35A 0.4167 0.3817 0.4648 0.041 Uiso calc U R 1 A 2
H H35B 0.4977 0.3592 0.4474 0.041 Uiso calc U R 1 A 2
H H35C 0.4199 0.3742 0.4252 0.041 Uiso calc U R 1 A 2
C C44 0.78910(19) 0.76988(13) 0.62124(7) 0.0223(7) Uani d . . 1 A 2
H H44A 0.7889 0.808 0.6291 0.033 Uiso calc U R 1 A 2
H H44B 0.838 0.7512 0.6294 0.033 Uiso calc U R 1 A 2
H H44C 0.7407 0.7509 0.6296 0.033 Uiso calc U R 1 A 2
C C79 0.1132(2) 0.94823(14) 0.35034(8) 0.0269(7) Uani d . . 1 B 1
H H79A 0.1285 0.985 0.3581 0.04 Uiso calc U R 1 B 1
H H79B 0.1622 0.9277 0.3442 0.04 Uiso calc U R 1 B 1
H H79C 0.0845 0.9288 0.3682 0.04 Uiso calc U R 1 B 1
C C76 -0.0114(2) 1.01094(14) 0.27987(9) 0.0347(9) Uani d . . 1 B 1
C C75 0.0362(2) 1.00493(13) 0.30839(9) 0.0307(8) Uani d . . 1 B 1
H H75 0.0539 1.0368 0.32 0.037 Uiso calc U R 1 B 1
C C66 0.2282(2) 0.47194(14) 0.41043(9) 0.0314(8) Uani d . . 1 B 1
H H66 0.2647 0.466 0.4284 0.038 Uiso calc U R 1 B 1
C C34 0.6412(2) 0.51922(13) 0.38986(8) 0.0279(8) Uani d . . 1 A 2
H H34A 0.622 0.5452 0.3729 0.042 Uiso calc U R 1 A 2
H H34B 0.6574 0.4848 0.3791 0.042 Uiso calc U R 1 A 2
H H34C 0.6879 0.535 0.4016 0.042 Uiso calc U R 1 A 2
C C89 0.2886(2) 0.66354(15) 0.12267(7) 0.0286(8) Uani d . . 1 B 1
H H89A 0.2999 0.6967 0.1096 0.043 Uiso calc U R 1 B 1
H H89B 0.235 0.6491 0.1165 0.043 Uiso calc U R 1 B 1
H H89C 0.3302 0.6358 0.118 0.043 Uiso calc U R 1 B 1
C C70 0.2599(2) 0.57277(14) 0.41528(9) 0.0313(8) Uani d . . 1 B 1
H H70A 0.2215 0.595 0.4282 0.047 Uiso calc U R 1 B 1
H H70B 0.2847 0.5956 0.3979 0.047 Uiso calc U R 1 B 1
H H70C 0.3024 0.5586 0.4301 0.047 Uiso calc U R 1 B 1
C C45 0.63101(18) 0.76684(15) 0.51520(8) 0.0275(8) Uani d . . 1 A 2
H H45A 0.6132 0.729 0.511 0.041 Uiso calc U R 1 A 2
H H45B 0.6338 0.7869 0.494 0.041 Uiso calc U R 1 A 2
H H45C 0.5922 0.785 0.5301 0.041 Uiso calc U R 1 A 2
C C22 0.7272(2) 1.00255(14) 0.31514(8) 0.0333(8) Uani d . . 1 A 2
C C68 0.1367(2) 0.43640(13) 0.37018(9) 0.0349(9) Uani d . . 1 B 1
H H68 0.1101 0.4059 0.3602 0.042 Uiso calc U R 1 B 1
C C27 0.5919(2) 0.98057(14) 0.39153(9) 0.0324(8) Uani d . . 1 A 2
H H27A 0.5777 1.0197 0.3918 0.049 Uiso calc U R 1 A 2
H H27B 0.6179 0.9707 0.4127 0.049 Uiso calc U R 1 A 2
H H27C 0.5425 0.9586 0.3885 0.049 Uiso calc U R 1 A 2
C C67 0.1902(2) 0.42735(14) 0.39644(9) 0.0355(9) Uani d . . 1 B 1
C C72 0.0630(2) 0.49803(15) 0.32938(9) 0.0367(9) Uani d . . 1 B 1
H H72A 0.0206 0.5241 0.3361 0.055 Uiso calc U R 1 B 1
H H72B 0.0378 0.4629 0.3233 0.055 Uiso calc U R 1 B 1
H H72C 0.0928 0.5127 0.3102 0.055 Uiso calc U R 1 B 1
C C80 -0.0309(3) 1.06756(16) 0.26609(12) 0.0610(13) Uani d . . 1 B 1
H H80A 0.009 1.0773 0.249 0.092 Uiso calc U R 1 B 1
H H80B -0.029 1.0946 0.2842 0.092 Uiso calc U R 1 B 1
H H80C -0.0855 1.0673 0.2562 0.092 Uiso calc U R 1 B 1
C C26 0.7527(4) 1.04873(18) 0.29215(11) 0.0644(14) Uani d . . 1 A 2
H H26A 0.7083 1.0754 0.2903 0.097 Uiso calc U R 1 A 2
H H26B 0.7651 1.0338 0.27 0.097 Uiso calc U R 1 A 2
H H26C 0.801 1.0669 0.3012 0.097 Uiso calc U R 1 A 2
C C71 0.2071(3) 0.36951(16) 0.40872(12) 0.0628(14) Uani d . . 1 B 1
H H71A 0.2131 0.3698 0.433 0.094 Uiso calc U R 1 B 1
H H71B 0.2573 0.3559 0.3985 0.094 Uiso calc U R 1 B 1
H H71C 0.1617 0.3454 0.4025 0.094 Uiso calc U R 1 B 1
C C91 0.9544(3) 0.5807(3) 0.52365(12) 0.0731(15) Uani d . . 1 . .
C C92 0.9310(3) 0.5300(2) 0.53425(13) 0.0748(15) Uani d . . 1 . .
H H92 0.9474 0.5181 0.5558 0.09 Uiso calc U R 1 . .
C C96 0.9317(4) 0.5972(3) 0.49218(14) 0.0815(16) Uani d . . 1 . .
H H96 0.9481 0.6322 0.4841 0.098 Uiso calc U R 1 . .
C C93 0.8831(4) 0.4941(3) 0.51438(14) 0.091(2) Uani d . . 1 . .
H H93 0.8684 0.4587 0.5224 0.109 Uiso calc U R 1 . .
C C97 1.0042(4) 0.6196(2) 0.54568(15) 0.097(2) Uani d . . 1 . .
H H97A 1.062 0.6162 0.54 0.145 Uiso calc U R 1 . .
H H97B 0.9961 0.6099 0.5692 0.145 Uiso calc U R 1 . .
H H97C 0.9865 0.6575 0.5419 0.145 Uiso calc U R 1 . .
C C95 0.8838(4) 0.5624(3) 0.47165(16) 0.0876(18) Uani d . . 1 . .
H H95 0.8688 0.5737 0.4498 0.105 Uiso calc U R 1 . .
C C94 0.8587(4) 0.5109(3) 0.48402(16) 0.0858(18) Uani d . . 1 . .
H H94 0.8246 0.488 0.4709 0.103 Uiso calc U R 1 . .
loop_
_atom_site_aniso_label
_atom_site_aniso_U_11
_atom_site_aniso_U_22
_atom_site_aniso_U_33
_atom_site_aniso_U_12
_atom_site_aniso_U_13
_atom_site_aniso_U_23
Ni1 0.0140(2) 0.0138(2) 0.00777(19) -0.00228(15) -0.00169(14) 0.00055(13)
Ni2 0.0139(2) 0.01366(19) 0.00837(19) -0.00011(14) 0.00077(14) 0.00061(14)
P2 0.0132(4) 0.0170(4) 0.0095(4) -0.0012(3) -0.0007(3) -0.0001(3)
P1 0.0148(4) 0.0195(4) 0.0072(3) -0.0024(3) -0.0010(3) 0.0001(3)
O1 0.0204(11) 0.0276(12) 0.0106(10) -0.0001(9) 0.0011(8) -0.0041(9)
O2 0.0142(11) 0.0275(12) 0.0152(11) -0.0011(9) -0.0023(8) -0.0032(9)
N5 0.0148(12) 0.0169(12) 0.0103(12) 0.0001(10) 0.0013(10) 0.0002(9)
N7 0.0158(12) 0.0155(12) 0.0092(11) -0.0003(10) 0.0010(10) -0.0013(9)
N4 0.0143(12) 0.0145(12) 0.0098(11) 0.0002(10) 0.0009(10) -0.0005(9)
N3 0.0155(12) 0.0167(12) 0.0087(11) -0.0018(10) 0.0002(10) -0.0007(9)
N1 0.0140(12) 0.0168(13) 0.0112(12) -0.0030(10) -0.0020(10) -0.0002(9)
N6 0.0156(12) 0.0154(12) 0.0085(11) -0.0014(10) -0.0016(10) -0.0003(9)
N2 0.0154(12) 0.0177(12) 0.0105(12) -0.0019(10) 0.0005(10) 0.0010(9)
N8 0.0164(12) 0.0152(12) 0.0103(12) 0.0007(10) 0.0004(10) -0.0001(9)
C60 0.0160(15) 0.0176(15) 0.0115(14) 0.0008(12) -0.0018(11) -0.0031(11)
C46 0.0140(14) 0.0188(15) 0.0119(14) -0.0020(12) -0.0004(12) -0.0013(11)
C4 0.0172(15) 0.0141(14) 0.0141(14) 0.0011(12) 0.0001(12) 0.0008(11)
C31 0.0263(17) 0.0179(15) 0.0136(14) -0.0017(13) -0.0026(13) 0.0026(12)
C39 0.0166(15) 0.0149(15) 0.0138(15) -0.0011(12) -0.0023(12) -0.0002(11)
C37 0.0186(15) 0.0150(14) 0.0081(13) -0.0018(12) 0.0015(12) -0.0002(11)
C54 0.0150(14) 0.0188(15) 0.0087(13) -0.0015(12) -0.0024(11) -0.0001(11)
C30 0.0245(17) 0.0154(15) 0.0171(15) 0.0003(13) -0.0008(13) -0.0022(12)
C32 0.0257(17) 0.0215(16) 0.0130(14) -0.0054(13) 0.0028(13) 0.0012(12)
C59 0.0178(15) 0.0148(14) 0.0115(14) -0.0002(12) -0.0027(12) -0.0023(11)
C83 0.0149(15) 0.0151(14) 0.0151(15) -0.0005(12) -0.0010(12) 0.0032(11)
C56 0.0195(16) 0.0202(16) 0.0159(15) -0.0027(13) 0.0025(12) 0.0032(12)
C5 0.0170(15) 0.0164(15) 0.0122(14) 0.0007(12) 0.0013(12) -0.0008(11)
C63 0.0166(15) 0.0197(15) 0.0089(14) -0.0027(12) -0.0001(12) -0.0010(11)
C1 0.0144(14) 0.0179(15) 0.0105(14) -0.0008(12) 0.0004(11) -0.0025(11)
C14 0.0144(14) 0.0163(15) 0.0124(14) 0.0007(12) 0.0042(12) -0.0009(11)
C19 0.0182(15) 0.0191(15) 0.0122(14) -0.0053(12) -0.0085(12) 0.0024(12)
C82 0.0154(15) 0.0147(14) 0.0121(14) -0.0011(12) -0.0013(12) 0.0030(11)
C42 0.0170(15) 0.0202(15) 0.0156(15) -0.0014(12) -0.0014(12) -0.0007(12)
C13 0.0173(15) 0.0179(15) 0.0093(14) -0.0019(12) 0.0009(11) -0.0004(11)
C28 0.0175(15) 0.0163(15) 0.0108(14) -0.0026(12) -0.0029(12) 0.0019(11)
C18 0.0143(14) 0.0174(14) 0.0097(14) 0.0025(12) 0.0011(11) -0.0012(11)
C38 0.0140(14) 0.0137(14) 0.0127(14) 0.0004(11) 0.0000(12) -0.0005(11)
C78 0.0203(16) 0.0221(16) 0.0174(16) 0.0016(13) 0.0049(13) 0.0020(12)
C3 0.0216(16) 0.0176(15) 0.0131(14) -0.0005(13) -0.0026(12) 0.0021(12)
C73 0.0179(15) 0.0176(15) 0.0138(14) 0.0014(12) 0.0037(12) 0.0000(11)
C51 0.0172(15) 0.0158(15) 0.0124(14) -0.0002(12) -0.0024(12) -0.0009(11)
C29 0.0184(16) 0.0189(16) 0.0155(14) 0.0008(13) 0.0010(12) -0.0010(12)
C64 0.0222(16) 0.0177(15) 0.0140(15) -0.0005(13) 0.0076(13) 0.0015(12)
C33 0.0189(15) 0.0197(15) 0.0116(14) -0.0002(12) -0.0008(12) -0.0003(12)
C10 0.0207(16) 0.0211(16) 0.0080(13) -0.0014(13) 0.0009(12) -0.0009(11)
C6 0.0183(15) 0.0160(15) 0.0143(14) -0.0013(12) 0.0008(12) 0.0021(11)
C50 0.0164(15) 0.0175(15) 0.0124(14) -0.0037(12) -0.0028(12) 0.0010(11)
C57 0.0226(16) 0.0161(15) 0.0192(15) -0.0025(13) -0.0008(13) 0.0027(12)
C16 0.0201(15) 0.0157(15) 0.0136(14) -0.0027(12) -0.0014(12) -0.0011(11)
C49 0.0168(15) 0.0160(15) 0.0149(14) -0.0028(12) -0.0027(12) 0.0014(12)
C40 0.0200(16) 0.0151(15) 0.0122(14) -0.0005(12) -0.0015(12) -0.0012(11)
C61 0.0204(15) 0.0182(15) 0.0154(15) 0.0021(13) -0.0006(12) -0.0038(12)
C55 0.0179(15) 0.0163(15) 0.0106(14) -0.0021(12) -0.0006(12) -0.0028(11)
C36 0.0271(17) 0.0204(16) 0.0185(16) -0.0028(13) 0.0079(13) -0.0027(12)
C52 0.0271(17) 0.0157(15) 0.0168(15) 0.0024(13) 0.0002(13) -0.0004(12)
C15 0.0155(15) 0.0137(14) 0.0137(14) -0.0016(12) 0.0027(12) -0.0011(11)
C41 0.0157(15) 0.0237(16) 0.0141(15) -0.0007(12) 0.0067(12) -0.0033(12)
C7 0.0256(16) 0.0174(15) 0.0159(15) -0.0053(13) -0.0041(13) -0.0012(12)
C62 0.0180(15) 0.0228(16) 0.0136(15) 0.0010(13) 0.0016(12) -0.0038(12)
C87 0.0167(15) 0.0178(15) 0.0127(14) -0.0002(12) 0.0002(12) 0.0040(11)
C17 0.0184(15) 0.0190(15) 0.0140(14) -0.0018(12) -0.0010(12) -0.0025(12)
C58 0.0192(15) 0.0162(15) 0.0112(14) -0.0004(12) -0.0034(12) 0.0005(11)
C65 0.0253(17) 0.0212(16) 0.0216(16) 0.0034(14) 0.0037(14) 0.0053(13)
C8 0.0268(17) 0.0232(16) 0.0140(15) -0.0082(14) -0.0064(13) -0.0012(12)
C48 0.0213(16) 0.0205(16) 0.0134(15) -0.0022(13) -0.0003(12) 0.0023(12)
C20 0.0213(16) 0.0238(17) 0.0142(15) -0.0058(13) -0.0048(13) 0.0020(12)
C11 0.0278(17) 0.0241(17) 0.0146(15) -0.0034(14) -0.0090(13) 0.0063(12)
C74 0.0265(17) 0.0188(16) 0.0199(16) -0.0007(13) 0.0039(13) -0.0035(12)
C53 0.0234(16) 0.0203(16) 0.0136(15) 0.0033(13) 0.0047(12) -0.0026(12)
C69 0.0344(19) 0.0208(17) 0.0206(16) -0.0042(14) 0.0100(14) -0.0024(13)
C9 0.0187(15) 0.0229(16) 0.0092(14) -0.0037(13) -0.0010(12) 0.0009(12)
C2 0.0159(15) 0.0210(15) 0.0125(14) 0.0002(13) -0.0042(12) 0.0001(12)
C12 0.0279(17) 0.0195(16) 0.0152(15) -0.0028(13) -0.0018(13) 0.0043(12)
C85 0.0241(17) 0.0248(16) 0.0104(14) 0.0012(13) 0.0006(13) 0.0029(12)
C81 0.0279(18) 0.0266(17) 0.0155(15) 0.0005(14) -0.0034(13) 0.0000(13)
C47 0.0181(15) 0.0223(16) 0.0119(14) -0.0017(13) 0.0012(12) -0.0012(12)
C77 0.0328(19) 0.0282(18) 0.0242(17) 0.0045(15) -0.0036(15) 0.0075(14)
C90 0.0130(15) 0.0300(17) 0.0175(16) -0.0005(13) 0.0027(12) 0.0037(13)
C86 0.0167(16) 0.0263(17) 0.0154(15) 0.0021(13) 0.0051(12) 0.0042(12)
C24 0.0233(16) 0.0168(16) 0.0237(17) -0.0024(13) -0.0059(13) -0.0017(13)
C23 0.041(2) 0.0172(16) 0.0311(19) -0.0018(15) -0.0094(16) 0.0045(14)
C88 0.0141(15) 0.0254(16) 0.0151(15) -0.0013(13) -0.0031(12) -0.0010(12)
C43 0.0153(15) 0.0309(18) 0.0157(15) -0.0042(13) 0.0027(12) -0.0055(13)
C25 0.0250(17) 0.0280(18) 0.0174(15) -0.0001(14) 0.0021(13) 0.0007(13)
C84 0.0183(16) 0.0230(16) 0.0130(14) 0.0001(13) -0.0042(12) 0.0014(12)
C21 0.038(2) 0.0290(19) 0.0174(16) -0.0098(15) 0.0031(15) 0.0015(13)
C35 0.041(2) 0.0187(16) 0.0227(17) -0.0078(15) 0.0040(15) -0.0002(13)
C44 0.0223(17) 0.0333(18) 0.0111(15) -0.0010(14) 0.0021(13) -0.0035(13)
C79 0.0358(19) 0.0257(18) 0.0192(16) -0.0073(15) -0.0018(14) -0.0048(13)
C76 0.041(2) 0.0226(19) 0.040(2) 0.0077(16) -0.0046(17) 0.0069(15)
C75 0.042(2) 0.0170(16) 0.034(2) 0.0004(15) 0.0045(16) -0.0060(14)
C66 0.035(2) 0.0301(19) 0.0293(19) 0.0088(16) 0.0032(15) 0.0134(15)
C34 0.0318(19) 0.0215(17) 0.0305(18) 0.0018(14) 0.0104(15) -0.0020(14)
C89 0.0303(19) 0.044(2) 0.0112(15) 0.0066(16) -0.0014(14) -0.0019(14)
C70 0.0307(19) 0.0312(19) 0.0321(19) 0.0008(15) -0.0124(16) 0.0082(15)
C45 0.0153(16) 0.051(2) 0.0161(16) 0.0048(15) -0.0002(13) -0.0025(15)
C22 0.053(2) 0.0236(18) 0.0231(18) -0.0102(17) -0.0044(17) 0.0062(14)
C68 0.054(2) 0.0150(17) 0.036(2) -0.0092(16) 0.0130(18) -0.0019(15)
C27 0.039(2) 0.0234(18) 0.035(2) 0.0037(16) 0.0010(17) -0.0037(15)
C67 0.048(2) 0.0187(18) 0.040(2) 0.0031(16) 0.0119(18) 0.0082(15)
C72 0.052(2) 0.030(2) 0.0282(19) -0.0172(18) -0.0025(17) -0.0037(15)
C80 0.078(3) 0.025(2) 0.080(3) 0.005(2) -0.016(3) 0.016(2)
C26 0.113(4) 0.036(2) 0.044(3) -0.011(3) 0.016(3) 0.017(2)
C71 0.094(4) 0.023(2) 0.071(3) 0.005(2) 0.007(3) 0.019(2)
C91 0.063(3) 0.106(4) 0.050(3) 0.000(3) -0.005(3) 0.025(3)
C92 0.082(4) 0.084(4) 0.059(3) 0.001(3) -0.012(3) 0.012(3)
C96 0.098(4) 0.081(4) 0.065(4) 0.014(3) -0.001(3) 0.006(3)
C93 0.088(4) 0.131(6) 0.054(3) -0.023(4) 0.004(3) 0.011(4)
C97 0.102(5) 0.086(4) 0.102(5) -0.029(4) -0.049(4) 0.054(4)
C95 0.100(5) 0.094(5) 0.069(4) 0.023(4) -0.005(3) -0.008(3)
C94 0.089(4) 0.090(5) 0.078(4) 0.003(4) 0.018(3) -0.008(3)
loop_
_atom_type_symbol
_atom_type_description
_atom_type_scat_dispersion_real
_atom_type_scat_dispersion_imag
_atom_type_scat_source
C C 0.0033 0.0016 'International Tables Vol C Tables 4.2.6.8 and 6.1.1.4'
H H 0.0000 0.0000 'International Tables Vol C Tables 4.2.6.8 and 6.1.1.4'
N N 0.0061 0.0033 'International Tables Vol C Tables 4.2.6.8 and 6.1.1.4'
Ni Ni 0.3393 1.1124 'International Tables Vol C Tables 4.2.6.8 and 6.1.1.4'
P P 0.1023 0.0942 'International Tables Vol C Tables 4.2.6.8 and 6.1.1.4'
O O 0.0106 0.0060 'International Tables Vol C Tables 4.2.6.8 and 6.1.1.4'
loop_
_geom_angle_atom_site_label_1
_geom_angle_atom_site_label_2
_geom_angle_atom_site_label_3
_geom_angle
N1 Ni1 N4 80.88(10)
N1 Ni1 N2 89.71(10)
N4 Ni1 N2 170.55(10)
N1 Ni1 N3 170.47(10)
N4 Ni1 N3 89.61(10)
N2 Ni1 N3 99.80(10)
N5 Ni2 N8 80.89(10)
N5 Ni2 N7 170.27(10)
N8 Ni2 N7 89.73(10)
N5 Ni2 N6 89.96(10)
N8 Ni2 N6 170.70(10)
N7 Ni2 N6 99.49(10)
O2 P2 C54 110.20(12)
O2 P2 C55 111.64(13)
C54 P2 C55 107.03(13)
O2 P2 C82 113.92(12)
C54 P2 C82 106.87(13)
C55 P2 C82 106.83(13)
O1 P1 C9 110.46(13)
O1 P1 C10 110.51(13)
C9 P1 C10 107.18(14)
O1 P1 C37 114.48(13)
C9 P1 C37 108.35(13)
C10 P1 C37 105.50(13)
C46 N5 C49 107.7(2)
C46 N5 Ni2 118.04(19)
C49 N5 Ni2 134.22(19)
C55 N7 C58 105.1(2)
C55 N7 Ni2 128.81(19)
C58 N7 Ni2 126.00(18)
C18 N4 C15 107.5(2)
C18 N4 Ni1 117.87(19)
C15 N4 Ni1 134.59(19)
C10 N3 C13 105.5(2)
C10 N3 Ni1 128.38(19)
C13 N3 Ni1 126.02(18)
C1 N1 C4 107.4(2)
C1 N1 Ni1 117.84(19)
C4 N1 Ni1 134.08(19)
C54 N6 C51 105.5(2)
C54 N6 Ni2 128.46(19)
C51 N6 Ni2 126.09(18)
C9 N2 C6 105.3(2)
C9 N2 Ni1 128.3(2)
C6 N2 Ni1 126.43(19)
C63 N8 C60 107.6(2)
C63 N8 Ni2 117.76(19)
C60 N8 Ni2 134.42(19)
N8 C60 C59 120.3(3)
N8 C60 C61 108.3(2)
C59 C60 C61 131.3(3)
N5 C46 C47 111.0(2)
N5 C46 C63 111.7(2)
C47 C46 C63 137.3(3)
N1 C4 C5 121.0(3)
N1 C4 C3 108.3(2)
C5 C4 C3 130.6(3)
C32 C31 C30 117.7(3)
C32 C31 C35 121.7(3)
C30 C31 C35 120.6(3)
C40 C39 C38 122.1(3)
C38 C37 C42 119.6(2)
C38 C37 P1 120.7(2)
C42 C37 P1 119.5(2)
N6 C54 C53 111.1(2)
N6 C54 P2 126.4(2)
C53 C54 P2 121.1(2)
C29 C30 C31 122.5(3)
C33 C32 C31 122.1(3)
C60 C59 C58 122.6(3)
C60 C59 C73 120.5(2)
C58 C59 C73 117.0(2)
C84 C83 C82 118.7(3)
C84 C83 C88 117.3(2)
C82 C83 C88 124.0(2)
C57 C56 C55 106.6(3)
C4 C5 C6 122.4(3)
C4 C5 C19 116.5(2)
C6 C5 C19 120.4(2)
N8 C63 C62 110.3(2)
N8 C63 C46 111.5(2)
C62 C63 C46 138.1(3)
N1 C1 C2 110.9(2)
N1 C1 C18 111.9(2)
C2 C1 C18 137.1(3)
C15 C14 C13 122.3(3)
C15 C14 C28 117.8(2)
C13 C14 C28 119.8(2)
C24 C19 C20 120.8(3)
C24 C19 C5 122.8(3)
C20 C19 C5 116.3(3)
C87 C82 C83 119.8(2)
C87 C82 P2 120.5(2)
C83 C82 P2 119.7(2)
C41 C42 C37 118.9(3)
C41 C42 C45 116.8(3)
C37 C42 C45 124.2(3)
C14 C13 N3 126.5(3)
C14 C13 C12 124.7(3)
N3 C13 C12 108.7(2)
C29 C28 C33 120.4(3)
C29 C28 C14 119.8(2)
C33 C28 C14 119.8(2)
N4 C18 C17 110.4(2)
N4 C18 C1 111.3(2)
C17 C18 C1 138.3(3)
C39 C38 C37 118.7(2)
C39 C38 C43 116.9(2)
C37 C38 C43 124.4(2)
C77 C78 C73 118.6(3)
C77 C78 C81 120.2(3)
C73 C78 C81 121.1(3)
C2 C3 C4 107.9(3)
C78 C73 C74 120.9(3)
C78 C73 C59 118.9(3)
C74 C73 C59 120.1(3)
N6 C51 C52 109.2(2)
N6 C51 C50 126.1(3)
C52 C51 C50 124.5(3)
C30 C29 C28 118.5(3)
C30 C29 C34 120.6(3)
C28 C29 C34 120.9(3)
C69 C64 C65 120.6(3)
C69 C64 C50 119.9(3)
C65 C64 C50 119.5(3)
C32 C33 C28 118.8(3)
C32 C33 C36 120.5(3)
C28 C33 C36 120.7(3)
N3 C10 C11 111.6(3)
N3 C10 P1 126.7(2)
C11 C10 P1 121.3(2)
N2 C6 C7 109.7(2)
N2 C6 C5 125.7(3)
C7 C6 C5 124.5(3)
C49 C50 C51 122.6(3)
C49 C50 C64 119.5(3)
C51 C50 C64 117.9(3)
C56 C57 C58 107.2(3)
C17 C16 C15 107.9(3)
N5 C49 C50 120.8(3)
N5 C49 C48 107.8(2)
C50 C49 C48 131.4(3)
C41 C40 C39 118.5(3)
C41 C40 C44 120.6(3)
C39 C40 C44 120.9(3)
C62 C61 C60 107.8(3)
N7 C55 C56 111.8(3)
N7 C55 P2 127.1(2)
C56 C55 P2 121.1(2)
C53 C52 C51 107.5(3)
N4 C15 C14 120.9(2)
N4 C15 C16 108.2(2)
C14 C15 C16 130.8(3)
C40 C41 C42 121.9(3)
C8 C7 C6 107.0(3)
C61 C62 C63 106.0(3)
C86 C87 C82 118.5(3)
C86 C87 C90 116.2(3)
C82 C87 C90 125.3(2)
C16 C17 C18 106.0(3)
N7 C58 C59 126.3(3)
N7 C58 C57 109.4(2)
C59 C58 C57 124.3(3)
C66 C65 C64 118.1(3)
C66 C65 C70 120.5(3)
C64 C65 C70 121.4(3)
C7 C8 C9 106.8(3)
C47 C48 C49 107.9(3)
C21 C20 C19 118.5(3)
C21 C20 C25 120.4(3)
C19 C20 C25 121.1(3)
C12 C11 C10 106.3(3)
C75 C74 C73 118.2(3)
C75 C74 C79 120.3(3)
C73 C74 C79 121.4(3)
C52 C53 C54 106.8(3)
C64 C69 C68 118.5(3)
C64 C69 C72 120.6(3)
C68 C69 C72 120.9(3)
N2 C9 C8 111.2(3)
N2 C9 P1 125.2(2)
C8 C9 P1 121.3(2)
C3 C2 C1 105.6(2)
C11 C12 C13 107.9(3)
C84 C85 C86 118.5(3)
C84 C85 C89 120.9(3)
C86 C85 C89 120.6(3)
C48 C47 C46 105.6(2)
C78 C77 C76 122.2(3)
C85 C86 C87 122.5(3)
C19 C24 C23 118.0(3)
C19 C24 C27 121.1(3)
C23 C24 C27 120.9(3)
C22 C23 C24 122.2(3)
C85 C84 C83 122.0(3)
C22 C21 C20 122.2(3)
C77 C76 C75 118.3(3)
C77 C76 C80 120.9(3)
C75 C76 C80 120.8(3)
C76 C75 C74 121.7(3)
C67 C66 C65 122.8(3)
C21 C22 C23 118.2(3)
C21 C22 C26 120.4(4)
C23 C22 C26 121.3(3)
C67 C68 C69 121.8(3)
C66 C67 C68 118.2(3)
C66 C67 C71 121.2(4)
C68 C67 C71 120.6(4)
C92 C91 C96 118.3(6)
C92 C91 C97 122.1(5)
C96 C91 C97 119.6(5)
C91 C92 C93 122.7(5)
C91 C96 C95 120.5(6)
C94 C93 C92 119.1(6)
C94 C95 C96 119.3(6)
C93 C94 C95 120.1(6)
loop_
_geom_bond_atom_site_label_1
_geom_bond_atom_site_label_2
_geom_bond_distance
Ni1 N1 1.872(2)
Ni1 N4 1.876(2)
Ni1 N2 1.930(2)
Ni1 N3 1.931(2)
Ni2 N5 1.874(2)
Ni2 N8 1.876(2)
Ni2 N7 1.923(2)
Ni2 N6 1.927(2)
P2 O2 1.487(2)
P2 C54 1.788(3)
P2 C55 1.788(3)
P2 C82 1.821(3)
P1 O1 1.485(2)
P1 C9 1.784(3)
P1 C10 1.790(3)
P1 C37 1.812(3)
N5 C46 1.342(4)
N5 C49 1.380(4)
N7 C55 1.353(4)
N7 C58 1.405(4)
N4 C18 1.357(3)
N4 C15 1.374(4)
N3 C10 1.352(4)
N3 C13 1.410(4)
N1 C1 1.351(4)
N1 C4 1.374(4)
N6 C54 1.360(4)
N6 C51 1.403(4)
N2 C9 1.363(4)
N2 C6 1.399(4)
N8 C63 1.350(4)
N8 C60 1.371(4)
C60 C59 1.390(4)
C60 C61 1.425(4)
C46 C47 1.423(4)
C46 C63 1.440(4)
C4 C5 1.383(4)
C4 C3 1.436(4)
C31 C32 1.396(4)
C31 C30 1.396(4)
C31 C35 1.511(4)
C39 C40 1.389(4)
C39 C38 1.398(4)
C37 C38 1.409(4)
C37 C42 1.415(4)
C54 C53 1.407(4)
C30 C29 1.392(4)
C32 C33 1.389(4)
C59 C58 1.406(4)
C59 C73 1.497(4)
C83 C84 1.402(4)
C83 C82 1.417(4)
C83 C88 1.514(4)
C56 C57 1.369(4)
C56 C55 1.410(4)
C5 C6 1.413(4)
C5 C19 1.496(4)
C63 C62 1.422(4)
C1 C2 1.426(4)
C1 C18 1.433(4)
C14 C15 1.387(4)
C14 C13 1.403(4)
C14 C28 1.495(4)
C19 C24 1.397(4)
C19 C20 1.411(4)
C82 C87 1.415(4)
C42 C41 1.400(4)
C42 C45 1.512(4)
C13 C12 1.417(4)
C28 C29 1.404(4)
C28 C33 1.412(4)
C18 C17 1.417(4)
C38 C43 1.514(4)
C78 C77 1.382(4)
C78 C73 1.403(4)
C78 C81 1.509(4)
C3 C2 1.372(4)
C73 C74 1.406(4)
C51 C52 1.409(4)
C51 C50 1.414(4)
C29 C34 1.509(4)
C64 C69 1.398(4)
C64 C65 1.411(4)
C64 C50 1.495(4)
C33 C36 1.514(4)
C10 C11 1.416(4)
C6 C7 1.409(4)
C50 C49 1.381(4)
C57 C58 1.417(4)
C16 C17 1.374(4)
C16 C15 1.426(4)
C49 C48 1.436(4)
C40 C41 1.379(4)
C40 C44 1.509(4)
C61 C62 1.369(4)
C52 C53 1.369(4)
C7 C8 1.378(4)
C87 C86 1.395(4)
C87 C90 1.519(4)
C65 C66 1.392(4)
C65 C70 1.505(4)
C8 C9 1.403(4)
C48 C47 1.374(4)
C20 C21 1.387(4)
C20 C25 1.509(4)
C11 C12 1.365(4)
C74 C75 1.399(4)
C74 C79 1.503(4)
C69 C68 1.400(5)
C69 C72 1.505(5)
C85 C84 1.382(4)
C85 C86 1.385(4)
C85 C89 1.527(4)
C77 C76 1.391(5)
C24 C23 1.402(4)
C24 C27 1.511(5)
C23 C22 1.387(5)
C21 C22 1.382(5)
C76 C75 1.393(5)
C76 C80 1.519(5)
C66 C67 1.372(5)
C22 C26 1.512(5)
C68 C67 1.390(5)
C67 C71 1.517(5)
C91 C92 1.361(7)
C91 C96 1.376(7)
C91 C97 1.531(7)
C92 C93 1.421(8)
C96 C95 1.420(8)
C93 C94 1.345(8)
C95 C94 1.410(8)
