#------------------------------------------------------------------------------
#$Date: 2019-11-08 00:58:12 +0200 (Fri, 08 Nov 2019) $
#$Revision: 224378 $
#$URL: file:///home/coder/svn-repositories/cod/cif/7/04/94/7049489.cif $
#------------------------------------------------------------------------------
#
# This file is available in the Crystallography Open Database (COD),
# http://www.crystallography.net/
#
# All data on this site have been placed in the public domain by the
# contributors.
#
data_7049489
loop_
_publ_author_name
'Sudhakar, Kolanu'
'Mahammed, Atif'
'Fridman, Natalia'
'Gross, Zeev'
_publ_section_title
;
 Trifluoromethylation for affecting the structural, electronic and redox
 properties of cobalt corroles.
;
_journal_issue                   15
_journal_name_full
'Dalton transactions (Cambridge, England : 2003)'
_journal_page_first              4798
_journal_page_last               4810
_journal_paper_doi               10.1039/c9dt00675c
_journal_volume                  48
_journal_year                    2019
_chemical_formula_moiety         'C51 H14 Co F27 N6, C H2 Cl2'
_chemical_formula_sum            'C52 H16 Cl2 Co F27 N6'
_chemical_formula_weight         1367.54
_chemical_name_common            'Gross100 (Sudhakar)'
_space_group_crystal_system      monoclinic
_space_group_IT_number           15
_space_group_name_Hall           '-C 2yc'
_space_group_name_H-M_alt        'C 1 2/c 1'
_symmetry_space_group_name_Hall  '-C 2yc'
_symmetry_space_group_name_H-M   'C 1 2/c 1'
_atom_sites_solution_hydrogens   geom
_audit_creation_method           SHELXL-2018/3
_audit_update_record
;
2019-02-27 deposited with the CCDC.    2019-03-22 downloaded from the CCDC.
;
_cell_angle_alpha                90
_cell_angle_beta                 91.249(4)
_cell_angle_gamma                90
_cell_formula_units_Z            8
_cell_length_a                   17.157(3)
_cell_length_b                   22.569(11)
_cell_length_c                   25.638(5)
_cell_measurement_reflns_used    8084
_cell_measurement_temperature    200(2)
_cell_measurement_theta_max      24.357
_cell_measurement_theta_min      1.491
_cell_volume                     9925(5)
_computing_cell_refinement       'DENZO HKL2000 (Otwinowski & Minor 1997)'
_computing_data_collection       'Collect (Nonius, 2006)'
_computing_data_reduction        'DENZO HKL2000 (Otwinowski & Minor 1997)'
_computing_molecular_graphics    'Mercury 3.10.1'
_computing_structure_refinement  'SHELXL-2018/3 (Sheldrick, 2018)'
_computing_structure_solution    'SHELXL-2018/3 (Sheldrick, 2018)'
_diffrn_ambient_temperature      200(2)
_diffrn_detector_area_resol_mean 95
_diffrn_measured_fraction_theta_full 0.993
_diffrn_measured_fraction_theta_max 0.993
_diffrn_measurement_device_type  'Nonius KappaCCD'
_diffrn_measurement_method       'phi- and omega-scans'
_diffrn_radiation_monochromator  graphite
_diffrn_radiation_source         'fine-focus sealed tube'
_diffrn_radiation_type           MoK\a
_diffrn_radiation_wavelength     0.71073
_diffrn_reflns_av_R_equivalents  0.0790
_diffrn_reflns_av_unetI/netI     0.0408
_diffrn_reflns_Laue_measured_fraction_full 0.993
_diffrn_reflns_Laue_measured_fraction_max 0.993
_diffrn_reflns_limit_h_max       19
_diffrn_reflns_limit_h_min       0
_diffrn_reflns_limit_k_max       26
_diffrn_reflns_limit_k_min       0
_diffrn_reflns_limit_l_max       29
_diffrn_reflns_limit_l_min       -29
_diffrn_reflns_number            8084
_diffrn_reflns_point_group_measured_fraction_full 0.993
_diffrn_reflns_point_group_measured_fraction_max 0.993
_diffrn_reflns_theta_full        24.357
_diffrn_reflns_theta_max         24.357
_diffrn_reflns_theta_min         1.491
_exptl_absorpt_coefficient_mu    0.603
_exptl_absorpt_correction_T_max  0.895
_exptl_absorpt_correction_T_min  0.849
_exptl_absorpt_correction_type   multi-scan
_exptl_absorpt_process_details
; 
'HKL Denzo and Scalepack (Otwinowski & Minor 1997)'  
;
_exptl_crystal_colour            'dark red'
_exptl_crystal_density_diffrn    1.830
_exptl_crystal_density_method    'not measured'
_exptl_crystal_description       block
_exptl_crystal_F_000             5392
_exptl_crystal_size_max          0.240
_exptl_crystal_size_mid          0.180
_exptl_crystal_size_min          0.150
_refine_diff_density_max         0.929
_refine_diff_density_min         -0.755
_refine_diff_density_rms         0.090
_refine_ls_extinction_method     none
_refine_ls_goodness_of_fit_ref   1.143
_refine_ls_hydrogen_treatment    constr
_refine_ls_matrix_type           full
_refine_ls_number_parameters     793
_refine_ls_number_reflns         8084
_refine_ls_number_restraints     0
_refine_ls_restrained_S_all      1.143
_refine_ls_R_factor_all          0.0994
_refine_ls_R_factor_gt           0.0858
_refine_ls_shift/su_max          0.001
_refine_ls_shift/su_mean         0.000
_refine_ls_structure_factor_coef Fsqd
_refine_ls_weighting_details
'w=1/[\s^2^(Fo^2^)+(0.0731P)^2^+82.2599P] where P=(Fo^2^+2Fc^2^)/3'
_refine_ls_weighting_scheme      calc
_refine_ls_wR_factor_gt          0.1902
_refine_ls_wR_factor_ref         0.1968
_reflns_Friedel_coverage         0.000
_reflns_number_gt                6972
_reflns_number_total             8084
_reflns_threshold_expression     'I > 2\s(I)'
_cod_data_source_file            c9dt00675c2.cif
_cod_data_source_block           Gross100
_cod_depositor_comments
'Adding full bibliography for 7049489--7049491.cif.'
_cod_original_cell_volume        9925(6)
_cod_database_code               7049489
_shelx_shelxl_version_number     2018/3
_shelx_space_group_comment
;
The symmetry employed for this shelxl refinement is uniquely defined
by the following loop, which should always be used as a source of
symmetry information in preference to the above space-group names.
They are only intended as comments.
;
_shelx_estimated_absorpt_t_min   0.869
_shelx_estimated_absorpt_t_max   0.915
_shelx_res_file
;
TITL Gross100 (Sudhakar), dark red block, monoclinic, C2/c, Rint=0.096
    gross100.res
    created by SHELXL-2018/3 at 12:36:09 on 27-Feb-2019
CELL 0.71073 17.157 22.569 25.638 90 91.249 90
ZERR 8 0.0034 0.0108 0.0052 0 0.0042 0
LATT 7
SYMM -X,+Y,0.5-Z
SFAC C H Cl Co F N
DISP C 0.0033 0.0016
DISP Cl 0.1484 0.1585
DISP Co 0.3494 0.9721
DISP F 0.0171 0.0103
DISP H 0 0
DISP N 0.0061 0.0033
UNIT 416 128 16 8 216 48

L.S. 8
PLAN  -20
SIZE 0.15 0.18 0.24
TEMP -73
LIST 4
BOND $H
fmap 2
acta
OMIT 0 50.1
OMIT 0 2 1
OMIT 1 1 1
OMIT -1 1 1
REM <olex2.extras>
REM <HklSrc "%.\\Gross100.hkl">
REM </olex2.extras>

WGHT    0.073100   82.259903
FVAR       0.31704
CO1   4    0.705262    0.058412    0.161653    11.00000    0.02994    0.02805 =
         0.01767    0.00040   -0.00240    0.00457
F1    5    0.716451   -0.062474    0.354476    11.00000    0.04145    0.07319 =
         0.04294    0.01412   -0.00662   -0.00864
F2    5    0.796346   -0.100865    0.438830    11.00000    0.07612    0.07188 =
         0.04031    0.02733   -0.00031   -0.00265
F3    5    0.948554   -0.072336    0.452820    11.00000    0.07384    0.06800 =
         0.03556    0.00504   -0.02637    0.02285
F4    5    1.020068   -0.003273    0.381604    11.00000    0.04260    0.10399 =
         0.06133    0.00836   -0.02242   -0.00609
F5    5    0.939182    0.037954    0.298049    11.00000    0.04946    0.09058 =
         0.04867    0.02187   -0.00970   -0.02191
F6    5    0.746651   -0.180431    0.100227    11.00000    0.04998    0.04409 =
         0.04593    0.01106    0.00564    0.00057
F7    5    0.816976   -0.257431    0.035379    11.00000    0.08591    0.03086 =
         0.05405   -0.00331   -0.00940    0.00707
F8    5    0.914802   -0.217236   -0.038194    11.00000    0.08386    0.06181 =
         0.04183   -0.01290    0.00670    0.03355
F9    5    0.945440   -0.099780   -0.045612    11.00000    0.04953    0.07753 =
         0.03772    0.00162    0.01304    0.00782
F10   5    0.877803   -0.023329    0.018537    11.00000    0.05396    0.04012 =
         0.04334    0.00074    0.00723   -0.00715
F11   5    0.711195    0.185510   -0.009680    11.00000    0.06199    0.06565 =
         0.05696    0.00966    0.01402    0.00939
F12   5    0.665882    0.221875   -0.105554    11.00000    0.14912    0.08070 =
         0.04130    0.02255    0.01630    0.00784
F13   5    0.516395    0.205474   -0.138054    11.00000    0.18929    0.07716 =
         0.04544    0.00840   -0.05578    0.02186
F14   5    0.414098    0.150440   -0.075444    11.00000    0.10099    0.09302 =
         0.10027   -0.01215   -0.06690    0.01979
F15   5    0.461326    0.110816    0.019811    11.00000    0.04561    0.07760 =
         0.08976   -0.00871   -0.02171    0.00113
F16   5    0.500485    0.237572    0.057462    11.00000    0.06118    0.04766 =
         0.04662    0.00132   -0.02100    0.01928
F17   5    0.610243    0.278843    0.045017    11.00000    0.08510    0.05540 =
         0.04365    0.02474    0.00827    0.00158
F18   5    0.538884    0.306846    0.107505    11.00000    0.10150    0.03793 =
         0.04337   -0.00362   -0.01443    0.03136
F19   5    0.561366    0.305891    0.212071    11.00000    0.05880    0.03342 =
         0.04630   -0.00752    0.00290    0.01198
F20   5    0.663327    0.321712    0.167629    11.00000    0.07793    0.03361 =
         0.04978    0.00578    0.00516   -0.01533
F21   5    0.673203    0.276688    0.240894    11.00000    0.05750    0.04084 =
         0.04045   -0.00658   -0.01206   -0.00379
F22   5    0.563821    0.213269    0.285339    11.00000    0.04373    0.04842 =
         0.03522   -0.00275   -0.00245    0.01417
F23   5    0.651473    0.240228    0.341468    11.00000    0.06782    0.04375 =
         0.03750   -0.01776   -0.01167    0.00785
F24   5    0.578449    0.164882    0.356205    11.00000    0.06561    0.05662 =
         0.03542    0.00155    0.01817    0.01206
F25   5    0.697069    0.055702    0.395943    11.00000    0.11740    0.08769 =
         0.02743    0.01386    0.00540    0.01393
F26   5    0.714990    0.149633    0.399387    11.00000    0.12596    0.07869 =
         0.02927   -0.02649   -0.02776    0.05574
F27   5    0.809733    0.092615    0.383429    11.00000    0.08532    0.07886 =
         0.04384   -0.02419   -0.03839    0.03432
N1    6    0.764147   -0.009400    0.181474    11.00000    0.03094    0.02970 =
         0.02070   -0.00118   -0.00335    0.00588
N2    6    0.690690    0.034538    0.091665    11.00000    0.03547    0.03032 =
         0.02221    0.00080   -0.00295    0.00742
N3    6    0.651089    0.129705    0.149246    11.00000    0.02988    0.03004 =
         0.01936    0.00051   -0.00326    0.00768
N4    6    0.711244    0.088717    0.229978    11.00000    0.03102    0.02866 =
         0.02185    0.00269   -0.00194    0.00116
N5    6    0.604289    0.017176    0.176456    11.00000    0.03276    0.03708 =
         0.02062   -0.00008   -0.00214    0.00095
N6    6    0.803623    0.098631    0.144016    11.00000    0.03652    0.02591 =
         0.02458   -0.00030    0.00015    0.00052
C1    1    0.782512    0.012321    0.275874    11.00000    0.03294    0.03379 =
         0.01801    0.00539   -0.00726   -0.00035
C2    1    0.794743   -0.021248    0.231058    11.00000    0.03306    0.03223 =
         0.02217    0.00477   -0.00691    0.00166
C3    1    0.843375   -0.072764    0.227772    11.00000    0.04667    0.03311 =
         0.02144    0.00433   -0.00982    0.01216
AFIX  43
H3    2    0.871167   -0.090935    0.255952    11.00000   -1.20000
AFIX   0
C4    1    0.842685   -0.090826    0.177696    11.00000    0.03697    0.03405 =
         0.02912   -0.00156   -0.00570    0.01201
AFIX  43
H4    2    0.870326   -0.123677    0.164143    11.00000   -1.20000
AFIX   0
C5    1    0.792148   -0.051069    0.148257    11.00000    0.02708    0.02733 =
         0.02912    0.00222   -0.00100    0.00688
C6    1    0.771564   -0.054899    0.095374    11.00000    0.04023    0.02906 =
         0.02376   -0.00192   -0.00081    0.00561
C7    1    0.720408   -0.015359    0.069904    11.00000    0.03691    0.03278 =
         0.02283   -0.00301    0.00064    0.00575
C8    1    0.692110   -0.019272    0.016374    11.00000    0.05360    0.03544 =
         0.02159   -0.00801   -0.00552    0.01108
AFIX  43
H8    2    0.702614   -0.050278   -0.007528    11.00000   -1.20000
AFIX   0
C9    1    0.648651    0.028585    0.006807    11.00000    0.04840    0.04076 =
         0.02233   -0.00126   -0.00771    0.01104
AFIX  43
H9    2    0.622871    0.037634   -0.025382    11.00000   -1.20000
AFIX   0
C10   1    0.647188    0.064391    0.053365    11.00000    0.03472    0.03441 =
         0.02079   -0.00135   -0.00492    0.00109
C11   1    0.617129    0.120884    0.057920    11.00000    0.03532    0.03568 =
         0.01991    0.00245   -0.00388    0.00598
C12   1    0.621267    0.155371    0.104627    11.00000    0.03201    0.02870 =
         0.02392    0.00348   -0.00533    0.00247
C13   1    0.601421    0.214489    0.117148    11.00000    0.03399    0.03011 =
         0.02858    0.00405    0.00047    0.00132
C14   1    0.620838    0.223303    0.170245    11.00000    0.03178    0.02946 =
         0.02484    0.00143   -0.00100   -0.00016
C15   1    0.648232    0.168609    0.189584    11.00000    0.03019    0.02869 =
         0.02407   -0.00119    0.00006    0.00110
C16   1    0.674744    0.141419    0.238123    11.00000    0.03361    0.02608 =
         0.01962   -0.00288   -0.00262    0.00334
C17   1    0.672287    0.151690    0.292449    11.00000    0.03095    0.03123 =
         0.02630   -0.00274   -0.00315    0.00236
C18   1    0.715266    0.105668    0.316450    11.00000    0.03581    0.03247 =
         0.02097   -0.00304   -0.00445    0.00305
C19   1    0.738520    0.065793    0.276681    11.00000    0.02711    0.02799 =
         0.02277    0.00490   -0.00378    0.00153
C20   1    0.825220   -0.009943    0.324178    11.00000    0.03700    0.03301 =
         0.02049    0.00134   -0.00448    0.00729
C21   1    0.791260   -0.046127    0.360567    11.00000    0.03466    0.04419 =
         0.02772    0.00069   -0.00448    0.00134
C22   1    0.831669   -0.066541    0.404285    11.00000    0.05581    0.03526 =
         0.02509    0.00652    0.00222    0.00593
C23   1    0.908736   -0.052094    0.411347    11.00000    0.05570    0.04178 =
         0.02487    0.00087   -0.01572    0.01441
C24   1    0.944634   -0.017441    0.375154    11.00000    0.03638    0.05568 =
         0.03936   -0.00890   -0.01683    0.00477
C25   1    0.902877    0.002703    0.332354    11.00000    0.04250    0.04264 =
         0.03100    0.00479   -0.00491   -0.00214
C26   1    0.810057   -0.099661    0.061946    11.00000    0.03967    0.03201 =
         0.02145   -0.00481   -0.00948    0.01272
C27   1    0.796433   -0.159661    0.065028    11.00000    0.03400    0.03733 =
         0.03101    0.00535   -0.00190    0.00418
C28   1    0.831665   -0.199853    0.031624    11.00000    0.04956    0.02735 =
         0.04151   -0.00216   -0.01259    0.01209
C29   1    0.881008   -0.178924   -0.005674    11.00000    0.04956    0.04448 =
         0.02958   -0.00624   -0.00463    0.02185
C30   1    0.896024   -0.120181   -0.009471    11.00000    0.03819    0.05304 =
         0.02610    0.00213    0.00459    0.01133
C31   1    0.862083   -0.080972    0.023741    11.00000    0.03513    0.03629 =
         0.02738    0.00055   -0.00075    0.00458
C32   1    0.586631    0.146042    0.007635    11.00000    0.05522    0.03836 =
         0.02416   -0.00534   -0.01304    0.01859
C33   1    0.638362    0.175290   -0.025655    11.00000    0.07083    0.04092 =
         0.02709    0.00360   -0.00356    0.01484
C34   1    0.614594    0.195041   -0.074426    11.00000    0.10246    0.04192 =
         0.04157    0.00261    0.00568    0.01187
C35   1    0.540613    0.186567   -0.090082    11.00000    0.11239    0.04936 =
         0.04771   -0.00680   -0.03393    0.01560
C36   1    0.486929    0.158952   -0.059866    11.00000    0.07085    0.04562 =
         0.06635   -0.01763   -0.03817    0.01721
C37   1    0.512515    0.138777   -0.009990    11.00000    0.05115    0.04853 =
         0.05455   -0.00466   -0.01196    0.00517
C38   1    0.564013    0.258912    0.082577    11.00000    0.05370    0.02830 =
         0.03532   -0.00095   -0.00596    0.00919
C39   1    0.627919    0.281026    0.197460    11.00000    0.04155    0.03523 =
         0.03372   -0.00212   -0.00204    0.00045
C40   1    0.618722    0.192962    0.318826    11.00000    0.04231    0.04359 =
         0.02489    0.00010   -0.00139    0.00648
C41   1    0.733719    0.101000    0.373619    11.00000    0.07035    0.04903 =
         0.03232   -0.00689   -0.00928    0.02102
C42   1    0.599555   -0.041362    0.177345    11.00000    0.03914    0.03896 =
         0.07632   -0.00965    0.00428   -0.00455
AFIX  43
H42   2    0.646393   -0.063560    0.174997    11.00000   -1.20000
AFIX   0
C43   1    0.530523   -0.071772    0.181482    11.00000    0.05500    0.04935 =
         0.09064   -0.02280    0.01152   -0.00945
AFIX  43
H43   2    0.530687   -0.113859    0.182116    11.00000   -1.20000
AFIX   0
C44   1    0.462366   -0.041979    0.184653    11.00000    0.03792    0.08325 =
         0.05286    0.00496   -0.00686   -0.01731
AFIX  43
H44   2    0.413832   -0.062052    0.186479    11.00000   -1.20000
AFIX   0
C45   1    0.466916    0.018438    0.185092    11.00000    0.03766    0.07851 =
         0.14202    0.05159    0.00772    0.01084
AFIX  43
H45   2    0.420770    0.041303    0.188259    11.00000   -1.20000
AFIX   0
C46   1    0.537217    0.046290    0.181019    11.00000    0.03540    0.05541 =
         0.12432    0.03378    0.02171    0.00752
AFIX  43
H46   2    0.538336    0.088371    0.181461    11.00000   -1.20000
AFIX   0
C47   1    0.860790    0.105703    0.179672    11.00000    0.03972    0.04921 =
         0.03127    0.00084   -0.00100   -0.00531
AFIX  43
H47   2    0.853374    0.090595    0.213792    11.00000   -1.20000
AFIX   0
C48   1    0.929830    0.133794    0.169348    11.00000    0.04242    0.06127 =
         0.04260   -0.00373   -0.00024   -0.00748
AFIX  43
H48   2    0.968322    0.138603    0.196214    11.00000   -1.20000
AFIX   0
C49   1    0.943030    0.154929    0.119994    11.00000    0.04135    0.04620 =
         0.05882   -0.00637    0.01372   -0.00236
AFIX  43
H49   2    0.990545    0.174114    0.111900    11.00000   -1.20000
AFIX   0
C50   1    0.884942    0.147272    0.082801    11.00000    0.05333    0.06257 =
         0.03876    0.00892    0.01371   -0.00571
AFIX  43
H50   2    0.892001    0.161228    0.048266    11.00000   -1.20000
AFIX   0
C51   1    0.816494    0.119375    0.095569    11.00000    0.04549    0.05567 =
         0.02648    0.00702    0.00648   -0.00233
AFIX  43
H51   2    0.776993    0.114575    0.069366    11.00000   -1.20000
AFIX   0

CL1   3    0.864066    0.312476    0.243622    11.00000    0.21743    0.37488 =
         0.11932    0.04134    0.00844   -0.15391
CL2   3    0.877437    0.203148    0.302025    11.00000    0.09729    0.14867 =
         0.23117   -0.04882   -0.01694   -0.00865
C52   1    0.839929    0.273042    0.298265    11.00000    0.06562    0.42486 =
         0.16980   -0.13114    0.00909    0.00276
AFIX  23
H52A  2    0.857996    0.295479    0.329430    11.00000   -1.20000
H52B  2    0.782407    0.270339    0.299508    11.00000   -1.20000
AFIX   0
HKLF 4




REM  Gross100 (Sudhakar), dark red block, monoclinic, C2/c, Rint=0.096
REM wR2 = 0.1968, GooF = S = 1.143, Restrained GooF = 1.143 for all data
REM R1 = 0.0858 for 6972 Fo > 4sig(Fo) and 0.0994 for all 8084 data
REM 793 parameters refined using 0 restraints

END

WGHT      0.0727     82.4745

REM Highest difference peak  0.929,  deepest hole -0.755,  1-sigma level  0.090
Q1    1   0.8461  0.3299  0.2690  11.00000  0.05    0.93
Q2    1   0.7016  0.1048  0.1606  11.00000  0.05    0.85
Q3    1   0.8562  0.2576  0.2397  11.00000  0.05    0.83
Q4    1   0.7053  0.0117  0.1630  11.00000  0.05    0.75
Q5    1   0.8480  0.3326  0.2328  11.00000  0.05    0.75
Q6    1   0.9407  0.2847  0.2429  11.00000  0.05    0.71
Q7    1   0.4373  0.1938 -0.1205  11.00000  0.05    0.68
Q8    1   0.3643  0.1402 -0.0337  11.00000  0.05    0.67
Q9    1   0.6310  0.0589  0.1703  11.00000  0.05    0.63
Q10   1   0.9329  0.2424  0.2732  11.00000  0.05    0.56
Q11   1   0.4364  0.1509 -0.0309  11.00000  0.05    0.53
Q12   1   0.7676  0.0599  0.1515  11.00000  0.05    0.52
Q13   1   0.5964  0.2066 -0.1147  11.00000  0.05    0.45
Q14   1   0.4487  0.1055  0.0561  11.00000  0.05    0.43
Q15   1   0.8779 -0.2505 -0.0247  11.00000  0.05    0.35
Q16   1   0.8978 -0.1775  0.1577  11.00000  0.05    0.33
Q17   1   0.5988 -0.0039  0.1695  11.00000  0.05    0.32
Q18   1   0.6229  0.2046  0.1883  11.00000  0.05    0.31
Q19   1   0.9428 -0.1474 -0.0459  11.00000  0.05    0.30
Q20   1   0.5987  0.2150  0.1483  11.00000  0.05    0.30
;
_shelx_res_checksum              13016
loop_
_space_group_symop_operation_xyz
'x, y, z'
'-x, y, -z+1/2'
'x+1/2, y+1/2, z'
'-x+1/2, y+1/2, -z+1/2'
'-x, -y, -z'
'x, -y, z-1/2'
'-x+1/2, -y+1/2, -z'
'x+1/2, -y+1/2, z-1/2'
loop_
_atom_site_label
_atom_site_type_symbol
_atom_site_fract_x
_atom_site_fract_y
_atom_site_fract_z
_atom_site_U_iso_or_equiv
_atom_site_adp_type
_atom_site_occupancy
_atom_site_site_symmetry_order
_atom_site_calc_flag
_atom_site_refinement_flags_posn
_atom_site_refinement_flags_adp
Co1 Co 0.70526(4) 0.05841(3) 0.16165(2) 0.0253(2) Uani 1 1 d . .
F1 F 0.7165(2) -0.06247(17) 0.35448(13) 0.0526(10) Uani 1 1 d . .
F2 F 0.7963(2) -0.10087(18) 0.43883(14) 0.0628(11) Uani 1 1 d . .
F3 F 0.9486(2) -0.07234(17) 0.45282(13) 0.0595(11) Uani 1 1 d . .
F4 F 1.0201(2) -0.0033(2) 0.38160(16) 0.0696(12) Uani 1 1 d . .
F5 F 0.9392(2) 0.0380(2) 0.29805(15) 0.0631(11) Uani 1 1 d . .
F6 F 0.7467(2) -0.18043(15) 0.10023(13) 0.0466(9) Uani 1 1 d . .
F7 F 0.8170(2) -0.25743(15) 0.03538(14) 0.0571(10) Uani 1 1 d . .
F8 F 0.9148(3) -0.21724(18) -0.03819(14) 0.0624(11) Uani 1 1 d . .
F9 F 0.9454(2) -0.09978(18) -0.04561(13) 0.0548(10) Uani 1 1 d . .
F10 F 0.8778(2) -0.02333(15) 0.01854(13) 0.0457(9) Uani 1 1 d . .
F11 F 0.7112(2) 0.18551(18) -0.00968(15) 0.0613(11) Uani 1 1 d . .
F12 F 0.6659(4) 0.2219(2) -0.10555(16) 0.0902(16) Uani 1 1 d . .
F13 F 0.5164(4) 0.2055(2) -0.13805(17) 0.105(2) Uani 1 1 d . .
F14 F 0.4141(3) 0.1504(2) -0.0754(2) 0.0991(18) Uani 1 1 d . .
F15 F 0.4613(2) 0.1108(2) 0.01981(19) 0.0713(12) Uani 1 1 d . .
F16 F 0.5005(2) 0.23757(16) 0.05746(13) 0.0521(10) Uani 1 1 d . .
F17 F 0.6102(3) 0.27884(17) 0.04502(14) 0.0613(11) Uani 1 1 d . .
F18 F 0.5389(3) 0.30685(16) 0.10750(14) 0.0612(11) Uani 1 1 d . .
F19 F 0.5614(2) 0.30589(14) 0.21207(13) 0.0461(9) Uani 1 1 d . .
F20 F 0.6633(2) 0.32171(15) 0.16763(14) 0.0537(10) Uani 1 1 d . .
F21 F 0.6732(2) 0.27669(15) 0.24089(13) 0.0465(9) Uani 1 1 d . .
F22 F 0.5638(2) 0.21327(15) 0.28534(12) 0.0425(8) Uani 1 1 d . .
F23 F 0.6515(2) 0.24023(15) 0.34147(13) 0.0499(9) Uani 1 1 d . .
F24 F 0.5784(2) 0.16488(16) 0.35621(13) 0.0523(10) Uani 1 1 d . .
F25 F 0.6971(3) 0.0557(2) 0.39594(14) 0.0774(14) Uani 1 1 d . .
F26 F 0.7150(3) 0.14963(19) 0.39939(14) 0.0784(15) Uani 1 1 d . .
F27 F 0.8097(3) 0.09261(19) 0.38343(14) 0.0699(13) Uani 1 1 d . .
N1 N 0.7641(3) -0.00940(19) 0.18147(15) 0.0272(10) Uani 1 1 d . .
N2 N 0.6907(3) 0.03454(19) 0.09166(16) 0.0294(10) Uani 1 1 d . .
N3 N 0.6511(2) 0.12971(19) 0.14925(15) 0.0265(10) Uani 1 1 d . .
N4 N 0.7112(3) 0.08872(19) 0.22998(15) 0.0272(10) Uani 1 1 d . .
N5 N 0.6043(3) 0.0172(2) 0.17646(15) 0.0302(10) Uani 1 1 d . .
N6 N 0.8036(3) 0.09863(18) 0.14402(16) 0.0290(10) Uani 1 1 d . .
C1 C 0.7825(3) 0.0123(2) 0.27587(18) 0.0284(12) Uani 1 1 d . .
C2 C 0.7947(3) -0.0212(2) 0.23106(19) 0.0293(12) Uani 1 1 d . .
C3 C 0.8434(3) -0.0728(2) 0.22777(19) 0.0339(13) Uani 1 1 d . .
H3 H 0.871167 -0.090935 0.255952 0.041 Uiso 1 1 calc R U
C4 C 0.8427(3) -0.0908(2) 0.1777(2) 0.0335(13) Uani 1 1 d . .
H4 H 0.870326 -0.123677 0.164143 0.040 Uiso 1 1 calc R U
C5 C 0.7921(3) -0.0511(2) 0.1483(2) 0.0279(11) Uani 1 1 d . .
C6 C 0.7716(3) -0.0549(2) 0.09537(19) 0.0310(12) Uani 1 1 d . .
C7 C 0.7204(3) -0.0154(2) 0.06990(19) 0.0308(12) Uani 1 1 d . .
C8 C 0.6921(4) -0.0193(3) 0.0164(2) 0.0370(14) Uani 1 1 d . .
H8 H 0.702614 -0.050278 -0.007528 0.044 Uiso 1 1 calc R U
C9 C 0.6487(4) 0.0286(3) 0.0068(2) 0.0373(14) Uani 1 1 d . .
H9 H 0.622871 0.037634 -0.025382 0.045 Uiso 1 1 calc R U
C10 C 0.6472(3) 0.0644(2) 0.05337(19) 0.0301(12) Uani 1 1 d . .
C11 C 0.6171(3) 0.1209(2) 0.05792(19) 0.0304(12) Uani 1 1 d . .
C12 C 0.6213(3) 0.1554(2) 0.10463(19) 0.0283(12) Uani 1 1 d . .
C13 C 0.6014(3) 0.2145(2) 0.1171(2) 0.0309(12) Uani 1 1 d . .
C14 C 0.6208(3) 0.2233(2) 0.17024(19) 0.0287(12) Uani 1 1 d . .
C15 C 0.6482(3) 0.1686(2) 0.18958(19) 0.0277(12) Uani 1 1 d . .
C16 C 0.6747(3) 0.1414(2) 0.23812(18) 0.0265(11) Uani 1 1 d . .
C17 C 0.6723(3) 0.1517(2) 0.2924(2) 0.0295(12) Uani 1 1 d . .
C18 C 0.7153(3) 0.1057(2) 0.31645(19) 0.0298(12) Uani 1 1 d . .
C19 C 0.7385(3) 0.0658(2) 0.27668(19) 0.0260(11) Uani 1 1 d . .
C20 C 0.8252(3) -0.0099(2) 0.32418(19) 0.0302(12) Uani 1 1 d . .
C21 C 0.7913(3) -0.0461(3) 0.3606(2) 0.0356(13) Uani 1 1 d . .
C22 C 0.8317(4) -0.0665(3) 0.4043(2) 0.0387(14) Uani 1 1 d . .
C23 C 0.9087(4) -0.0521(3) 0.4113(2) 0.0410(15) Uani 1 1 d . .
C24 C 0.9446(4) -0.0174(3) 0.3752(2) 0.0441(15) Uani 1 1 d . .
C25 C 0.9029(4) 0.0027(3) 0.3324(2) 0.0388(14) Uani 1 1 d . .
C26 C 0.8101(3) -0.0997(2) 0.06195(19) 0.0312(13) Uani 1 1 d . .
C27 C 0.7964(3) -0.1597(3) 0.0650(2) 0.0342(13) Uani 1 1 d . .
C28 C 0.8317(4) -0.1999(2) 0.0316(2) 0.0397(14) Uani 1 1 d . .
C29 C 0.8810(4) -0.1789(3) -0.0057(2) 0.0413(15) Uani 1 1 d . .
C30 C 0.8960(3) -0.1202(3) -0.0095(2) 0.0391(14) Uani 1 1 d . .
C31 C 0.8621(3) -0.0810(2) 0.0237(2) 0.0330(13) Uani 1 1 d . .
C32 C 0.5866(4) 0.1460(3) 0.0076(2) 0.0395(15) Uani 1 1 d . .
C33 C 0.6384(4) 0.1753(3) -0.0257(2) 0.0463(16) Uani 1 1 d . .
C34 C 0.6146(6) 0.1950(3) -0.0744(3) 0.062(2) Uani 1 1 d . .
C35 C 0.5406(6) 0.1866(3) -0.0901(3) 0.070(2) Uani 1 1 d . .
C36 C 0.4869(5) 0.1590(3) -0.0599(3) 0.062(2) Uani 1 1 d . .
C37 C 0.5125(4) 0.1388(3) -0.0100(3) 0.0516(17) Uani 1 1 d . .
C38 C 0.5640(4) 0.2589(2) 0.0826(2) 0.0392(14) Uani 1 1 d . .
C39 C 0.6279(4) 0.2810(3) 0.1975(2) 0.0369(14) Uani 1 1 d . .
C40 C 0.6187(3) 0.1930(3) 0.3188(2) 0.0370(14) Uani 1 1 d . .
C41 C 0.7337(4) 0.1010(3) 0.3736(2) 0.0507(18) Uani 1 1 d . .
C42 C 0.5996(4) -0.0414(3) 0.1773(3) 0.0514(17) Uani 1 1 d . .
H42 H 0.646393 -0.063560 0.174997 0.062 Uiso 1 1 calc R U
C43 C 0.5305(5) -0.0718(3) 0.1815(3) 0.065(2) Uani 1 1 d . .
H43 H 0.530687 -0.113859 0.182116 0.078 Uiso 1 1 calc R U
C44 C 0.4624(4) -0.0420(4) 0.1847(3) 0.0581(19) Uani 1 1 d . .
H44 H 0.413832 -0.062052 0.186479 0.070 Uiso 1 1 calc R U
C45 C 0.4669(5) 0.0184(4) 0.1851(4) 0.086(3) Uani 1 1 d . .
H45 H 0.420770 0.041303 0.188259 0.103 Uiso 1 1 calc R U
C46 C 0.5372(4) 0.0463(3) 0.1810(4) 0.071(2) Uani 1 1 d . .
H46 H 0.538336 0.088371 0.181461 0.086 Uiso 1 1 calc R U
C47 C 0.8608(4) 0.1057(3) 0.1797(2) 0.0401(14) Uani 1 1 d . .
H47 H 0.853374 0.090595 0.213792 0.048 Uiso 1 1 calc R U
C48 C 0.9298(4) 0.1338(3) 0.1693(2) 0.0488(16) Uani 1 1 d . .
H48 H 0.968322 0.138603 0.196214 0.059 Uiso 1 1 calc R U
C49 C 0.9430(4) 0.1549(3) 0.1200(3) 0.0486(16) Uani 1 1 d . .
H49 H 0.990545 0.174114 0.111900 0.058 Uiso 1 1 calc R U
C50 C 0.8849(4) 0.1473(3) 0.0828(2) 0.0514(17) Uani 1 1 d . .
H50 H 0.892001 0.161228 0.048266 0.062 Uiso 1 1 calc R U
C51 C 0.8165(4) 0.1194(3) 0.0956(2) 0.0425(15) Uani 1 1 d . .
H51 H 0.776993 0.114575 0.069366 0.051 Uiso 1 1 calc R U
Cl1 Cl 0.8641(3) 0.3125(3) 0.24362(18) 0.237(3) Uani 1 1 d . .
Cl2 Cl 0.8774(2) 0.2031(2) 0.3020(2) 0.1593(16) Uani 1 1 d . .
C52 C 0.8399(8) 0.2730(11) 0.2983(7) 0.220(12) Uani 1 1 d . .
H52A H 0.857996 0.295479 0.329430 0.264 Uiso 1 1 calc R U
H52B H 0.782407 0.270339 0.299508 0.264 Uiso 1 1 calc R U
loop_
_atom_site_aniso_label
_atom_site_aniso_U_11
_atom_site_aniso_U_22
_atom_site_aniso_U_33
_atom_site_aniso_U_23
_atom_site_aniso_U_13
_atom_site_aniso_U_12
Co1 0.0299(4) 0.0280(4) 0.0177(3) 0.0004(3) -0.0024(3) 0.0046(3)
F1 0.041(2) 0.073(3) 0.043(2) 0.0141(18) -0.0066(16) -0.0086(19)
F2 0.076(3) 0.072(3) 0.040(2) 0.0273(19) -0.0003(19) -0.003(2)
F3 0.074(3) 0.068(3) 0.0356(19) 0.0050(17) -0.0264(18) 0.023(2)
F4 0.043(2) 0.104(3) 0.061(3) 0.008(2) -0.0224(19) -0.006(2)
F5 0.049(2) 0.091(3) 0.049(2) 0.022(2) -0.0097(18) -0.022(2)
F6 0.050(2) 0.044(2) 0.046(2) 0.0111(16) 0.0056(16) 0.0006(17)
F7 0.086(3) 0.031(2) 0.054(2) -0.0033(16) -0.009(2) 0.0071(19)
F8 0.084(3) 0.062(3) 0.042(2) -0.0129(18) 0.0067(19) 0.034(2)
F9 0.050(2) 0.078(3) 0.0377(19) 0.0016(18) 0.0130(16) 0.008(2)
F10 0.054(2) 0.040(2) 0.0433(19) 0.0007(15) 0.0072(16) -0.0071(16)
F11 0.062(3) 0.066(3) 0.057(2) 0.010(2) 0.014(2) 0.009(2)
F12 0.149(5) 0.081(3) 0.041(2) 0.023(2) 0.016(3) 0.008(3)
F13 0.189(6) 0.077(3) 0.045(3) 0.008(2) -0.056(3) 0.022(3)
F14 0.101(4) 0.093(4) 0.100(4) -0.012(3) -0.067(3) 0.020(3)
F15 0.046(2) 0.078(3) 0.090(3) -0.009(3) -0.022(2) 0.001(2)
F16 0.061(2) 0.048(2) 0.047(2) 0.0013(17) -0.0210(18) 0.0193(18)
F17 0.085(3) 0.055(2) 0.044(2) 0.0247(18) 0.008(2) 0.002(2)
F18 0.101(3) 0.038(2) 0.043(2) -0.0036(16) -0.014(2) 0.031(2)
F19 0.059(2) 0.0334(18) 0.046(2) -0.0075(15) 0.0029(17) 0.0120(17)
F20 0.078(3) 0.0336(19) 0.050(2) 0.0058(16) 0.0052(19) -0.0153(18)
F21 0.057(2) 0.0408(19) 0.0405(19) -0.0066(15) -0.0121(16) -0.0038(17)
F22 0.044(2) 0.048(2) 0.0352(17) -0.0027(15) -0.0025(15) 0.0142(16)
F23 0.068(3) 0.044(2) 0.0375(18) -0.0178(16) -0.0117(17) 0.0078(18)
F24 0.066(3) 0.057(2) 0.0354(18) 0.0016(16) 0.0182(17) 0.0121(19)
F25 0.117(4) 0.088(3) 0.0274(19) 0.014(2) 0.005(2) 0.014(3)
F26 0.126(4) 0.079(3) 0.0293(19) -0.0265(19) -0.028(2) 0.056(3)
F27 0.085(3) 0.079(3) 0.044(2) -0.024(2) -0.038(2) 0.034(2)
N1 0.031(2) 0.030(2) 0.021(2) -0.0012(18) -0.0033(18) 0.0059(19)
N2 0.035(3) 0.030(2) 0.022(2) 0.0008(18) -0.0029(18) 0.007(2)
N3 0.030(2) 0.030(2) 0.019(2) 0.0005(18) -0.0033(17) 0.0077(19)
N4 0.031(3) 0.029(2) 0.022(2) 0.0027(18) -0.0019(18) 0.0012(19)
N5 0.033(3) 0.037(3) 0.021(2) -0.0001(19) -0.0021(18) 0.001(2)
N6 0.037(3) 0.026(2) 0.025(2) -0.0003(18) 0.0001(19) 0.0005(19)
C1 0.033(3) 0.034(3) 0.018(2) 0.005(2) -0.007(2) 0.000(2)
C2 0.033(3) 0.032(3) 0.022(3) 0.005(2) -0.007(2) 0.002(2)
C3 0.047(4) 0.033(3) 0.021(3) 0.004(2) -0.010(2) 0.012(3)
C4 0.037(3) 0.034(3) 0.029(3) -0.002(2) -0.006(2) 0.012(3)
C5 0.027(3) 0.027(3) 0.029(3) 0.002(2) -0.001(2) 0.007(2)
C6 0.040(3) 0.029(3) 0.024(3) -0.002(2) -0.001(2) 0.006(2)
C7 0.037(3) 0.033(3) 0.023(3) -0.003(2) 0.001(2) 0.006(2)
C8 0.054(4) 0.035(3) 0.022(3) -0.008(2) -0.006(2) 0.011(3)
C9 0.048(4) 0.041(3) 0.022(3) -0.001(2) -0.008(2) 0.011(3)
C10 0.035(3) 0.034(3) 0.021(3) -0.001(2) -0.005(2) 0.001(2)
C11 0.035(3) 0.036(3) 0.020(2) 0.002(2) -0.004(2) 0.006(2)
C12 0.032(3) 0.029(3) 0.024(3) 0.003(2) -0.005(2) 0.002(2)
C13 0.034(3) 0.030(3) 0.029(3) 0.004(2) 0.000(2) 0.001(2)
C14 0.032(3) 0.029(3) 0.025(3) 0.001(2) -0.001(2) 0.000(2)
C15 0.030(3) 0.029(3) 0.024(3) -0.001(2) 0.000(2) 0.001(2)
C16 0.034(3) 0.026(3) 0.020(2) -0.003(2) -0.003(2) 0.003(2)
C17 0.031(3) 0.031(3) 0.026(3) -0.003(2) -0.003(2) 0.002(2)
C18 0.036(3) 0.032(3) 0.021(3) -0.003(2) -0.004(2) 0.003(2)
C19 0.027(3) 0.028(3) 0.023(2) 0.005(2) -0.004(2) 0.002(2)
C20 0.037(3) 0.033(3) 0.020(3) 0.001(2) -0.004(2) 0.007(2)
C21 0.035(3) 0.044(3) 0.028(3) 0.001(2) -0.004(2) 0.001(3)
C22 0.056(4) 0.035(3) 0.025(3) 0.007(2) 0.002(3) 0.006(3)
C23 0.056(4) 0.042(3) 0.025(3) 0.001(3) -0.016(3) 0.014(3)
C24 0.036(4) 0.056(4) 0.039(3) -0.009(3) -0.017(3) 0.005(3)
C25 0.043(4) 0.043(3) 0.031(3) 0.005(3) -0.005(3) -0.002(3)
C26 0.040(3) 0.032(3) 0.021(3) -0.005(2) -0.009(2) 0.013(2)
C27 0.034(3) 0.037(3) 0.031(3) 0.005(2) -0.002(2) 0.004(3)
C28 0.050(4) 0.027(3) 0.042(3) -0.002(3) -0.013(3) 0.012(3)
C29 0.050(4) 0.044(4) 0.030(3) -0.006(3) -0.005(3) 0.022(3)
C30 0.038(3) 0.053(4) 0.026(3) 0.002(3) 0.005(2) 0.011(3)
C31 0.035(3) 0.036(3) 0.027(3) 0.001(2) -0.001(2) 0.005(3)
C32 0.055(4) 0.038(3) 0.024(3) -0.005(2) -0.013(3) 0.019(3)
C33 0.071(5) 0.041(4) 0.027(3) 0.004(3) -0.004(3) 0.015(3)
C34 0.102(7) 0.042(4) 0.042(4) 0.003(3) 0.006(4) 0.012(4)
C35 0.112(8) 0.049(5) 0.048(4) -0.007(4) -0.034(5) 0.016(5)
C36 0.071(5) 0.046(4) 0.066(5) -0.018(4) -0.038(4) 0.017(4)
C37 0.051(4) 0.049(4) 0.055(4) -0.005(3) -0.012(3) 0.005(3)
C38 0.054(4) 0.028(3) 0.035(3) -0.001(2) -0.006(3) 0.009(3)
C39 0.042(4) 0.035(3) 0.034(3) -0.002(2) -0.002(3) 0.000(3)
C40 0.042(4) 0.044(3) 0.025(3) 0.000(2) -0.001(2) 0.006(3)
C41 0.070(5) 0.049(4) 0.032(3) -0.007(3) -0.009(3) 0.021(4)
C42 0.039(4) 0.039(4) 0.076(5) -0.010(3) 0.004(3) -0.005(3)
C43 0.055(5) 0.049(4) 0.091(6) -0.023(4) 0.012(4) -0.009(4)
C44 0.038(4) 0.083(6) 0.053(4) 0.005(4) -0.007(3) -0.017(4)
C45 0.038(5) 0.079(6) 0.142(9) 0.052(6) 0.008(5) 0.011(4)
C46 0.035(4) 0.055(5) 0.124(7) 0.034(5) 0.022(4) 0.008(3)
C47 0.040(4) 0.049(4) 0.031(3) 0.001(3) -0.001(3) -0.005(3)
C48 0.042(4) 0.061(4) 0.043(4) -0.004(3) 0.000(3) -0.007(3)
C49 0.041(4) 0.046(4) 0.059(4) -0.006(3) 0.014(3) -0.002(3)
C50 0.053(4) 0.063(4) 0.039(3) 0.009(3) 0.014(3) -0.006(3)
C51 0.045(4) 0.056(4) 0.026(3) 0.007(3) 0.006(3) -0.002(3)
Cl1 0.217(5) 0.375(9) 0.119(3) 0.041(4) 0.008(3) -0.154(6)
Cl2 0.097(3) 0.149(3) 0.231(5) -0.049(3) -0.017(3) -0.009(2)
C52 0.066(8) 0.42(4) 0.170(15) -0.13(2) 0.009(9) 0.003(14)
loop_
_atom_type_symbol
_atom_type_description
_atom_type_scat_dispersion_real
_atom_type_scat_dispersion_imag
_atom_type_scat_source
C C 0.0033 0.0016 'International Tables Vol C Tables 4.2.6.8 and 6.1.1.4'
H H 0.0000 0.0000 'International Tables Vol C Tables 4.2.6.8 and 6.1.1.4'
Cl Cl 0.1484 0.1585 'International Tables Vol C Tables 4.2.6.8 and 6.1.1.4'
Co Co 0.3494 0.9721 'International Tables Vol C Tables 4.2.6.8 and 6.1.1.4'
F F 0.0171 0.0103 'International Tables Vol C Tables 4.2.6.8 and 6.1.1.4'
N N 0.0061 0.0033 'International Tables Vol C Tables 4.2.6.8 and 6.1.1.4'
loop_
_geom_angle_atom_site_label_1
_geom_angle_atom_site_label_2
_geom_angle_atom_site_label_3
_geom_angle
N4 Co1 N3 82.14(18)
N4 Co1 N2 173.59(19)
N3 Co1 N2 91.65(18)
N4 Co1 N1 91.49(18)
N3 Co1 N1 173.36(17)
N2 Co1 N1 94.77(18)
N4 Co1 N6 90.95(18)
N3 Co1 N6 89.41(18)
N2 Co1 N6 90.55(18)
N1 Co1 N6 88.82(19)
N4 Co1 N5 91.28(18)
N3 Co1 N5 90.19(19)
N2 Co1 N5 87.16(18)
N1 Co1 N5 91.84(19)
N6 Co1 N5 177.66(17)
C5 N1 C2 107.9(4)
C5 N1 Co1 125.6(3)
C2 N1 Co1 126.0(3)
C7 N2 C10 108.1(4)
C7 N2 Co1 125.7(3)
C10 N2 Co1 126.2(3)
C15 N3 C12 110.1(4)
C15 N3 Co1 116.7(3)
C12 N3 Co1 132.5(3)
C16 N4 C19 110.1(4)
C16 N4 Co1 116.4(3)
C19 N4 Co1 133.1(4)
C42 N5 C46 115.9(6)
C42 N5 Co1 121.2(4)
C46 N5 Co1 122.5(4)
C47 N6 C51 117.1(5)
C47 N6 Co1 121.1(4)
C51 N6 Co1 121.8(4)
C2 C1 C19 124.1(4)
C2 C1 C20 114.5(5)
C19 C1 C20 121.2(4)
N1 C2 C1 126.0(5)
N1 C2 C3 108.1(4)
C1 C2 C3 125.9(4)
C4 C3 C2 108.0(4)
C4 C3 H3 126.0
C2 C3 H3 126.0
C3 C4 C5 107.6(5)
C3 C4 H4 126.2
C5 C4 H4 126.2
N1 C5 C6 124.3(5)
N1 C5 C4 108.5(4)
C6 C5 C4 127.1(5)
C5 C6 C7 123.7(5)
C5 C6 C26 119.7(5)
C7 C6 C26 116.4(4)
N2 C7 C6 124.9(5)
N2 C7 C8 108.5(4)
C6 C7 C8 126.6(5)
C9 C8 C7 107.4(5)
C9 C8 H8 126.3
C7 C8 H8 126.3
C8 C9 C10 108.8(5)
C8 C9 H9 125.6
C10 C9 H9 125.6
C11 C10 N2 125.6(5)
C11 C10 C9 126.9(5)
N2 C10 C9 107.1(4)
C10 C11 C12 124.2(5)
C10 C11 C32 113.7(4)
C12 C11 C32 121.8(5)
N3 C12 C13 107.2(4)
N3 C12 C11 118.7(5)
C13 C12 C11 134.1(5)
C14 C13 C12 107.4(4)
C14 C13 C38 125.1(5)
C12 C13 C38 127.4(5)
C15 C14 C13 106.7(5)
C15 C14 C39 125.6(5)
C13 C14 C39 126.5(5)
N3 C15 C14 108.4(4)
N3 C15 C16 111.3(4)
C14 C15 C16 140.2(5)
N4 C16 C17 108.5(4)
N4 C16 C15 112.0(4)
C17 C16 C15 139.5(5)
C18 C17 C16 106.4(5)
C18 C17 C40 126.0(5)
C16 C17 C40 125.8(5)
C17 C18 C19 107.8(4)
C17 C18 C41 125.3(5)
C19 C18 C41 126.9(5)
N4 C19 C18 106.9(4)
N4 C19 C1 118.4(4)
C18 C19 C1 134.7(4)
C25 C20 C21 116.3(5)
C25 C20 C1 120.5(5)
C21 C20 C1 123.2(5)
F1 C21 C20 120.1(5)
F1 C21 C22 117.6(5)
C20 C21 C22 122.3(5)
F2 C22 C23 120.1(5)
F2 C22 C21 120.3(6)
C23 C22 C21 119.5(5)
F3 C23 C22 120.0(6)
F3 C23 C24 120.4(6)
C22 C23 C24 119.5(5)
F4 C24 C23 120.0(5)
F4 C24 C25 120.3(6)
C23 C24 C25 119.7(6)
F5 C25 C20 118.9(5)
F5 C25 C24 118.4(5)
C20 C25 C24 122.7(6)
C27 C26 C31 116.5(5)
C27 C26 C6 123.8(5)
C31 C26 C6 119.6(5)
F6 C27 C26 119.6(5)
F6 C27 C28 118.5(5)
C26 C27 C28 121.9(5)
F7 C28 C29 120.5(5)
F7 C28 C27 120.4(6)
C29 C28 C27 119.0(5)
F8 C29 C30 120.0(6)
F8 C29 C28 119.5(6)
C30 C29 C28 120.5(5)
F9 C30 C29 120.4(5)
F9 C30 C31 119.3(6)
C29 C30 C31 120.3(6)
F10 C31 C30 118.6(5)
F10 C31 C26 119.7(5)
C30 C31 C26 121.7(5)
C37 C32 C33 117.1(6)
C37 C32 C11 123.5(6)
C33 C32 C11 119.2(5)
F11 C33 C34 118.8(7)
F11 C33 C32 119.7(5)
C34 C33 C32 121.5(7)
C35 C34 F12 121.0(7)
C35 C34 C33 119.1(8)
F12 C34 C33 119.9(8)
C34 C35 F13 119.8(9)
C34 C35 C36 122.8(7)
F13 C35 C36 117.4(8)
F14 C36 C35 122.8(7)
F14 C36 C37 120.0(8)
C35 C36 C37 117.3(7)
F15 C37 C32 119.5(6)
F15 C37 C36 118.2(7)
C32 C37 C36 122.2(7)
F18 C38 F17 106.0(5)
F18 C38 F16 104.7(5)
F17 C38 F16 105.2(5)
F18 C38 C13 113.9(5)
F17 C38 C13 113.8(5)
F16 C38 C13 112.5(5)
F19 C39 F21 106.3(4)
F19 C39 F20 105.8(5)
F21 C39 F20 105.0(5)
F19 C39 C14 116.1(5)
F21 C39 C14 111.4(5)
F20 C39 C14 111.4(5)
F23 C40 F22 106.8(5)
F23 C40 F24 106.5(4)
F22 C40 F24 104.6(5)
F23 C40 C17 116.2(5)
F22 C40 C17 110.9(4)
F24 C40 C17 111.1(5)
F26 C41 F25 107.4(6)
F26 C41 F27 105.7(6)
F25 C41 F27 106.1(5)
F26 C41 C18 112.4(5)
F25 C41 C18 112.5(6)
F27 C41 C18 112.3(6)
N5 C42 C43 123.6(6)
N5 C42 H42 118.2
C43 C42 H42 118.2
C44 C43 C42 120.2(7)
C44 C43 H43 119.9
C42 C43 H43 119.9
C43 C44 C45 116.6(7)
C43 C44 H44 121.7
C45 C44 H44 121.7
C44 C45 C46 120.6(8)
C44 C45 H45 119.7
C46 C45 H45 119.7
N5 C46 C45 123.1(7)
N5 C46 H46 118.5
C45 C46 H46 118.5
N6 C47 C48 123.1(5)
N6 C47 H47 118.4
C48 C47 H47 118.4
C47 C48 C49 119.8(6)
C47 C48 H48 120.1
C49 C48 H48 120.1
C50 C49 C48 117.6(6)
C50 C49 H49 121.2
C48 C49 H49 121.2
C49 C50 C51 120.1(6)
C49 C50 H50 120.0
C51 C50 H50 120.0
N6 C51 C50 122.3(6)
N6 C51 H51 118.9
C50 C51 H51 118.9
Cl2 C52 Cl1 115.3(9)
Cl2 C52 H52A 108.4
Cl1 C52 H52A 108.4
Cl2 C52 H52B 108.4
Cl1 C52 H52B 108.4
H52A C52 H52B 107.5
loop_
_geom_bond_atom_site_label_1
_geom_bond_atom_site_label_2
_geom_bond_distance
Co1 N4 1.881(4)
Co1 N3 1.882(4)
Co1 N2 1.885(4)
Co1 N1 1.897(4)
Co1 N6 1.977(5)
Co1 N5 2.010(5)
F1 C21 1.341(7)
F2 C22 1.332(7)
F3 C23 1.332(6)
F4 C24 1.340(7)
F5 C25 1.348(7)
F6 C27 1.341(6)
F7 C28 1.328(7)
F8 C29 1.342(7)
F9 C30 1.350(7)
F10 C31 1.336(7)
F11 C33 1.327(8)
F12 C34 1.345(9)
F13 C35 1.358(8)
F14 C36 1.318(9)
F15 C37 1.335(8)
F16 C38 1.343(7)
F17 C38 1.339(7)
F18 C38 1.333(7)
F19 C39 1.333(7)
F20 C39 1.348(7)
F21 C39 1.347(6)
F22 C40 1.341(6)
F23 C40 1.333(7)
F24 C40 1.351(7)
F25 C41 1.336(9)
F26 C41 1.324(7)
F27 C41 1.336(8)
N1 C5 1.363(7)
N1 C2 1.391(6)
N2 C7 1.361(7)
N2 C10 1.394(6)
N3 C15 1.358(6)
N3 C12 1.371(6)
N4 C16 1.362(7)
N4 C19 1.377(6)
N5 C42 1.324(8)
N5 C46 1.332(8)
N6 C47 1.336(7)
N6 C51 1.350(7)
C1 C2 1.396(7)
C1 C19 1.424(7)
C1 C20 1.511(7)
C2 C3 1.435(8)
C3 C4 1.347(7)
C3 H3 0.9500
C4 C5 1.448(7)
C4 H4 0.9500
C5 C6 1.396(7)
C6 C7 1.403(7)
C6 C26 1.489(7)
C7 C8 1.448(7)
C8 C9 1.332(8)
C8 H8 0.9500
C9 C10 1.442(7)
C9 H9 0.9500
C10 C11 1.381(8)
C11 C12 1.429(7)
C11 C32 1.493(7)
C12 C13 1.416(8)
C13 C14 1.409(7)
C13 C38 1.476(8)
C14 C15 1.407(7)
C14 C39 1.482(8)
C15 C16 1.452(7)
C16 C17 1.413(7)
C17 C18 1.408(7)
C17 C40 1.482(8)
C18 C19 1.424(7)
C18 C41 1.496(8)
C20 C25 1.374(8)
C20 C21 1.379(8)
C21 C22 1.384(8)
C22 C23 1.370(9)
C23 C24 1.370(9)
C24 C25 1.375(8)
C26 C27 1.377(8)
C26 C31 1.404(8)
C27 C28 1.394(8)
C28 C29 1.375(9)
C29 C30 1.354(9)
C30 C31 1.367(8)
C32 C37 1.350(9)
C32 C33 1.409(9)
C33 C34 1.381(9)
C34 C35 1.337(12)
C35 C36 1.367(12)
C36 C37 1.418(10)
C42 C43 1.375(10)
C42 H42 0.9500
C43 C44 1.353(10)
C43 H43 0.9500
C44 C45 1.366(11)
C44 H44 0.9500
C45 C46 1.366(11)
C45 H45 0.9500
C46 H46 0.9500
C47 C48 1.374(9)
C47 H47 0.9500
C48 C49 1.376(9)
C48 H48 0.9500
C49 C50 1.375(10)
C49 H49 0.9500
C50 C51 1.378(9)
C50 H50 0.9500
C51 H51 0.9500
Cl1 C52 1.72(2)
Cl2 C52 1.71(2)
C52 H52A 0.9900
C52 H52B 0.9900
