#------------------------------------------------------------------------------
#$Date: 2017-05-06 00:41:04 +0300 (Sat, 06 May 2017) $
#$Revision: 196314 $
#$URL: file:///home/coder/svn-repositories/cod/cif/1/54/37/1543760.cif $
#------------------------------------------------------------------------------
#
# This file is available in the Crystallography Open Database (COD),
# http://www.crystallography.net/
#
# All data on this site have been placed in the public domain by the
# contributors.
#
data_1543760
loop_
_publ_author_name
'Fukui, Norihito'
'Cha, Wonhee'
'Shimizu, Daiki'
'Oh, Juwon'
'Furukawa, Ko'
'Yorimitsu, Hideki'
'Kim, Dongho'
'Osuka, Atsuhiro'
_publ_section_title
;
 Highly planar diarylamine-fused porphyrins and their remarkably stable
 radical cations.
;
_journal_issue                   1
_journal_name_full               'Chemical science'
_journal_page_first              189
_journal_page_last               199
_journal_paper_doi               10.1039/c6sc02721k
_journal_volume                  8
_journal_year                    2017
_chemical_formula_moiety
'C74 H73 Cl2 N5 Ni O, Cl6 Sb, 2(C6 H14), CCl2'
_chemical_formula_sum            'C87 H101 Cl10 N5 Ni O Sb'
_chemical_formula_weight         1767.68
_chemical_name_systematic        '[8]+'
_space_group_crystal_system      tetragonal
_space_group_IT_number           88
_space_group_name_Hall           '-I 4ad'
_space_group_name_H-M_alt        'I 41/a'
_symmetry_space_group_name_Hall  '-I 4ad'
_symmetry_space_group_name_H-M   'I 41/a :2'
_atom_sites_solution_hydrogens   geom
_audit_creation_method           SHELXL-2014/7
_audit_update_record
;
2016-03-17 deposited with the CCDC.
2016-08-01 downloaded from the CCDC.
;
_cell_angle_alpha                90
_cell_angle_beta                 90
_cell_angle_gamma                90
_cell_formula_units_Z            16
_cell_length_a                   57.941(6)
_cell_length_b                   57.941(6)
_cell_length_c                   10.6631(12)
_cell_measurement_reflns_used    8570
_cell_measurement_temperature    93(2)
_cell_measurement_theta_max      68.2
_cell_measurement_theta_min      33.3
_cell_volume                     35798(7)
_computing_structure_refinement  'SHELXL-2014/7 (Sheldrick, 2014)'
_diffrn_ambient_temperature      93(2)
_diffrn_detector_area_resol_mean 5.8140
_diffrn_measured_fraction_theta_full 0.964
_diffrn_measured_fraction_theta_max 0.964
_diffrn_measurement_device_type  'Rigaku XtaLAB P200'
_diffrn_measurement_method       \w
_diffrn_radiation_monochromator  graphite
_diffrn_radiation_source         'fine-focus sealed tube'
_diffrn_radiation_type           CuK\a
_diffrn_radiation_wavelength     1.54187
_diffrn_reflns_av_R_equivalents  0.0294
_diffrn_reflns_av_unetI/netI     0.0239
_diffrn_reflns_Laue_measured_fraction_full 0.964
_diffrn_reflns_Laue_measured_fraction_max 0.964
_diffrn_reflns_limit_h_max       66
_diffrn_reflns_limit_h_min       -62
_diffrn_reflns_limit_k_max       50
_diffrn_reflns_limit_k_min       -66
_diffrn_reflns_limit_l_max       12
_diffrn_reflns_limit_l_min       -10
_diffrn_reflns_number            50424
_diffrn_reflns_point_group_measured_fraction_full 0.964
_diffrn_reflns_point_group_measured_fraction_max 0.964
_diffrn_reflns_theta_full        61.995
_diffrn_reflns_theta_max         61.995
_diffrn_reflns_theta_min         6.596
_exptl_absorpt_coefficient_mu    5.753
_exptl_absorpt_correction_T_max  1.000
_exptl_absorpt_correction_T_min  0.756
_exptl_absorpt_correction_type   multi-scan
_exptl_absorpt_process_details   'REQAB (Rigaku, 1998)'
_exptl_crystal_colour            Brown
_exptl_crystal_density_diffrn    1.312
_exptl_crystal_density_method    'not measured'
_exptl_crystal_description       Prism
_exptl_crystal_F_000             14640
_exptl_crystal_size_max          0.300
_exptl_crystal_size_mid          0.080
_exptl_crystal_size_min          0.020
_refine_diff_density_max         1.202
_refine_diff_density_min         -0.774
_refine_diff_density_rms         0.151
_refine_ls_extinction_method     none
_refine_ls_goodness_of_fit_ref   1.079
_refine_ls_hydrogen_treatment    constr
_refine_ls_matrix_type           full
_refine_ls_number_parameters     944
_refine_ls_number_reflns         13578
_refine_ls_number_restraints     74
_refine_ls_restrained_S_all      1.076
_refine_ls_R_factor_all          0.1022
_refine_ls_R_factor_gt           0.0992
_refine_ls_shift/su_max          0.002
_refine_ls_shift/su_mean         0.000
_refine_ls_structure_factor_coef Fsqd
_refine_ls_weighting_details
'w=1/[\s^2^(Fo^2^)+(0.0850P)^2^+1808.0057P] where P=(Fo^2^+2Fc^2^)/3'
_refine_ls_weighting_scheme      calc
_refine_ls_wR_factor_gt          0.2675
_refine_ls_wR_factor_ref         0.2692
_reflns_Friedel_coverage         0.000
_reflns_number_gt                12792
_reflns_number_total             13578
_reflns_threshold_expression     'I > 2\s(I)'
_cod_data_source_file            c6sc02721k2.cif
_cod_data_source_block           50714NF
_cod_depositor_comments
;
The following automatic conversions were performed:

'_exptl_absorpt_correction_type' value 'Multi-scan' changed to
'multi-scan' according to
/usr/data/users/saulius/crontab/automatic-downloads/rss-feeds/RSC/lib/dictionaries/cif_core.dic
dictionary named 'cif_core.dic' version 2.4.2 from 2011-04-26.

Automatic conversion script
Id: cif_fix_values 4268 2015-11-12 08:31:59Z antanas 

 Adding full bibliography for 1543756--1543762.cif.

 Adding full bibliography for 1543756--1543762.cif.
;
_cod_original_cell_volume        35798(8)
_cod_database_code               1543760
_shelx_shelxl_version_number     2014/7
_shelx_space_group_comment
;
The symmetry employed for this shelxl refinement is uniquely defined
by the following loop, which should always be used as a source of
symmetry information in preference to the above space-group names.
They are only intended as comments.
;
_shelx_estimated_absorpt_t_min   0.277
_shelx_estimated_absorpt_t_max   0.894
_shelx_res_file
;

    50714NF.res created by SHELXL-2014/7

TITL
REM  Yadorkari-X generated
CELL 1.54187 57.9410 57.9410 10.6631 90.0000 90.0000 90.0000
ZERR 16.0 0.0060 0.0060 0.0012 0.0000 0.0000 0.0000
LATT 2
SYMM -X, 1/2-Y, +Z
SYMM 3/4-Y, 1/4+X, 1/4+Z
SYMM 1/4+Y, 1/4-X, 1/4+Z
REM  SPGR I41/a tetragonal
SFAC C H N Ni O Cl Sb
UNIT 1392 1616 80 16 16 160 16
SIZE 0.30 0.08 0.02
TEMP -180.0
L.S. 10
FMAP 2
PLAN -50
ACTA
CONF
LIST 4
MERG 2
OMIT -10.000000 124.000000
OMIT   -1    2    3
OMIT   -8   37    1
OMIT   -1    5    2
OMIT   -2   11    1
OMIT   -3   17    2
OMIT   -4    8    2
OMIT   -3    7    6
OMIT    6   17    3
OMIT   -4    8    6
OMIT  -15   19    2
OMIT   -4   23    3
OMIT   -2    8    2
OMIT    8   30    0
OMIT    5   17    2
OMIT   -9   17    4
OMIT    4   32    0
OMIT  -17   24    1
OMIT   11   12    3
OMIT   -2   36    0
OMIT    7   17    2
OMIT   -1   43    2
OMIT  -12   37    1
OMIT   -3    6    3
OMIT   -2    6    2
OMIT   35   42    1
OMIT   -1    9    6
OMIT  -12   19    5
OMIT   -2    4    6
OMIT   13   15    4
OMIT   14   17    1
OMIT    2   18    2
OMIT   15   17    2
OMIT    9   21    2
OMIT   -4    7    3
OMIT   -6   31    1
OMIT   13   34    1
OMIT  -16   22    4
OMIT   -3    4    3
OMIT   -7   37    2
OMIT    1   17    4
OMIT   -2   14    0
OMIT  -23   27    4
OMIT  -17   21    4
OMIT   -8   14    2
OMIT    1   18    5
OMIT   14   27    1
OMIT    2   16    2
OMIT    2   22    2
OMIT   11   21    2
OMIT   13   36    1
OMIT   -3   20    5
OMIT   12   16    2
OMIT  -25   42    3
OMIT   12   22    2
OMIT   -1   31    2
OMIT    7   22    1
OMIT   20   23    1
OMIT    4   37    1
OMIT   -4    6    6
OMIT  -25   38    3
OMIT    9   40    1
OMIT  -23   28    3
OMIT  -12   15    3
OMIT   12   49    3
OMIT    4   31    1
OMIT    9   35    2
OMIT   -5   17    4
OMIT   14   32    0
OMIT   -2    7    3
OMIT    8   34    0
OMIT   44   48    0
OMIT    6   28    2
OMIT  -14   17    3
OMIT    2   17    1
OMIT   11   20    3
OMIT   -4   39    5
OMIT   -1    8    3
OMIT   -4   20    4
OMIT  -16   30    0
OMIT    2   30    2
OMIT   -6   33    1

SADI 0.03 C87 Cl9 C87 Cl10
SADI 0.03 C88 Cl11 C88 Cl12
SIMU 0.03 C21 C22 C23 C24 C25 C26
ISOR 0.03 C21 C22 C23 C24 C25 C26

WGHT    0.085000 1808.005737
FVAR       0.15274   0.76479
C1    1    0.451779    0.472510    0.212679    11.00000    0.01349    0.01570 =
         0.01090    0.00110   -0.00057    0.00114
C2    1    0.441628    0.494748    0.235146    11.00000    0.01368    0.01431 =
         0.01500   -0.00264    0.00103   -0.00071
C3    1    0.458239    0.511465    0.214666    11.00000    0.01091    0.01934 =
         0.01087   -0.00189   -0.00321    0.00273
C4    1    0.478712    0.498892    0.182579    11.00000    0.00890    0.01549 =
         0.01533    0.00021   -0.00089    0.00049
C5    1    0.499332    0.510034    0.160004    11.00000    0.01883    0.01265 =
         0.01185   -0.00269   -0.00170    0.00131
C6    1    0.519633    0.498142    0.133504    11.00000    0.00990    0.01673 =
         0.01732    0.00198   -0.00144    0.00136
C7    1    0.540877    0.509784    0.115103    11.00000    0.01366    0.01078 =
         0.01585    0.00378   -0.00561   -0.00328
C8    1    0.557133    0.492918    0.100520    11.00000    0.00521    0.02265 =
         0.01744   -0.00198    0.00011   -0.00262
C9    1    0.545713    0.471274    0.110558    11.00000    0.01320    0.01922 =
         0.01199    0.00075    0.00120    0.00153
C10   1    0.556399    0.449346    0.108315    11.00000    0.01367    0.01942 =
         0.01587   -0.00576    0.00340    0.00615
C11   1    0.544027    0.429230    0.099834    11.00000    0.00746    0.01754 =
         0.02495    0.00024    0.00052    0.00414
C12   1    0.554521    0.406730    0.081875    11.00000    0.01582    0.01748 =
         0.03770   -0.00074    0.00788    0.00726
AFIX  43
H1    2    0.570571    0.403378    0.081664    11.00000   -1.20000
AFIX   0
C13   1    0.537656    0.391873    0.065969    11.00000    0.03040    0.00978 =
         0.03178   -0.00106    0.00627    0.00124
AFIX  43
H2    2    0.539266    0.375872    0.048608    11.00000   -1.20000
AFIX   0
C14   1    0.516418    0.404206    0.079584    11.00000    0.01990    0.01554 =
         0.02617   -0.00112    0.00623    0.00371
C15   1    0.494845    0.393112    0.085248    11.00000    0.02315    0.01456 =
         0.01703    0.00096    0.00350   -0.00259
C16   1    0.475285    0.404599    0.120101    11.00000    0.01368    0.01901 =
         0.02501   -0.00127   -0.00357    0.00444
C17   1    0.453367    0.393282    0.138444    11.00000    0.02204    0.01622 =
         0.03481    0.00009    0.00157   -0.00892
AFIX  43
H3    2    0.450039    0.377453    0.123893    11.00000   -1.20000
AFIX   0
C18   1    0.438594    0.409365    0.179941    11.00000    0.01210    0.00992 =
         0.04422    0.00582   -0.00340   -0.00374
AFIX  43
H4    2    0.422832    0.407013    0.200885    11.00000   -1.20000
AFIX   0
C19   1    0.450946    0.430769    0.186917    11.00000    0.01503    0.01641 =
         0.02183    0.00161   -0.00015   -0.00242
C20   1    0.440492    0.451420    0.219740    11.00000    0.00717    0.02062 =
         0.01422    0.00157    0.00230    0.00306
C21   1    0.458979    0.535880    0.223757    11.00000    0.02385    0.01448 =
         0.01602    0.00540   -0.00392    0.00439
C22   1    0.440031    0.550085    0.254312    11.00000    0.01349    0.01946 =
         0.02960    0.00014   -0.00185    0.00303
AFIX  43
H5    2    0.425548    0.543054    0.271184    11.00000   -1.20000
AFIX   0
C23   1    0.441710    0.573476    0.260535    11.00000    0.01997    0.01790 =
         0.02991    0.00132    0.00139    0.01047
AFIX  43
H6    2    0.428479    0.582470    0.280021    11.00000   -1.20000
AFIX   0
C24   1    0.462524    0.584106    0.238666    11.00000    0.02184    0.01137 =
         0.02917   -0.00263   -0.00232    0.00680
AFIX  43
H7    2    0.463696    0.600439    0.243156    11.00000   -1.20000
AFIX   0
C25   1    0.481723    0.571019    0.210170    11.00000    0.01834    0.01797 =
         0.02042   -0.00052   -0.00113    0.00072
C26   1    0.479779    0.546966    0.198715    11.00000    0.00857    0.00726 =
         0.02239   -0.00535   -0.00617   -0.00368
C27   1    0.541755    0.534726    0.126662    11.00000    0.01256    0.01757 =
         0.01352    0.00139   -0.00963   -0.00137
C28   1    0.521180    0.546176    0.153098    11.00000    0.01780    0.01551 =
         0.01510    0.00321   -0.00149   -0.00405
C29   1    0.521351    0.570332    0.165384    11.00000    0.01776    0.01837 =
         0.02001    0.00012   -0.00259    0.00223
C30   1    0.541653    0.582714    0.155904    11.00000    0.02445    0.01009 =
         0.02726    0.00072   -0.00082   -0.00463
AFIX  43
H8    2    0.541676    0.598987    0.166798    11.00000   -1.20000
AFIX   0
C31   1    0.561841    0.571117    0.130442    11.00000    0.02178    0.02406 =
         0.02900    0.00332   -0.00750   -0.00962
AFIX  43
H9    2    0.575859    0.579537    0.123964    11.00000   -1.20000
AFIX   0
C32   1    0.562115    0.547719    0.114292    11.00000    0.01119    0.02051 =
         0.02445    0.00202   -0.00190    0.00248
AFIX  43
H10   2    0.576203    0.540163    0.094512    11.00000   -1.20000
AFIX   0
C33   1    0.582016    0.447680    0.120167    11.00000    0.00618    0.01567 =
         0.02859    0.00384    0.00244    0.00024
C34   1    0.591956    0.452648    0.232311    11.00000    0.01446    0.02269 =
         0.03168    0.00857    0.00838    0.00871
AFIX  43
H11   2    0.582338    0.456674    0.301063    11.00000   -1.20000
AFIX   0
C35   1    0.616273    0.452030    0.250383    11.00000    0.01503    0.02899 =
         0.03323   -0.00230   -0.01096    0.00749
C36   1    0.629076    0.445835    0.144083    11.00000    0.01543    0.02150 =
         0.04126    0.00222    0.00258    0.01281
AFIX  43
H12   2    0.645414    0.445566    0.151385    11.00000   -1.20000
AFIX   0
C37   1    0.619420    0.439993    0.027456    11.00000    0.00931    0.01574 =
         0.03579    0.00194   -0.00224    0.00269
C38   1    0.595426    0.440744    0.019256    11.00000    0.02040    0.00995 =
         0.03028   -0.00149    0.00054    0.00366
AFIX  43
H13   2    0.588114    0.436419   -0.056948    11.00000   -1.20000
AFIX   0
C39   1    0.628721    0.457645    0.371137    11.00000    0.02231    0.05998 =
         0.05165   -0.01446   -0.00822    0.01967
C40   1    0.644569    0.478857    0.348156    11.00000    0.04237    0.06316 =
         0.06608   -0.02742    0.00189   -0.01811
AFIX  33
H20   2    0.635204    0.491940    0.319807    11.00000   -1.50000
H21   2    0.652462    0.482955    0.426330    11.00000   -1.50000
H22   2    0.656037    0.475056    0.283834    11.00000   -1.50000
AFIX   0
C41   1    0.642712    0.437647    0.414230    11.00000    0.07159    0.10670 =
         0.03224   -0.00060   -0.02548    0.03741
AFIX  33
H23   2    0.650620    0.441656    0.492497    11.00000   -1.50000
H24   2    0.632576    0.424367    0.428582    11.00000   -1.50000
H25   2    0.654163    0.433736    0.350013    11.00000   -1.50000
AFIX   0
C42   1    0.611538    0.464248    0.476466    11.00000    0.02826    0.08181 =
         0.03421   -0.01320   -0.00517    0.00558
AFIX  33
H26   2    0.602190    0.477426    0.449290    11.00000   -1.50000
H27   2    0.601431    0.451093    0.494379    11.00000   -1.50000
H28   2    0.620122    0.468402    0.552371    11.00000   -1.50000
AFIX   0
C43   1    0.634746    0.434693   -0.085962    11.00000    0.01707    0.01604 =
         0.03182   -0.00023    0.00184    0.00737
C44   1    0.645409    0.457516   -0.134093    11.00000    0.03240    0.02401 =
         0.04397    0.01069    0.00838   -0.00041
AFIX  33
H29   2    0.655260    0.454321   -0.206752    11.00000   -1.50000
H30   2    0.633043    0.468136   -0.158636    11.00000   -1.50000
H31   2    0.654675    0.464549   -0.067377    11.00000   -1.50000
AFIX   0
C45   1    0.654010    0.417854   -0.048333    11.00000    0.01433    0.03250 =
         0.04071   -0.00090    0.00011    0.00676
AFIX  33
H32   2    0.663724    0.414562   -0.121409    11.00000   -1.50000
H33   2    0.663442    0.424790    0.017994    11.00000   -1.50000
H34   2    0.647154    0.403466   -0.017571    11.00000   -1.50000
AFIX   0
C46   1    0.621257    0.423679   -0.194321    11.00000    0.02743    0.03584 =
         0.03488   -0.00411    0.00502   -0.00472
AFIX  33
H35   2    0.631760    0.420621   -0.264419    11.00000   -1.50000
H36   2    0.614351    0.409146   -0.165993    11.00000   -1.50000
H37   2    0.609044    0.434232   -0.221777    11.00000   -1.50000
AFIX   0
C47   1    0.493917    0.367773    0.055583    11.00000    0.01118    0.01503 =
         0.03717   -0.00356    0.00341   -0.00100
C48   1    0.491120    0.351700    0.148325    11.00000    0.02671    0.01995 =
         0.02891   -0.00559   -0.00058   -0.00848
AFIX  43
H14   2    0.488149    0.356686    0.231647    11.00000   -1.20000
AFIX   0
C49   1    0.492509    0.328758    0.123552    11.00000    0.02998    0.02931 =
         0.03094   -0.00284   -0.00977    0.00464
C50   1    0.495882    0.321509    0.000264    11.00000    0.02847    0.01434 =
         0.03877   -0.00450   -0.00484   -0.00023
AFIX  43
H15   2    0.496749    0.305462   -0.017405    11.00000   -1.20000
AFIX   0
C51   1    0.498015    0.337344   -0.097894    11.00000    0.01299    0.01917 =
         0.03867   -0.00825    0.00097    0.00293
C52   1    0.497571    0.360671   -0.068599    11.00000    0.01949    0.01186 =
         0.02937    0.00140   -0.00203   -0.00263
AFIX  43
H16   2    0.499744    0.371846   -0.132717    11.00000   -1.20000
AFIX   0
C53   1    0.490058    0.311035    0.233138    11.00000    0.05734    0.01940 =
         0.03871    0.00376    0.00158    0.00102
C54   1    0.466654    0.314559    0.297300    11.00000    0.08286    0.03256 =
         0.08197    0.02332    0.01386   -0.00233
AFIX  33
H38   2    0.454237    0.311500    0.237152    11.00000   -1.50000
H39   2    0.465285    0.303933    0.368413    11.00000   -1.50000
H40   2    0.465474    0.330499    0.327364    11.00000   -1.50000
AFIX   0
C55   1    0.509758    0.315738    0.325697    11.00000    0.09636    0.04090 =
         0.04752    0.01302   -0.01873    0.00091
AFIX  33
H41   2    0.524602    0.313423    0.283481    11.00000   -1.50000
H42   2    0.508726    0.331682    0.355859    11.00000   -1.50000
H43   2    0.508536    0.305115    0.396908    11.00000   -1.50000
AFIX   0
C56   1    0.492086    0.285640    0.189843    11.00000    0.08163    0.02474 =
         0.06917    0.01349    0.00632   -0.00490
AFIX  33
H44   2    0.507027    0.283281    0.148719    11.00000   -1.50000
H45   2    0.490884    0.275409    0.262736    11.00000   -1.50000
H46   2    0.479632    0.282137    0.130640    11.00000   -1.50000
AFIX   0
C57   1    0.501353    0.328813   -0.232723    11.00000    0.03973    0.02338 =
         0.03194   -0.00846    0.00641   -0.00179
C58   1    0.526386    0.320005   -0.244197    11.00000    0.04379    0.11212 =
         0.05489   -0.04424    0.00744    0.01372
AFIX  33
H47   2    0.529089    0.307890   -0.181765    11.00000   -1.50000
H48   2    0.528863    0.313722   -0.328458    11.00000   -1.50000
H49   2    0.537112    0.332806   -0.229659    11.00000   -1.50000
AFIX   0
C59   1    0.484901    0.309049   -0.263162    11.00000    0.06614    0.08465 =
         0.05011   -0.02983   -0.00628   -0.02162
AFIX  33
H50   2    0.487476    0.296325   -0.204252    11.00000   -1.50000
H51   2    0.468931    0.314455   -0.255867    11.00000   -1.50000
H52   2    0.487723    0.303666   -0.348929    11.00000   -1.50000
AFIX   0
C60   1    0.496347    0.347312   -0.325892    11.00000    0.18097    0.04981 =
         0.03197   -0.01696   -0.01730    0.02043
AFIX  33
H53   2    0.506516    0.360527   -0.310497    11.00000   -1.50000
H54   2    0.499013    0.341393   -0.410761    11.00000   -1.50000
H55   2    0.480220    0.352182   -0.317700    11.00000   -1.50000
AFIX   0
C61   1    0.415784    0.449866    0.260057    11.00000    0.01441    0.00973 =
         0.02245    0.00141    0.00714   -0.00494
C62   1    0.410638    0.447930    0.386897    11.00000    0.02164    0.00979 =
         0.02431   -0.00079    0.00292    0.00263
AFIX  43
H17   2    0.422755    0.446171    0.446149    11.00000   -1.20000
AFIX   0
C63   1    0.387498    0.448564    0.428160    11.00000    0.01876    0.02282 =
         0.02097   -0.00082    0.00004   -0.00600
C64   1    0.370825    0.450659    0.336197    11.00000    0.01102    0.01810 =
         0.02676    0.00164    0.00320   -0.00426
AFIX  43
H18   2    0.355152    0.451206    0.362208    11.00000   -1.20000
AFIX   0
C65   1    0.375324    0.452021    0.208622    11.00000    0.01594    0.01076 =
         0.02421   -0.00162    0.00081   -0.00350
C66   1    0.399134    0.451780    0.173767    11.00000    0.02073    0.00948 =
         0.01906    0.00199    0.00432    0.00927
AFIX  43
H19   2    0.403215    0.453001    0.087735    11.00000   -1.20000
AFIX   0
C67   1    0.382131    0.446744    0.566464    11.00000    0.02498    0.03762 =
         0.02604    0.00264    0.00450   -0.00834
C68   1    0.389595    0.422626    0.613889    11.00000    0.03652    0.04884 =
         0.03156    0.01655    0.00196   -0.00131
AFIX  33
H56   2    0.386171    0.421297    0.703603    11.00000   -1.50000
H57   2    0.381136    0.410692    0.567755    11.00000   -1.50000
H58   2    0.406203    0.420619    0.600338    11.00000   -1.50000
AFIX   0
C69   1    0.356552    0.450062    0.596586    11.00000    0.02579    0.04700 =
         0.02963    0.00070    0.01533   -0.00578
AFIX  33
H59   2    0.354177    0.448694    0.687277    11.00000   -1.50000
H60   2    0.351606    0.465391    0.568541    11.00000   -1.50000
H61   2    0.347474    0.438227    0.553251    11.00000   -1.50000
AFIX   0
C70   1    0.396166    0.464792    0.638098    11.00000    0.03089    0.06021 =
         0.03205   -0.01255    0.00929   -0.00951
AFIX  33
H62   2    0.392719    0.463652    0.727860    11.00000   -1.50000
H63   2    0.412665    0.462046    0.624412    11.00000   -1.50000
H64   2    0.392111    0.480246    0.607930    11.00000   -1.50000
AFIX   0
C71   1    0.355888    0.454977    0.113865    11.00000    0.01474    0.02795 =
         0.01330    0.00325   -0.00152    0.00033
C72   1    0.343288    0.477906    0.141302    11.00000    0.03720    0.04606 =
         0.03655   -0.00198   -0.02001    0.00602
AFIX  33
H65   2    0.354039    0.490808    0.130399    11.00000   -1.50000
H66   2    0.330301    0.479675    0.083216    11.00000   -1.50000
H67   2    0.337526    0.477790    0.227708    11.00000   -1.50000
AFIX   0
C73   1    0.338740    0.435616    0.131726    11.00000    0.02703    0.03689 =
         0.02578   -0.00119   -0.00478   -0.01358
AFIX  33
H68   2    0.326120    0.437312    0.071233    11.00000   -1.50000
H69   2    0.346462    0.420769    0.118415    11.00000   -1.50000
H70   2    0.332513    0.436207    0.217115    11.00000   -1.50000
AFIX   0
C74   1    0.364121    0.454499   -0.022592    11.00000    0.02376    0.04946 =
         0.02409    0.00539    0.00157   -0.00792
AFIX  33
H71   2    0.375287    0.466952   -0.036235    11.00000   -1.50000
H72   2    0.371457    0.439609   -0.040227    11.00000   -1.50000
H73   2    0.350885    0.456630   -0.078632    11.00000   -1.50000
AFIX   0
C75   1    0.543261    0.497981    0.441301    11.00000    0.04909    0.20388 =
         0.04820    0.03944   -0.01076   -0.03484
AFIX  33
H74   2    0.559765    0.499365    0.422660    11.00000   -1.50000
H75   2    0.534318    0.505678    0.375447    11.00000   -1.50000
H76   2    0.539973    0.505253    0.522332    11.00000   -1.50000
AFIX   0
C76   1    0.537716    0.476767    0.445793    11.00000    0.04180    0.21900 =
         0.02308    0.02525    0.00828    0.03546
AFIX  23
H77   2    0.547433    0.469285    0.510440    11.00000   -1.20000
H78   2    0.541804    0.469708    0.364214    11.00000   -1.20000
AFIX   0
C77   1    0.513045    0.470854    0.473329    11.00000    0.08039    0.10232 =
         0.02505   -0.00929   -0.00958    0.05788
AFIX  23
H79   2    0.503284    0.479541    0.413506    11.00000   -1.20000
H80   2    0.509426    0.476743    0.558237    11.00000   -1.20000
AFIX   0
C78   1    0.505266    0.444588    0.468083    11.00000    0.20173    0.10897 =
         0.01182   -0.00431   -0.02287    0.10388
AFIX  23
H81   2    0.508071    0.438416    0.382861    11.00000   -1.20000
H82   2    0.514641    0.435488    0.527915    11.00000   -1.20000
AFIX   0
C79   1    0.479705    0.441963    0.500706    11.00000    0.13567    0.10447 =
         0.04160    0.01135   -0.00882    0.00498
AFIX  23
H83   2    0.470254    0.451039    0.441121    11.00000   -1.20000
H84   2    0.476843    0.447962    0.586236    11.00000   -1.20000
AFIX   0
C80   1    0.471626    0.412332    0.492988    11.00000    0.06614    0.20978 =
         0.04103    0.03010   -0.01077    0.00994
AFIX  33
H85   2    0.455234    0.410767    0.513983    11.00000   -1.50000
H86   2    0.474312    0.406500    0.407963    11.00000   -1.50000
H87   2    0.480887    0.403429    0.552772    11.00000   -1.50000
AFIX   0
C81   1    0.709537    0.974540    0.250170    11.00000    0.05372    0.04611 =
         0.07098    0.00811    0.00063   -0.00982
AFIX  33
H88   2    0.710400    0.964984    0.325855    11.00000   -1.50000
H89   2    0.721779    0.986204    0.252331    11.00000   -1.50000
H90   2    0.694471    0.982200    0.246595    11.00000   -1.50000
AFIX   0
C82   1    0.712628    0.959138    0.133044    11.00000    0.03141    0.03746 =
         0.06470    0.00733    0.00120    0.00239
AFIX  23
H91   2    0.727706    0.951170    0.138777    11.00000   -1.20000
H92   2    0.700433    0.947171    0.133048    11.00000   -1.20000
AFIX   0
C83   1    0.711579    0.972302    0.009212    11.00000    0.04984    0.03563 =
         0.05461   -0.00055   -0.00395    0.00006
AFIX  23
H93   2    0.697008    0.981213    0.006740    11.00000   -1.20000
H94   2    0.724474    0.983505    0.007060    11.00000   -1.20000
AFIX   0
C84   1    0.712866    0.957431   -0.106963    11.00000    0.04476    0.03433 =
         0.06667    0.00000    0.01520   -0.00448
AFIX  23
H95   2    0.726226    0.946890   -0.098696    11.00000   -1.20000
H96   2    0.698775    0.947797   -0.111103    11.00000   -1.20000
AFIX   0
C85   1    0.715140    0.970385   -0.227583    11.00000    0.07238    0.05320 =
         0.04960    0.00612    0.00274   -0.00576
AFIX  23
H97   2    0.702271    0.981565   -0.233904    11.00000   -1.20000
H98   2    0.729717    0.979294   -0.225821    11.00000   -1.20000
AFIX   0
C86   1    0.715044    0.955481   -0.341563    11.00000    0.07741    0.07476 =
         0.08392   -0.00461    0.01930   -0.01246
AFIX  33
H99   2    0.716591    0.965148   -0.416508    11.00000   -1.50000
H100  2    0.727982    0.944612   -0.337503    11.00000   -1.50000
H101  2    0.700496    0.946886   -0.345597    11.00000   -1.50000
AFIX   0
N1    3    0.474948    0.475179    0.179736    11.00000    0.01450    0.01155 =
         0.01569    0.00046   -0.00415    0.00058
N2    3    0.522111    0.474488    0.127714    11.00000    0.00648    0.01347 =
         0.01768   -0.00461   -0.00048   -0.00134
N3    3    0.520117    0.427294    0.100438    11.00000    0.01238    0.01470 =
         0.02182    0.00335    0.00280   -0.00269
N4    3    0.473731    0.427609    0.150825    11.00000    0.01550    0.01150 =
         0.01803   -0.00258    0.00062   -0.00250
N5    3    0.500027    0.534062    0.168844    11.00000    0.01852    0.01282 =
         0.01487   -0.00052   -0.00267   -0.00201
O1    5    0.501832    0.582808    0.191802    11.00000    0.01479    0.00782 =
         0.03498   -0.00120    0.00069    0.00157
NI1   4    0.497678    0.451081    0.139983    11.00000    0.00823    0.01128 =
         0.01701   -0.00053    0.00132    0.00023
SB1   7    0.400535    0.655324    0.060823    11.00000    0.02122    0.01779 =
         0.05881    0.00183    0.00987    0.00804
CL1   6    0.391932    0.624298   -0.076367    11.00000    0.02581    0.03009 =
         0.06431   -0.00437    0.00054    0.00886
CL2   6    0.423312    0.630282    0.185559    11.00000    0.02417    0.02311 =
         0.06705    0.00030   -0.00022    0.00757
CL3   6    0.433389    0.664900   -0.059706    11.00000    0.03352    0.02420 =
         0.07631   -0.00167    0.02314    0.00515
CL4   6    0.408389    0.686154    0.199033    11.00000    0.03920    0.02319 =
         0.07649   -0.00960    0.01932    0.00343
CL5   6    0.377478    0.679738   -0.064988    11.00000    0.04146    0.03678 =
         0.06881    0.01382    0.01446    0.02367
CL6   6    0.367608    0.645143    0.183342    11.00000    0.02107    0.03522 =
         0.06143    0.00647    0.00928    0.00932
CL7   6    0.414017    0.500660    0.283774    11.00000    0.00985    0.01993 =
         0.03191   -0.00246    0.00564    0.00281
CL8   6    0.585508    0.497459    0.061849    11.00000    0.00983    0.02011 =
         0.03392   -0.00017    0.00286   -0.00214
PART 1
CL9   6    0.130110    0.365227    0.051925    21.00000    0.42383
CL10  6    0.056413    0.376798    0.078678    21.00000    0.50034
C87   1    0.094566    0.377217    0.061946    21.00000    0.14536
PART 2
CL11  6    0.024449    0.383504    0.082482   -21.00000    0.14978
CL12  6    0.083418    0.361296    0.064268   -21.00000    0.21867
C88   1    0.065982    0.404872    0.066205   -21.00000    0.13439
PART 0

HKLF 4 1 1 0 0 0 1 0 0 0 1

REM
REM R1 =  0.0992 for   12792 Fo > 4sig(Fo)  and  0.1022 for all   13578 data
REM    944 parameters refined using     74 restraints

END

WGHT      0.0010   1566.0364

REM Highest difference peak  1.202,  deepest hole -0.774,  1-sigma level  0.151
Q1    1   0.4956  0.4095  0.4600  11.00000  0.05    1.20
Q2    1   0.1387  0.3701  0.0564  11.00000  0.05    1.20
Q3    1   0.1093  0.3816  0.0544  11.00000  0.05    1.08
Q4    1   0.5914  0.3521 -0.3144  11.00000  0.05    1.06
Q5    1   0.0415  0.3695  0.0779  11.00000  0.05    0.97
Q6    1   0.0691  0.3803  0.0691  11.00000  0.05    0.85
Q7    1   0.5206  0.4496  0.4382  11.00000  0.05    0.70
Q8    1   0.1174  0.3494  0.1037  11.00000  0.05    0.70
Q9    1   0.0720  0.3506  0.0244  11.00000  0.05    0.63
Q10   1   0.6012  0.4608  0.0587  11.00000  0.05    0.60
Q11   1   0.4610  0.4202  0.2968  11.00000  0.05    0.58
Q12   1   0.0520  0.3924  0.0958  11.00000  0.05    0.57
Q13   1   0.6689  0.4292  0.3272  11.00000  0.05    0.57
Q14   1   0.6109  0.4307 -0.2796  11.00000  0.05    0.56
Q15   1   0.9400  0.3393  0.0449  11.00000  0.05    0.55
Q16   1   0.6788  0.4400  0.0529  11.00000  0.05    0.55
Q17   1   0.4293  0.4230  0.3572  11.00000  0.05    0.55
Q18   1   0.4079  0.4637  0.2085  11.00000  0.05    0.54
Q19   1   0.5000  0.2500  0.2426  10.50000  0.05    0.53
Q20   1   0.4724  0.2399  0.3112  11.00000  0.05    0.52
Q21   1   0.5000  0.2500  0.1529  10.50000  0.05    0.52
Q22   1   0.4486  0.3613  0.1766  11.00000  0.05    0.52
Q23   1   0.3708  0.6308 -0.0634  11.00000  0.05    0.51
Q24   1   0.5892  0.3505 -0.1938  11.00000  0.05    0.51
Q25   1   0.5295  0.5182  0.2778  11.00000  0.05    0.51
Q26   1   0.6170  0.4007 -0.3216  11.00000  0.05    0.50
Q27   1   0.9483  0.4674  0.0787  11.00000  0.05    0.49
Q28   1   0.5166  0.3110 -0.0426  11.00000  0.05    0.49
Q29   1   0.4302  0.3408  0.2613  11.00000  0.05    0.48
Q30   1   0.5567  0.3473 -0.1847  11.00000  0.05    0.48
Q31   1   0.6236  0.9874  0.0484  11.00000  0.05    0.48
Q32   1   0.5599  0.4873  0.3578  11.00000  0.05    0.47
Q33   1   0.5795  0.5423 -0.0514  11.00000  0.05    0.47
Q34   1   0.7391  0.9604 -0.3173  11.00000  0.05    0.47
Q35   1   0.4308  0.4417  0.5815  11.00000  0.05    0.47
Q36   1   0.4978  0.4507  0.6305  11.00000  0.05    0.47
Q37   1   0.5065  0.4281  0.3212  11.00000  0.05    0.47
Q38   1   0.7020  0.4316  0.3189  11.00000  0.05    0.47
Q39   1   0.4767  0.5393  0.2762  11.00000  0.05    0.47
Q40   1   0.4322  0.5469  0.0962  11.00000  0.05    0.46
Q41   1   0.5189  0.3030 -0.3726  11.00000  0.05    0.46
Q42   1   0.6968  0.9910 -0.1617  11.00000  0.05    0.46
Q43   1   0.6139  0.3306 -0.1844  11.00000  0.05    0.46
Q44   1   0.4888  0.4690  0.0871  11.00000  0.05    0.46
Q45   1   0.4804  0.4630  0.1205  11.00000  0.05    0.45
Q46   1   0.4610  0.3895  0.0728  11.00000  0.05    0.45
Q47   1   0.4708  0.4199  0.4957  11.00000  0.05    0.45
Q48   1   0.5083  0.3198 -0.4494  11.00000  0.05    0.44
Q49   1   0.5420  0.4532  0.3583  11.00000  0.05    0.44
Q50   1   0.6961  0.9245  0.1724  11.00000  0.05    0.44
;
_shelx_res_checksum              51538
loop_
_space_group_symop_operation_xyz
'x, y, z'
'-x, -y+1/2, z'
'-y+3/4, x+1/4, z+1/4'
'y+1/4, -x+1/4, z+1/4'
'x+1/2, y+1/2, z+1/2'
'-x+1/2, -y+1, z+1/2'
'-y+5/4, x+3/4, z+3/4'
'y+3/4, -x+3/4, z+3/4'
'-x, -y, -z'
'x, y-1/2, -z'
'y-3/4, -x-1/4, -z-1/4'
'-y-1/4, x-1/4, -z-1/4'
'-x+1/2, -y+1/2, -z+1/2'
'x+1/2, y, -z+1/2'
'y-1/4, -x+1/4, -z+1/4'
'-y+1/4, x+1/4, -z+1/4'
loop_
_atom_site_label
_atom_site_type_symbol
_atom_site_fract_x
_atom_site_fract_y
_atom_site_fract_z
_atom_site_U_iso_or_equiv
_atom_site_adp_type
_atom_site_occupancy
_atom_site_site_symmetry_order
_atom_site_calc_flag
_atom_site_refinement_flags_posn
_atom_site_refinement_flags_adp
_atom_site_refinement_flags_occupancy
_atom_site_disorder_assembly
_atom_site_disorder_group
C1 C 0.45178(14) 0.47251(15) 0.2127(8) 0.0134(18) Uani 1 1 d . . . . .
C2 C 0.44163(15) 0.49475(15) 0.2351(8) 0.0143(18) Uani 1 1 d . . . . .
C3 C 0.45824(14) 0.51147(15) 0.2147(8) 0.0137(18) Uani 1 1 d . . . . .
C4 C 0.47871(14) 0.49889(15) 0.1826(8) 0.0132(18) Uani 1 1 d . . . . .
C5 C 0.49933(15) 0.51003(15) 0.1600(8) 0.0144(18) Uani 1 1 d . . . . .
C6 C 0.51963(14) 0.49814(15) 0.1335(8) 0.0147(18) Uani 1 1 d . . . . .
C7 C 0.54088(14) 0.50978(14) 0.1151(8) 0.0134(18) Uani 1 1 d . . . . .
C8 C 0.55713(14) 0.49292(15) 0.1005(8) 0.0151(18) Uani 1 1 d . . . . .
C9 C 0.54571(15) 0.47127(15) 0.1106(8) 0.0148(18) Uani 1 1 d . . . . .
C10 C 0.55640(15) 0.44935(15) 0.1083(8) 0.0163(19) Uani 1 1 d . . . . .
C11 C 0.54403(14) 0.42923(15) 0.0998(9) 0.0166(19) Uani 1 1 d . . . . .
C12 C 0.55452(16) 0.40673(16) 0.0819(10) 0.024(2) Uani 1 1 d . . . . .
H1 H 0.5706 0.4034 0.0817 0.028 Uiso 1 1 calc R U . . .
C13 C 0.53766(17) 0.39187(16) 0.0660(10) 0.024(2) Uani 1 1 d . . . . .
H2 H 0.5393 0.3759 0.0486 0.029 Uiso 1 1 calc R U . . .
C14 C 0.51642(16) 0.40421(16) 0.0796(9) 0.021(2) Uani 1 1 d . . . . .
C15 C 0.49485(16) 0.39311(15) 0.0852(9) 0.0182(19) Uani 1 1 d . . . . .
C16 C 0.47529(15) 0.40460(16) 0.1201(9) 0.019(2) Uani 1 1 d . . . . .
C17 C 0.45337(16) 0.39328(16) 0.1384(10) 0.024(2) Uani 1 1 d . . . . .
H3 H 0.4500 0.3775 0.1239 0.029 Uiso 1 1 calc R U . . .
C18 C 0.43859(15) 0.40937(15) 0.1799(10) 0.022(2) Uani 1 1 d . . . . .
H4 H 0.4228 0.4070 0.2009 0.026 Uiso 1 1 calc R U . . .
C19 C 0.45095(15) 0.43077(15) 0.1869(9) 0.0178(19) Uani 1 1 d . . . . .
C20 C 0.44049(14) 0.45142(15) 0.2197(8) 0.0140(18) Uani 1 1 d . . . . .
C21 C 0.45898(16) 0.53588(15) 0.2238(9) 0.0181(19) Uani 1 1 d . U . . .
C22 C 0.44003(16) 0.55008(16) 0.2543(9) 0.021(2) Uani 1 1 d . U . . .
H5 H 0.4255 0.5431 0.2712 0.025 Uiso 1 1 calc R U . . .
C23 C 0.44171(16) 0.57348(16) 0.2605(10) 0.023(2) Uani 1 1 d . U . . .
H6 H 0.4285 0.5825 0.2800 0.027 Uiso 1 1 calc R U . . .
C24 C 0.46252(16) 0.58411(15) 0.2387(9) 0.021(2) Uani 1 1 d . U . . .
H7 H 0.4637 0.6004 0.2432 0.025 Uiso 1 1 calc R U . . .
C25 C 0.48172(16) 0.57102(16) 0.2102(9) 0.0189(19) Uani 1 1 d . U . . .
C26 C 0.47978(14) 0.54697(14) 0.1987(8) 0.0127(18) Uani 1 1 d . U . . .
C27 C 0.54175(14) 0.53473(15) 0.1267(8) 0.0145(18) Uani 1 1 d . . . . .
C28 C 0.52118(15) 0.54618(15) 0.1531(8) 0.0161(19) Uani 1 1 d . . . . .
C29 C 0.52135(16) 0.57033(16) 0.1654(9) 0.019(2) Uani 1 1 d . . . . .
C30 C 0.54165(16) 0.58271(15) 0.1559(9) 0.021(2) Uani 1 1 d . . . . .
H8 H 0.5417 0.5990 0.1668 0.025 Uiso 1 1 calc R U . . .
C31 C 0.56184(17) 0.57112(17) 0.1304(10) 0.025(2) Uani 1 1 d . . . . .
H9 H 0.5759 0.5795 0.1240 0.030 Uiso 1 1 calc R U . . .
C32 C 0.56211(15) 0.54772(16) 0.1143(9) 0.019(2) Uani 1 1 d . . . . .
H10 H 0.5762 0.5402 0.0945 0.022 Uiso 1 1 calc R U . . .
C33 C 0.58202(14) 0.44768(15) 0.1202(9) 0.0168(19) Uani 1 1 d . . . . .
C34 C 0.59196(16) 0.45265(16) 0.2323(10) 0.023(2) Uani 1 1 d . . . . .
H11 H 0.5823 0.4567 0.3011 0.028 Uiso 1 1 calc R U . . .
C35 C 0.61627(16) 0.45203(17) 0.2504(10) 0.026(2) Uani 1 1 d . . . . .
C36 C 0.62908(16) 0.44583(16) 0.1441(10) 0.026(2) Uani 1 1 d . . . . .
H12 H 0.6454 0.4456 0.1514 0.031 Uiso 1 1 calc R U . . .
C37 C 0.61942(15) 0.43999(15) 0.0275(10) 0.020(2) Uani 1 1 d . . . . .
C38 C 0.59543(16) 0.44074(15) 0.0193(10) 0.020(2) Uani 1 1 d . . . . .
H13 H 0.5881 0.4364 -0.0569 0.024 Uiso 1 1 calc R U . . .
C39 C 0.62872(19) 0.4576(2) 0.3711(13) 0.045(3) Uani 1 1 d . . . . .
C40 C 0.6446(2) 0.4789(3) 0.3482(15) 0.057(4) Uani 1 1 d . . . . .
H20 H 0.6352 0.4919 0.3198 0.086 Uiso 1 1 calc R U . . .
H21 H 0.6525 0.4830 0.4263 0.086 Uiso 1 1 calc R U . . .
H22 H 0.6560 0.4751 0.2838 0.086 Uiso 1 1 calc R U . . .
C41 C 0.6427(3) 0.4376(3) 0.4142(13) 0.070(5) Uani 1 1 d . . . . .
H23 H 0.6506 0.4417 0.4925 0.105 Uiso 1 1 calc R U . . .
H24 H 0.6326 0.4244 0.4286 0.105 Uiso 1 1 calc R U . . .
H25 H 0.6542 0.4337 0.3500 0.105 Uiso 1 1 calc R U . . .
C42 C 0.6115(2) 0.4642(3) 0.4765(12) 0.048(3) Uani 1 1 d . . . . .
H26 H 0.6022 0.4774 0.4493 0.072 Uiso 1 1 calc R U . . .
H27 H 0.6014 0.4511 0.4944 0.072 Uiso 1 1 calc R U . . .
H28 H 0.6201 0.4684 0.5524 0.072 Uiso 1 1 calc R U . . .
C43 C 0.63475(16) 0.43469(16) -0.0860(10) 0.022(2) Uani 1 1 d . . . . .
C44 C 0.64541(19) 0.45752(18) -0.1341(11) 0.033(3) Uani 1 1 d . . . . .
H29 H 0.6553 0.4543 -0.2068 0.050 Uiso 1 1 calc R U . . .
H30 H 0.6330 0.4681 -0.1586 0.050 Uiso 1 1 calc R U . . .
H31 H 0.6547 0.4645 -0.0674 0.050 Uiso 1 1 calc R U . . .
C45 C 0.65401(16) 0.41785(18) -0.0483(11) 0.029(2) Uani 1 1 d . . . . .
H32 H 0.6637 0.4146 -0.1214 0.044 Uiso 1 1 calc R U . . .
H33 H 0.6634 0.4248 0.0180 0.044 Uiso 1 1 calc R U . . .
H34 H 0.6472 0.4035 -0.0176 0.044 Uiso 1 1 calc R U . . .
C46 C 0.62126(18) 0.42368(19) -0.1943(11) 0.033(2) Uani 1 1 d . . . . .
H35 H 0.6318 0.4206 -0.2644 0.049 Uiso 1 1 calc R U . . .
H36 H 0.6144 0.4091 -0.1660 0.049 Uiso 1 1 calc R U . . .
H37 H 0.6090 0.4342 -0.2218 0.049 Uiso 1 1 calc R U . . .
C47 C 0.49392(15) 0.36777(16) 0.0556(10) 0.021(2) Uani 1 1 d . . . . .
C48 C 0.49112(17) 0.35170(16) 0.1483(10) 0.025(2) Uani 1 1 d . . . . .
H14 H 0.4881 0.3567 0.2316 0.030 Uiso 1 1 calc R U . . .
C49 C 0.49251(18) 0.32876(18) 0.1236(10) 0.030(2) Uani 1 1 d . . . . .
C50 C 0.49588(17) 0.32151(16) 0.0003(10) 0.027(2) Uani 1 1 d . . . . .
H15 H 0.4967 0.3055 -0.0174 0.033 Uiso 1 1 calc R U . . .
C51 C 0.49802(15) 0.33734(16) -0.0979(10) 0.024(2) Uani 1 1 d . . . . .
C52 C 0.49757(16) 0.36067(15) -0.0686(9) 0.020(2) Uani 1 1 d . . . . .
H16 H 0.4997 0.3718 -0.1327 0.024 Uiso 1 1 calc R U . . .
C53 C 0.4901(2) 0.31103(18) 0.2331(12) 0.038(3) Uani 1 1 d . . . . .
C54 C 0.4667(3) 0.3146(2) 0.2973(16) 0.066(4) Uani 1 1 d . . . . .
H38 H 0.4542 0.3115 0.2372 0.099 Uiso 1 1 calc R U . . .
H39 H 0.4653 0.3039 0.3684 0.099 Uiso 1 1 calc R U . . .
H40 H 0.4655 0.3305 0.3274 0.099 Uiso 1 1 calc R U . . .
C55 C 0.5098(3) 0.3157(2) 0.3257(14) 0.062(4) Uani 1 1 d . . . . .
H41 H 0.5246 0.3134 0.2835 0.092 Uiso 1 1 calc R U . . .
H42 H 0.5087 0.3317 0.3559 0.092 Uiso 1 1 calc R U . . .
H43 H 0.5085 0.3051 0.3969 0.092 Uiso 1 1 calc R U . . .
C56 C 0.4921(3) 0.2856(2) 0.1898(15) 0.059(4) Uani 1 1 d . . . . .
H44 H 0.5070 0.2833 0.1487 0.088 Uiso 1 1 calc R U . . .
H45 H 0.4909 0.2754 0.2627 0.088 Uiso 1 1 calc R U . . .
H46 H 0.4796 0.2821 0.1306 0.088 Uiso 1 1 calc R U . . .
C57 C 0.50135(19) 0.32881(18) -0.2327(11) 0.032(2) Uani 1 1 d . . . . .
C58 C 0.5264(2) 0.3200(3) -0.2442(15) 0.070(5) Uani 1 1 d . . . . .
H47 H 0.5291 0.3079 -0.1818 0.105 Uiso 1 1 calc R U . . .
H48 H 0.5289 0.3137 -0.3285 0.105 Uiso 1 1 calc R U . . .
H49 H 0.5371 0.3328 -0.2297 0.105 Uiso 1 1 calc R U . . .
C59 C 0.4849(3) 0.3090(3) -0.2632(15) 0.067(4) Uani 1 1 d . . . . .
H50 H 0.4875 0.2963 -0.2043 0.100 Uiso 1 1 calc R U . . .
H51 H 0.4689 0.3145 -0.2559 0.100 Uiso 1 1 calc R U . . .
H52 H 0.4877 0.3037 -0.3489 0.100 Uiso 1 1 calc R U . . .
C60 C 0.4963(4) 0.3473(3) -0.3259(14) 0.088(7) Uani 1 1 d . . . . .
H53 H 0.5065 0.3605 -0.3105 0.131 Uiso 1 1 calc R U . . .
H54 H 0.4990 0.3414 -0.4108 0.131 Uiso 1 1 calc R U . . .
H55 H 0.4802 0.3522 -0.3177 0.131 Uiso 1 1 calc R U . . .
C61 C 0.41578(15) 0.44987(14) 0.2601(9) 0.0155(19) Uani 1 1 d . . . . .
C62 C 0.41064(16) 0.44793(14) 0.3869(9) 0.019(2) Uani 1 1 d . . . . .
H17 H 0.4228 0.4462 0.4461 0.022 Uiso 1 1 calc R U . . .
C63 C 0.38750(16) 0.44856(16) 0.4282(9) 0.021(2) Uani 1 1 d . . . . .
C64 C 0.37082(15) 0.45066(15) 0.3362(9) 0.019(2) Uani 1 1 d . . . . .
H18 H 0.3552 0.4512 0.3622 0.022 Uiso 1 1 calc R U . . .
C65 C 0.37532(15) 0.45202(15) 0.2086(9) 0.0170(19) Uani 1 1 d . . . . .
C66 C 0.39913(15) 0.45178(14) 0.1738(9) 0.0164(19) Uani 1 1 d . . . . .
H19 H 0.4032 0.4530 0.0877 0.020 Uiso 1 1 calc R U . . .
C67 C 0.38213(18) 0.44674(19) 0.5665(10) 0.030(2) Uani 1 1 d . . . . .
C68 C 0.3896(2) 0.4226(2) 0.6139(11) 0.039(3) Uani 1 1 d . . . . .
H56 H 0.3862 0.4213 0.7036 0.058 Uiso 1 1 calc R U . . .
H57 H 0.3811 0.4107 0.5678 0.058 Uiso 1 1 calc R U . . .
H58 H 0.4062 0.4206 0.6003 0.058 Uiso 1 1 calc R U . . .
C69 C 0.35655(18) 0.4501(2) 0.5966(11) 0.034(3) Uani 1 1 d . . . . .
H59 H 0.3542 0.4487 0.6873 0.051 Uiso 1 1 calc R U . . .
H60 H 0.3516 0.4654 0.5685 0.051 Uiso 1 1 calc R U . . .
H61 H 0.3475 0.4382 0.5533 0.051 Uiso 1 1 calc R U . . .
C70 C 0.3962(2) 0.4648(2) 0.6381(11) 0.041(3) Uani 1 1 d . . . . .
H62 H 0.3927 0.4637 0.7279 0.062 Uiso 1 1 calc R U . . .
H63 H 0.4127 0.4620 0.6244 0.062 Uiso 1 1 calc R U . . .
H64 H 0.3921 0.4802 0.6079 0.062 Uiso 1 1 calc R U . . .
C71 C 0.35589(15) 0.45498(16) 0.1139(9) 0.0187(19) Uani 1 1 d . . . . .
C72 C 0.3433(2) 0.4779(2) 0.1413(12) 0.040(3) Uani 1 1 d . . . . .
H65 H 0.3540 0.4908 0.1304 0.060 Uiso 1 1 calc R U . . .
H66 H 0.3303 0.4797 0.0832 0.060 Uiso 1 1 calc R U . . .
H67 H 0.3375 0.4778 0.2277 0.060 Uiso 1 1 calc R U . . .
C73 C 0.33874(18) 0.43562(19) 0.1317(10) 0.030(2) Uani 1 1 d . . . . .
H68 H 0.3261 0.4373 0.0712 0.045 Uiso 1 1 calc R U . . .
H69 H 0.3465 0.4208 0.1184 0.045 Uiso 1 1 calc R U . . .
H70 H 0.3325 0.4362 0.2171 0.045 Uiso 1 1 calc R U . . .
C74 C 0.36412(18) 0.4545(2) -0.0226(10) 0.032(3) Uani 1 1 d . . . . .
H71 H 0.3753 0.4670 -0.0362 0.049 Uiso 1 1 calc R U . . .
H72 H 0.3715 0.4396 -0.0402 0.049 Uiso 1 1 calc R U . . .
H73 H 0.3509 0.4566 -0.0786 0.049 Uiso 1 1 calc R U . . .
C75 C 0.5433(3) 0.4980(5) 0.4413(18) 0.100(9) Uani 1 1 d . . . . .
H74 H 0.5598 0.4994 0.4227 0.151 Uiso 1 1 calc R U . . .
H75 H 0.5343 0.5057 0.3754 0.151 Uiso 1 1 calc R U . . .
H76 H 0.5400 0.5053 0.5223 0.151 Uiso 1 1 calc R U . . .
C76 C 0.5377(3) 0.4768(5) 0.4458(15) 0.095(8) Uani 1 1 d . . . . .
H77 H 0.5474 0.4693 0.5104 0.114 Uiso 1 1 calc R U . . .
H78 H 0.5418 0.4697 0.3642 0.114 Uiso 1 1 calc R U . . .
C77 C 0.5130(3) 0.4709(3) 0.4733(13) 0.069(5) Uani 1 1 d . . . . .
H79 H 0.5033 0.4795 0.4135 0.083 Uiso 1 1 calc R U . . .
H80 H 0.5094 0.4767 0.5582 0.083 Uiso 1 1 calc R U . . .
C78 C 0.5053(5) 0.4446(3) 0.4681(13) 0.108(10) Uani 1 1 d . . . . .
H81 H 0.5081 0.4384 0.3829 0.129 Uiso 1 1 calc R U . . .
H82 H 0.5146 0.4355 0.5279 0.129 Uiso 1 1 calc R U . . .
C79 C 0.4797(4) 0.4420(4) 0.5007(17) 0.094(6) Uani 1 1 d . . . . .
H83 H 0.4703 0.4510 0.4411 0.113 Uiso 1 1 calc R U . . .
H84 H 0.4768 0.4480 0.5862 0.113 Uiso 1 1 calc R U . . .
C80 C 0.4716(3) 0.4123(5) 0.4930(16) 0.106(8) Uani 1 1 d . . . . .
H85 H 0.4552 0.4108 0.5140 0.158 Uiso 1 1 calc R U . . .
H86 H 0.4743 0.4065 0.4080 0.158 Uiso 1 1 calc R U . . .
H87 H 0.4809 0.4034 0.5528 0.158 Uiso 1 1 calc R U . . .
C81 C 0.7095(3) 0.9745(2) 0.2502(15) 0.057(4) Uani 1 1 d . . . . .
H88 H 0.7104 0.9650 0.3259 0.085 Uiso 1 1 calc R U . . .
H89 H 0.7218 0.9862 0.2523 0.085 Uiso 1 1 calc R U . . .
H90 H 0.6945 0.9822 0.2466 0.085 Uiso 1 1 calc R U . . .
C82 C 0.7126(2) 0.9591(2) 0.1330(13) 0.045(3) Uani 1 1 d . . . . .
H91 H 0.7277 0.9512 0.1388 0.053 Uiso 1 1 calc R U . . .
H92 H 0.7004 0.9472 0.1330 0.053 Uiso 1 1 calc R U . . .
C83 C 0.7116(2) 0.9723(2) 0.0092(13) 0.047(3) Uani 1 1 d . . . . .
H93 H 0.6970 0.9812 0.0067 0.056 Uiso 1 1 calc R U . . .
H94 H 0.7245 0.9835 0.0071 0.056 Uiso 1 1 calc R U . . .
C84 C 0.7129(2) 0.9574(2) -0.1070(14) 0.049(3) Uani 1 1 d . . . . .
H95 H 0.7262 0.9469 -0.0987 0.058 Uiso 1 1 calc R U . . .
H96 H 0.6988 0.9478 -0.1111 0.058 Uiso 1 1 calc R U . . .
C85 C 0.7151(3) 0.9704(3) -0.2276(14) 0.058(4) Uani 1 1 d . . . . .
H97 H 0.7023 0.9816 -0.2339 0.070 Uiso 1 1 calc R U . . .
H98 H 0.7297 0.9793 -0.2258 0.070 Uiso 1 1 calc R U . . .
C86 C 0.7150(3) 0.9555(3) -0.3416(18) 0.079(5) Uani 1 1 d . . . . .
H99 H 0.7166 0.9651 -0.4165 0.118 Uiso 1 1 calc R U . . .
H100 H 0.7280 0.9446 -0.3375 0.118 Uiso 1 1 calc R U . . .
H101 H 0.7005 0.9469 -0.3456 0.118 Uiso 1 1 calc R U . . .
N1 N 0.47495(12) 0.47518(12) 0.1797(7) 0.0139(15) Uani 1 1 d . . . . .
N2 N 0.52211(11) 0.47449(12) 0.1277(7) 0.0125(15) Uani 1 1 d . . . . .
N3 N 0.52012(12) 0.42729(12) 0.1004(7) 0.0163(16) Uani 1 1 d . . . . .
N4 N 0.47373(12) 0.42761(12) 0.1508(7) 0.0150(15) Uani 1 1 d . . . . .
N5 N 0.50003(13) 0.53406(12) 0.1688(7) 0.0154(16) Uani 1 1 d . . . . .
O1 O 0.50183(10) 0.58281(10) 0.1918(6) 0.0192(14) Uani 1 1 d . . . . .
Ni1 Ni 0.49768(2) 0.45108(2) 0.13998(14) 0.0122(3) Uani 1 1 d . . . . .
Sb1 Sb 0.40054(2) 0.65532(2) 0.06082(8) 0.0326(2) Uani 1 1 d . . . . .
Cl1 Cl 0.39193(4) 0.62430(5) -0.0764(3) 0.0401(7) Uani 1 1 d . . . . .
Cl2 Cl 0.42331(4) 0.63028(4) 0.1856(3) 0.0381(7) Uani 1 1 d . . . . .
Cl3 Cl 0.43339(5) 0.66490(4) -0.0597(3) 0.0447(8) Uani 1 1 d . . . . .
Cl4 Cl 0.40839(5) 0.68615(5) 0.1990(3) 0.0463(8) Uani 1 1 d . . . . .
Cl5 Cl 0.37748(5) 0.67974(5) -0.0650(3) 0.0490(8) Uani 1 1 d . . . . .
Cl6 Cl 0.36761(4) 0.64514(5) 0.1833(3) 0.0392(7) Uani 1 1 d . . . . .
Cl7 Cl 0.41402(3) 0.50066(4) 0.2838(2) 0.0206(5) Uani 1 1 d . . . . .
Cl8 Cl 0.58551(3) 0.49746(4) 0.0618(2) 0.0213(5) Uani 1 1 d . . . . .
Cl9 Cl 0.1301(6) 0.3652(6) 0.052(3) 0.42(2) Uiso 0.765(18) 1 d D . P A 1
Cl10 Cl 0.0564(7) 0.3768(7) 0.079(4) 0.50(3) Uiso 0.765(18) 1 d D . P A 1
C87 C 0.0946(5) 0.3772(8) 0.062(4) 0.145(14) Uiso 0.765(18) 1 d D . P A 1
Cl11 Cl 0.0244(6) 0.3835(6) 0.082(4) 0.150(16) Uiso 0.235(18) 1 d D . P A 2
Cl12 Cl 0.0834(11) 0.3613(10) 0.064(6) 0.22(3) Uiso 0.235(18) 1 d D . P A 2
C88 C 0.0660(12) 0.405(2) 0.066(12) 0.13(4) Uiso 0.235(18) 1 d D . P A 2
loop_
_atom_site_aniso_label
_atom_site_aniso_U_11
_atom_site_aniso_U_22
_atom_site_aniso_U_33
_atom_site_aniso_U_23
_atom_site_aniso_U_13
_atom_site_aniso_U_12
C1 0.013(4) 0.016(4) 0.011(4) 0.001(3) -0.001(3) 0.001(3)
C2 0.014(4) 0.014(4) 0.015(5) -0.003(4) 0.001(4) -0.001(3)
C3 0.011(4) 0.019(4) 0.011(4) -0.002(4) -0.003(3) 0.003(3)
C4 0.009(4) 0.015(4) 0.015(5) 0.000(4) -0.001(3) 0.000(3)
C5 0.019(5) 0.013(4) 0.012(4) -0.003(3) -0.002(4) 0.001(4)
C6 0.010(4) 0.017(4) 0.017(5) 0.002(4) -0.001(4) 0.001(3)
C7 0.014(4) 0.011(4) 0.016(4) 0.004(3) -0.006(4) -0.003(3)
C8 0.005(4) 0.023(5) 0.017(5) -0.002(4) 0.000(3) -0.003(3)
C9 0.013(4) 0.019(5) 0.012(4) 0.001(4) 0.001(3) 0.002(4)
C10 0.014(4) 0.019(5) 0.016(5) -0.006(4) 0.003(4) 0.006(4)
C11 0.007(4) 0.018(5) 0.025(5) 0.000(4) 0.001(4) 0.004(3)
C12 0.016(5) 0.017(5) 0.038(6) -0.001(4) 0.008(4) 0.007(4)
C13 0.030(5) 0.010(4) 0.032(6) -0.001(4) 0.006(4) 0.001(4)
C14 0.020(5) 0.016(5) 0.026(5) -0.001(4) 0.006(4) 0.004(4)
C15 0.023(5) 0.015(4) 0.017(5) 0.001(4) 0.003(4) -0.003(4)
C16 0.014(4) 0.019(5) 0.025(5) -0.001(4) -0.004(4) 0.004(4)
C17 0.022(5) 0.016(5) 0.035(6) 0.000(4) 0.002(4) -0.009(4)
C18 0.012(4) 0.010(4) 0.044(6) 0.006(4) -0.003(4) -0.004(4)
C19 0.015(4) 0.016(5) 0.022(5) 0.002(4) 0.000(4) -0.002(4)
C20 0.007(4) 0.021(5) 0.014(4) 0.002(4) 0.002(3) 0.003(3)
C21 0.024(5) 0.014(4) 0.016(5) 0.005(4) -0.004(4) 0.004(4)
C22 0.013(4) 0.019(5) 0.030(5) 0.000(4) -0.002(4) 0.003(4)
C23 0.020(5) 0.018(5) 0.030(5) 0.001(4) 0.001(4) 0.010(4)
C24 0.022(5) 0.011(4) 0.029(5) -0.003(4) -0.002(4) 0.007(4)
C25 0.018(4) 0.018(4) 0.020(5) -0.001(4) -0.001(4) 0.001(4)
C26 0.009(4) 0.007(4) 0.022(5) -0.005(3) -0.006(3) -0.004(3)
C27 0.013(4) 0.018(4) 0.014(4) 0.001(4) -0.010(4) -0.001(3)
C28 0.018(4) 0.016(4) 0.015(5) 0.003(4) -0.001(4) -0.004(4)
C29 0.018(5) 0.018(5) 0.020(5) 0.000(4) -0.003(4) 0.002(4)
C30 0.024(5) 0.010(4) 0.027(5) 0.001(4) -0.001(4) -0.005(4)
C31 0.022(5) 0.024(5) 0.029(6) 0.003(4) -0.008(4) -0.010(4)
C32 0.011(4) 0.021(5) 0.024(5) 0.002(4) -0.002(4) 0.002(4)
C33 0.006(4) 0.016(4) 0.029(5) 0.004(4) 0.002(4) 0.000(3)
C34 0.014(5) 0.023(5) 0.032(6) 0.009(4) 0.008(4) 0.009(4)
C35 0.015(5) 0.029(5) 0.033(6) -0.002(5) -0.011(4) 0.007(4)
C36 0.015(5) 0.021(5) 0.041(6) 0.002(5) 0.003(4) 0.013(4)
C37 0.009(4) 0.016(4) 0.036(6) 0.002(4) -0.002(4) 0.003(3)
C38 0.020(5) 0.010(4) 0.030(6) -0.001(4) 0.001(4) 0.004(4)
C39 0.022(6) 0.060(8) 0.052(8) -0.014(7) -0.008(5) 0.020(5)
C40 0.042(7) 0.063(9) 0.066(10) -0.027(8) 0.002(7) -0.018(7)
C41 0.072(10) 0.107(13) 0.032(7) -0.001(8) -0.025(7) 0.037(10)
C42 0.028(6) 0.082(10) 0.034(7) -0.013(7) -0.005(5) 0.006(6)
C43 0.017(5) 0.016(5) 0.032(6) 0.000(4) 0.002(4) 0.007(4)
C44 0.032(6) 0.024(5) 0.044(7) 0.011(5) 0.008(5) 0.000(4)
C45 0.014(5) 0.032(6) 0.041(6) -0.001(5) 0.000(4) 0.007(4)
C46 0.027(5) 0.036(6) 0.035(6) -0.004(5) 0.005(5) -0.005(5)
C47 0.011(4) 0.015(5) 0.037(6) -0.004(4) 0.003(4) -0.001(3)
C48 0.027(5) 0.020(5) 0.029(6) -0.006(4) -0.001(4) -0.008(4)
C49 0.030(6) 0.029(6) 0.031(6) -0.003(5) -0.010(5) 0.005(4)
C50 0.028(5) 0.014(5) 0.039(6) -0.004(4) -0.005(5) 0.000(4)
C51 0.013(4) 0.019(5) 0.039(6) -0.008(4) 0.001(4) 0.003(4)
C52 0.019(5) 0.012(4) 0.029(5) 0.001(4) -0.002(4) -0.003(4)
C53 0.057(8) 0.019(5) 0.039(7) 0.004(5) 0.002(6) 0.001(5)
C54 0.083(11) 0.033(7) 0.082(11) 0.023(7) 0.014(9) -0.002(7)
C55 0.096(12) 0.041(8) 0.048(8) 0.013(6) -0.019(8) 0.001(8)
C56 0.082(10) 0.025(6) 0.069(10) 0.013(6) 0.006(8) -0.005(6)
C57 0.040(6) 0.023(5) 0.032(6) -0.008(5) 0.006(5) -0.002(5)
C58 0.044(8) 0.112(14) 0.055(9) -0.044(9) 0.007(7) 0.014(8)
C59 0.066(10) 0.085(11) 0.050(9) -0.030(8) -0.006(8) -0.022(9)
C60 0.18(2) 0.050(9) 0.032(8) -0.017(7) -0.017(10) 0.020(11)
C61 0.014(4) 0.010(4) 0.022(5) 0.001(4) 0.007(4) -0.005(3)
C62 0.022(5) 0.010(4) 0.024(5) -0.001(4) 0.003(4) 0.003(4)
C63 0.019(5) 0.023(5) 0.021(5) -0.001(4) 0.000(4) -0.006(4)
C64 0.011(4) 0.018(5) 0.027(5) 0.002(4) 0.003(4) -0.004(4)
C65 0.016(4) 0.011(4) 0.024(5) -0.002(4) 0.001(4) -0.003(3)
C66 0.021(5) 0.009(4) 0.019(5) 0.002(4) 0.004(4) 0.009(4)
C67 0.025(5) 0.038(6) 0.026(6) 0.003(5) 0.004(4) -0.008(5)
C68 0.037(6) 0.049(7) 0.032(6) 0.017(5) 0.002(5) -0.001(5)
C69 0.026(6) 0.047(7) 0.030(6) 0.001(5) 0.015(5) -0.006(5)
C70 0.031(6) 0.060(8) 0.032(6) -0.013(6) 0.009(5) -0.010(6)
C71 0.015(4) 0.028(5) 0.013(5) 0.003(4) -0.002(4) 0.000(4)
C72 0.037(6) 0.046(7) 0.037(7) -0.002(6) -0.020(5) 0.006(5)
C73 0.027(5) 0.037(6) 0.026(6) -0.001(5) -0.005(4) -0.014(5)
C74 0.024(5) 0.049(7) 0.024(6) 0.005(5) 0.002(4) -0.008(5)
C75 0.049(10) 0.20(3) 0.048(11) 0.039(14) -0.011(8) -0.035(14)
C76 0.042(9) 0.22(3) 0.023(8) 0.025(12) 0.008(7) 0.035(13)
C77 0.080(11) 0.102(13) 0.025(7) -0.009(7) -0.010(7) 0.058(10)
C78 0.20(3) 0.109(15) 0.012(7) -0.004(8) -0.023(10) 0.104(17)
C79 0.14(2) 0.104(16) 0.042(10) 0.011(10) -0.009(11) 0.005(14)
C80 0.066(11) 0.21(3) 0.041(9) 0.030(13) -0.011(8) 0.010(14)
C81 0.054(8) 0.046(8) 0.071(10) 0.008(7) 0.001(8) -0.010(6)
C82 0.031(6) 0.037(7) 0.065(9) 0.007(6) 0.001(6) 0.002(5)
C83 0.050(8) 0.036(7) 0.055(8) -0.001(6) -0.004(6) 0.000(6)
C84 0.045(7) 0.034(7) 0.067(9) 0.000(6) 0.015(7) -0.004(6)
C85 0.072(10) 0.053(8) 0.050(9) 0.006(7) 0.003(7) -0.006(7)
C86 0.077(12) 0.075(11) 0.084(13) -0.005(10) 0.019(10) -0.012(9)
N1 0.014(4) 0.012(4) 0.016(4) 0.000(3) -0.004(3) 0.001(3)
N2 0.006(3) 0.013(4) 0.018(4) -0.005(3) 0.000(3) -0.001(3)
N3 0.012(4) 0.015(4) 0.022(4) 0.003(3) 0.003(3) -0.003(3)
N4 0.016(4) 0.011(4) 0.018(4) -0.003(3) 0.001(3) -0.003(3)
N5 0.019(4) 0.013(4) 0.015(4) -0.001(3) -0.003(3) -0.002(3)
O1 0.015(3) 0.008(3) 0.035(4) -0.001(3) 0.001(3) 0.002(2)
Ni1 0.0082(7) 0.0113(7) 0.0170(8) -0.0005(6) 0.0013(6) 0.0002(5)
Sb1 0.0212(4) 0.0178(3) 0.0588(5) 0.0018(3) 0.0099(3) 0.0080(3)
Cl1 0.0258(13) 0.0301(13) 0.0643(19) -0.0044(13) 0.0005(13) 0.0089(10)
Cl2 0.0242(12) 0.0231(12) 0.067(2) 0.0003(12) -0.0002(13) 0.0076(10)
Cl3 0.0335(14) 0.0242(13) 0.076(2) -0.0017(13) 0.0231(14) 0.0051(11)
Cl4 0.0392(15) 0.0232(13) 0.076(2) -0.0096(14) 0.0193(15) 0.0034(11)
Cl5 0.0415(16) 0.0368(15) 0.069(2) 0.0138(15) 0.0145(15) 0.0237(13)
Cl6 0.0211(12) 0.0352(14) 0.0614(19) 0.0065(13) 0.0093(12) 0.0093(10)
Cl7 0.0098(10) 0.0199(11) 0.0319(13) -0.0025(9) 0.0056(9) 0.0028(8)
Cl8 0.0098(10) 0.0201(11) 0.0339(13) -0.0002(9) 0.0029(9) -0.0021(8)
loop_
_atom_type_symbol
_atom_type_description
_atom_type_scat_dispersion_real
_atom_type_scat_dispersion_imag
_atom_type_scat_source
C C 0.0181 0.0091 'International Tables Vol C Tables 4.2.6.8 and 6.1.1.4'
H H 0.0000 0.0000 'International Tables Vol C Tables 4.2.6.8 and 6.1.1.4'
N N 0.0311 0.0180 'International Tables Vol C Tables 4.2.6.8 and 6.1.1.4'
Ni Ni -3.0029 0.5091 'International Tables Vol C Tables 4.2.6.8 and 6.1.1.4'
O O 0.0492 0.0322 'International Tables Vol C Tables 4.2.6.8 and 6.1.1.4'
Cl Cl 0.3639 0.7018 'International Tables Vol C Tables 4.2.6.8 and 6.1.1.4'
Sb Sb -0.0562 5.8946 'International Tables Vol C Tables 4.2.6.8 and 6.1.1.4'
loop_
_geom_angle_atom_site_label_1
_geom_angle_atom_site_label_2
_geom_angle_atom_site_label_3
_geom_angle
C20 C1 N1 124.3(8)
C20 C1 C2 126.0(8)
N1 C1 C2 109.6(7)
C3 C2 C1 108.5(7)
C3 C2 Cl7 123.8(7)
C1 C2 Cl7 127.7(7)
C2 C3 C21 135.1(8)
C2 C3 C4 104.9(8)
C21 C3 C4 119.9(8)
C5 C4 N1 126.5(8)
C5 C4 C3 121.4(8)
N1 C4 C3 112.2(7)
C4 C5 C6 122.4(8)
C4 C5 N5 118.7(8)
C6 C5 N5 118.9(8)
N2 C6 C5 126.1(8)
N2 C6 C7 112.1(7)
C5 C6 C7 121.8(8)
C8 C7 C6 105.9(7)
C8 C7 C27 134.3(8)
C6 C7 C27 119.5(8)
C7 C8 C9 107.5(7)
C7 C8 Cl8 125.3(7)
C9 C8 Cl8 126.8(7)
N2 C9 C10 123.6(8)
N2 C9 C8 110.4(7)
C10 C9 C8 126.0(8)
C11 C10 C9 122.4(8)
C11 C10 C33 118.1(8)
C9 C10 C33 119.5(8)
C10 C11 N3 126.1(8)
C10 C11 C12 123.6(8)
N3 C11 C12 110.2(8)
C13 C12 C11 107.1(8)
C12 C13 C14 107.4(8)
N3 C14 C15 125.2(8)
N3 C14 C13 111.6(8)
C15 C14 C13 122.7(8)
C16 C15 C14 121.8(8)
C16 C15 C47 120.2(8)
C14 C15 C47 118.0(8)
C15 C16 N4 126.2(8)
C15 C16 C17 123.1(9)
N4 C16 C17 110.5(8)
C18 C17 C16 106.9(8)
C17 C18 C19 107.4(8)
C20 C19 N4 126.9(8)
C20 C19 C18 122.8(8)
N4 C19 C18 110.3(8)
C19 C20 C1 122.7(8)
C19 C20 C61 116.0(8)
C1 C20 C61 121.3(8)
C26 C21 C22 116.7(8)
C26 C21 C3 118.3(8)
C22 C21 C3 125.0(9)
C23 C22 C21 122.5(9)
C22 C23 C24 120.1(9)
C23 C24 C25 119.9(8)
O1 C25 C24 116.4(8)
O1 C25 C26 123.6(8)
C24 C25 C26 120.0(8)
C21 C26 C25 120.7(8)
C21 C26 N5 120.9(7)
C25 C26 N5 118.3(7)
C28 C27 C32 118.8(8)
C28 C27 C7 117.5(8)
C32 C27 C7 123.7(8)
C27 C28 C29 119.1(8)
C27 C28 N5 121.8(8)
C29 C28 N5 119.1(8)
O1 C29 C30 116.3(8)
O1 C29 C28 122.6(8)
C30 C29 C28 121.1(8)
C31 C30 C29 119.0(8)
C32 C31 C30 121.3(9)
C31 C32 C27 120.6(9)
C34 C33 C38 120.5(8)
C34 C33 C10 118.8(8)
C38 C33 C10 120.7(9)
C33 C34 C35 122.3(9)
C36 C35 C34 114.9(9)
C36 C35 C39 119.4(9)
C34 C35 C39 125.6(10)
C35 C36 C37 124.5(9)
C38 C37 C36 116.4(9)
C38 C37 C43 122.4(9)
C36 C37 C43 121.1(8)
C33 C38 C37 121.3(9)
C41 C39 C35 110.8(11)
C41 C39 C42 108.6(12)
C35 C39 C42 111.4(9)
C41 C39 C40 110.1(12)
C35 C39 C40 108.5(11)
C42 C39 C40 107.4(11)
C37 C43 C46 112.5(8)
C37 C43 C45 110.0(8)
C46 C43 C45 107.6(8)
C37 C43 C44 108.8(8)
C46 C43 C44 108.0(9)
C45 C43 C44 109.8(8)
C48 C47 C52 120.0(9)
C48 C47 C15 121.1(9)
C52 C47 C15 118.7(8)
C49 C48 C47 121.3(10)
C48 C49 C50 119.1(10)
C48 C49 C53 119.5(10)
C50 C49 C53 121.3(9)
C49 C50 C51 121.4(9)
C52 C51 C50 118.0(9)
C52 C51 C57 121.9(9)
C50 C51 C57 120.1(9)
C51 C52 C47 120.1(9)
C54 C53 C55 110.3(12)
C54 C53 C56 109.1(11)
C55 C53 C56 107.7(11)
C54 C53 C49 109.1(10)
C55 C53 C49 107.3(10)
C56 C53 C49 113.3(10)
C60 C57 C59 106.1(13)
C60 C57 C51 111.6(9)
C59 C57 C51 111.3(10)
C60 C57 C58 111.6(14)
C59 C57 C58 108.8(11)
C51 C57 C58 107.4(10)
C66 C61 C62 121.4(8)
C66 C61 C20 119.1(8)
C62 C61 C20 119.3(8)
C61 C62 C63 120.3(9)
C64 C63 C62 116.4(9)
C64 C63 C67 123.7(9)
C62 C63 C67 119.9(9)
C63 C64 C65 124.7(9)
C64 C65 C66 115.8(8)
C64 C65 C71 121.2(8)
C66 C65 C71 122.9(8)
C61 C66 C65 121.2(9)
C63 C67 C69 113.3(9)
C63 C67 C70 109.3(9)
C69 C67 C70 108.9(9)
C63 C67 C68 108.9(9)
C69 C67 C68 108.4(9)
C70 C67 C68 107.8(10)
C73 C71 C65 108.6(8)
C73 C71 C74 108.1(8)
C65 C71 C74 113.5(8)
C73 C71 C72 107.7(8)
C65 C71 C72 108.7(8)
C74 C71 C72 110.1(9)
C75 C76 C77 118(2)
C76 C77 C78 118.9(17)
C79 C78 C77 111.2(14)
C78 C79 C80 109.9(18)
C83 C82 C81 114.0(10)
C84 C83 C82 115.0(10)
C85 C84 C83 115.1(11)
C86 C85 C84 114.2(13)
C4 N1 C1 104.7(7)
C4 N1 Ni1 126.9(6)
C1 N1 Ni1 128.3(6)
C6 N2 C9 103.9(7)
C6 N2 Ni1 127.4(6)
C9 N2 Ni1 128.6(6)
C14 N3 C11 103.5(7)
C14 N3 Ni1 128.5(6)
C11 N3 Ni1 127.7(6)
C16 N4 C19 104.8(7)
C16 N4 Ni1 128.0(6)
C19 N4 Ni1 127.1(6)
C5 N5 C28 120.6(7)
C5 N5 C26 120.9(7)
C28 N5 C26 118.4(7)
C25 O1 C29 118.0(7)
N3 Ni1 N4 89.7(3)
N3 Ni1 N2 89.6(3)
N4 Ni1 N2 179.2(3)
N3 Ni1 N1 179.9(4)
N4 Ni1 N1 90.3(3)
N2 Ni1 N1 90.4(3)
Cl4 Sb1 Cl3 90.38(11)
Cl4 Sb1 Cl5 90.60(12)
Cl3 Sb1 Cl5 90.35(11)
Cl4 Sb1 Cl2 90.32(11)
Cl3 Sb1 Cl2 90.02(11)
Cl5 Sb1 Cl2 179.01(12)
Cl4 Sb1 Cl1 178.91(10)
Cl3 Sb1 Cl1 90.68(11)
Cl5 Sb1 Cl1 89.13(11)
Cl2 Sb1 Cl1 89.95(10)
Cl4 Sb1 Cl6 89.96(11)
Cl3 Sb1 Cl6 179.18(10)
Cl5 Sb1 Cl6 90.39(10)
Cl2 Sb1 Cl6 89.23(10)
Cl1 Sb1 Cl6 88.98(11)
Cl9 C87 Cl10 161(3)
loop_
_geom_bond_atom_site_label_1
_geom_bond_atom_site_label_2
_geom_bond_distance
C1 C20 1.388(12)
C1 N1 1.396(11)
C1 C2 1.436(12)
C2 C3 1.383(12)
C2 Cl7 1.716(9)
C3 C21 1.419(13)
C3 C4 1.433(12)
C4 C5 1.379(12)
C4 N1 1.391(11)
C5 C6 1.392(12)
C5 N5 1.396(11)
C6 N2 1.379(11)
C6 C7 1.417(12)
C7 C8 1.366(12)
C7 C27 1.451(12)
C8 C9 1.422(12)
C8 Cl8 1.715(8)
C9 N2 1.392(11)
C9 C10 1.414(12)
C10 C11 1.371(13)
C10 C33 1.493(12)
C11 N3 1.390(11)
C11 C12 1.451(12)
C12 C13 1.313(14)
C13 C14 1.430(13)
C14 N3 1.373(12)
C14 C15 1.407(13)
C15 C16 1.366(13)
C15 C47 1.503(12)
C16 N4 1.376(12)
C16 C17 1.443(13)
C17 C18 1.340(14)
C18 C19 1.434(12)
C19 C20 1.386(13)
C19 N4 1.387(12)
C20 C61 1.497(11)
C21 C26 1.392(13)
C21 C22 1.410(13)
C22 C23 1.360(13)
C23 C24 1.374(14)
C24 C25 1.380(13)
C25 O1 1.365(11)
C25 C26 1.404(12)
C26 N5 1.427(11)
C27 C28 1.393(13)
C27 C32 1.406(12)
C28 C29 1.406(13)
C28 N5 1.422(11)
C29 O1 1.371(11)
C29 C30 1.382(13)
C30 C31 1.376(14)
C31 C32 1.367(13)
C33 C34 1.358(14)
C33 C38 1.387(13)
C34 C35 1.422(13)
C35 C36 1.401(15)
C35 C39 1.511(16)
C36 C37 1.405(15)
C37 C38 1.394(13)
C37 C43 1.532(14)
C39 C41 1.487(19)
C39 C42 1.549(17)
C39 C40 1.554(19)
C43 C46 1.534(15)
C43 C45 1.536(13)
C43 C44 1.547(13)
C47 C48 1.368(14)
C47 C52 1.403(14)
C48 C49 1.358(14)
C49 C50 1.394(16)
C49 C53 1.562(16)
C50 C51 1.397(15)
C51 C52 1.387(13)
C51 C57 1.533(15)
C53 C54 1.53(2)
C53 C55 1.533(19)
C53 C56 1.547(16)
C57 C60 1.490(19)
C57 C59 1.525(17)
C57 C58 1.542(17)
C61 C66 1.338(13)
C61 C62 1.390(14)
C62 C63 1.412(13)
C63 C64 1.382(14)
C63 C67 1.511(14)
C64 C65 1.387(14)
C65 C66 1.429(12)
C65 C71 1.523(13)
C67 C69 1.529(14)
C67 C70 1.529(16)
C67 C68 1.548(16)
C71 C73 1.511(13)
C71 C74 1.531(14)
C71 C72 1.544(15)
C75 C76 1.27(3)
C76 C77 1.50(2)
C77 C78 1.59(3)
C78 C79 1.53(3)
C79 C80 1.78(3)
C81 C82 1.55(2)
C82 C83 1.526(19)
C83 C84 1.511(19)
C84 C85 1.495(19)
C85 C86 1.49(2)
N1 Ni1 1.966(7)
N2 Ni1 1.965(7)
N3 Ni1 1.941(7)
N4 Ni1 1.946(7)
Sb1 Cl4 2.360(3)
Sb1 Cl3 2.363(3)
Sb1 Cl5 2.363(3)
Sb1 Cl2 2.370(3)
Sb1 Cl1 2.371(3)
Sb1 Cl6 2.386(3)
Cl9 C87 2.18(3)
Cl10 C87 2.22(3)
loop_
_geom_torsion_atom_site_label_1
_geom_torsion_atom_site_label_2
_geom_torsion_atom_site_label_3
_geom_torsion_atom_site_label_4
_geom_torsion
C20 C1 C2 C3 -178.0(9)
N1 C1 C2 C3 0.9(10)
C20 C1 C2 Cl7 3.9(14)
N1 C1 C2 Cl7 -177.3(7)
C1 C2 C3 C21 -178.4(10)
Cl7 C2 C3 C21 -0.1(15)
C1 C2 C3 C4 -1.4(10)
Cl7 C2 C3 C4 176.8(7)
C2 C3 C4 C5 -177.6(8)
C21 C3 C4 C5 0.0(13)
C2 C3 C4 N1 1.5(10)
C21 C3 C4 N1 179.1(8)
N1 C4 C5 C6 -1.6(14)
C3 C4 C5 C6 177.4(8)
N1 C4 C5 N5 -179.0(8)
C3 C4 C5 N5 0.0(13)
C4 C5 C6 N2 -0.9(15)
N5 C5 C6 N2 176.6(8)
C4 C5 C6 C7 -177.6(8)
N5 C5 C6 C7 -0.1(13)
N2 C6 C7 C8 -1.5(10)
C5 C6 C7 C8 175.7(8)
N2 C6 C7 C27 -175.8(8)
C5 C6 C7 C27 1.3(13)
C6 C7 C8 C9 -0.2(10)
C27 C7 C8 C9 172.9(10)
C6 C7 C8 Cl8 174.0(7)
C27 C7 C8 Cl8 -12.9(16)
C7 C8 C9 N2 1.8(10)
Cl8 C8 C9 N2 -172.3(7)
C7 C8 C9 C10 -176.1(9)
Cl8 C8 C9 C10 9.8(14)
N2 C9 C10 C11 12.3(14)
C8 C9 C10 C11 -170.1(9)
N2 C9 C10 C33 -165.4(8)
C8 C9 C10 C33 12.2(14)
C9 C10 C11 N3 -4.3(15)
C33 C10 C11 N3 173.4(9)
C9 C10 C11 C12 172.2(9)
C33 C10 C11 C12 -10.1(14)
C10 C11 C12 C13 -174.0(10)
N3 C11 C12 C13 2.9(12)
C11 C12 C13 C14 -2.8(12)
C12 C13 C14 N3 1.9(12)
C12 C13 C14 C15 -171.1(10)
N3 C14 C15 C16 -3.9(16)
C13 C14 C15 C16 168.3(10)
N3 C14 C15 C47 178.1(9)
C13 C14 C15 C47 -9.8(14)
C14 C15 C16 N4 1.3(16)
C47 C15 C16 N4 179.4(9)
C14 C15 C16 C17 -173.9(9)
C47 C15 C16 C17 4.1(15)
C15 C16 C17 C18 175.9(10)
N4 C16 C17 C18 0.1(12)
C16 C17 C18 C19 0.5(12)
C17 C18 C19 C20 176.2(9)
C17 C18 C19 N4 -0.9(12)
N4 C19 C20 C1 4.2(15)
C18 C19 C20 C1 -172.4(9)
N4 C19 C20 C61 -177.7(9)
C18 C19 C20 C61 5.7(13)
N1 C1 C20 C19 -4.1(14)
C2 C1 C20 C19 174.6(9)
N1 C1 C20 C61 177.9(8)
C2 C1 C20 C61 -3.4(14)
C2 C3 C21 C26 177.7(10)
C4 C3 C21 C26 1.1(13)
C2 C3 C21 C22 -3.5(17)
C4 C3 C21 C22 179.9(9)
C26 C21 C22 C23 -0.6(14)
C3 C21 C22 C23 -179.4(9)
C21 C22 C23 C24 -1.1(16)
C22 C23 C24 C25 0.1(15)
C23 C24 C25 O1 -178.9(9)
C23 C24 C25 C26 2.5(15)
C22 C21 C26 C25 3.2(13)
C3 C21 C26 C25 -177.9(8)
C22 C21 C26 N5 179.0(8)
C3 C21 C26 N5 -2.1(13)
O1 C25 C26 C21 177.3(8)
C24 C25 C26 C21 -4.2(14)
O1 C25 C26 N5 1.4(14)
C24 C25 C26 N5 179.8(8)
C8 C7 C27 C28 -173.7(10)
C6 C7 C27 C28 -1.4(12)
C8 C7 C27 C32 5.4(16)
C6 C7 C27 C32 177.8(9)
C32 C27 C28 C29 0.6(13)
C7 C27 C28 C29 179.8(8)
C32 C27 C28 N5 -179.0(8)
C7 C27 C28 N5 0.2(13)
C27 C28 C29 O1 -179.7(8)
N5 C28 C29 O1 -0.2(14)
C27 C28 C29 C30 -2.2(14)
N5 C28 C29 C30 177.4(9)
O1 C29 C30 C31 179.5(9)
C28 C29 C30 C31 1.9(15)
C29 C30 C31 C32 0.1(15)
C30 C31 C32 C27 -1.7(15)
C28 C27 C32 C31 1.3(14)
C7 C27 C32 C31 -177.8(9)
C11 C10 C33 C34 -107.5(10)
C9 C10 C33 C34 70.3(12)
C11 C10 C33 C38 71.2(12)
C9 C10 C33 C38 -111.0(10)
C38 C33 C34 C35 2.9(14)
C10 C33 C34 C35 -178.4(9)
C33 C34 C35 C36 -0.2(14)
C33 C34 C35 C39 179.0(10)
C34 C35 C36 C37 -1.5(15)
C39 C35 C36 C37 179.2(10)
C35 C36 C37 C38 0.6(14)
C35 C36 C37 C43 176.7(9)
C34 C33 C38 C37 -3.9(14)
C10 C33 C38 C37 177.4(8)
C36 C37 C38 C33 2.1(13)
C43 C37 C38 C33 -173.9(8)
C36 C35 C39 C41 -59.5(16)
C34 C35 C39 C41 121.3(13)
C36 C35 C39 C42 179.5(10)
C34 C35 C39 C42 0.3(17)
C36 C35 C39 C40 61.5(13)
C34 C35 C39 C40 -117.8(12)
C38 C37 C43 C46 -16.7(12)
C36 C37 C43 C46 167.4(9)
C38 C37 C43 C45 -136.7(9)
C36 C37 C43 C45 47.4(12)
C38 C37 C43 C44 102.9(10)
C36 C37 C43 C44 -73.0(11)
C16 C15 C47 C48 -72.4(13)
C14 C15 C47 C48 105.7(11)
C16 C15 C47 C52 112.0(10)
C14 C15 C47 C52 -69.9(12)
C52 C47 C48 C49 2.1(15)
C15 C47 C48 C49 -173.5(9)
C47 C48 C49 C50 -2.7(15)
C47 C48 C49 C53 177.9(10)
C48 C49 C50 C51 0.5(16)
C53 C49 C50 C51 179.8(10)
C49 C50 C51 C52 2.4(14)
C49 C50 C51 C57 -179.1(10)
C50 C51 C52 C47 -3.1(14)
C57 C51 C52 C47 178.5(9)
C48 C47 C52 C51 1.0(14)
C15 C47 C52 C51 176.7(8)
C48 C49 C53 C54 58.4(14)
C50 C49 C53 C54 -121.0(12)
C48 C49 C53 C55 -61.1(14)
C50 C49 C53 C55 119.5(12)
C48 C49 C53 C56 -179.9(11)
C50 C49 C53 C56 0.8(16)
C52 C51 C57 C60 -18.4(16)
C50 C51 C57 C60 163.2(13)
C52 C51 C57 C59 -136.7(11)
C50 C51 C57 C59 44.9(14)
C52 C51 C57 C58 104.2(12)
C50 C51 C57 C58 -74.2(13)
C19 C20 C61 C66 -90.0(10)
C1 C20 C61 C66 88.2(11)
C19 C20 C61 C62 94.0(10)
C1 C20 C61 C62 -87.8(11)
C66 C61 C62 C63 -1.7(13)
C20 C61 C62 C63 174.2(8)
C61 C62 C63 C64 1.4(13)
C61 C62 C63 C67 -179.2(9)
C62 C63 C64 C65 0.4(14)
C67 C63 C64 C65 -179.0(9)
C63 C64 C65 C66 -1.7(14)
C63 C64 C65 C71 -178.3(9)
C62 C61 C66 C65 0.3(13)
C20 C61 C66 C65 -175.6(8)
C64 C65 C66 C61 1.3(12)
C71 C65 C66 C61 177.9(8)
C64 C63 C67 C69 -6.2(14)
C62 C63 C67 C69 174.4(9)
C64 C63 C67 C70 -127.9(10)
C62 C63 C67 C70 52.7(13)
C64 C63 C67 C68 114.5(11)
C62 C63 C67 C68 -64.9(12)
C64 C65 C71 C73 -55.9(11)
C66 C65 C71 C73 127.8(9)
C64 C65 C71 C74 -176.1(9)
C66 C65 C71 C74 7.5(13)
C64 C65 C71 C72 61.1(11)
C66 C65 C71 C72 -115.3(10)
C75 C76 C77 C78 174.9(16)
C76 C77 C78 C79 179.1(13)
C77 C78 C79 C80 179.7(11)
C81 C82 C83 C84 -175.9(12)
C82 C83 C84 C85 -171.9(12)
C83 C84 C85 C86 -176.7(14)
C5 C4 N1 C1 178.1(9)
C3 C4 N1 C1 -1.0(10)
C5 C4 N1 Ni1 -1.2(13)
C3 C4 N1 Ni1 179.7(6)
C20 C1 N1 C4 179.0(8)
C2 C1 N1 C4 0.1(9)
C20 C1 N1 Ni1 -1.8(13)
C2 C1 N1 Ni1 179.3(6)
C5 C6 N2 C9 -174.5(9)
C7 C6 N2 C9 2.5(10)
C5 C6 N2 Ni1 5.8(13)
C7 C6 N2 Ni1 -177.1(6)
C10 C9 N2 C6 175.4(8)
C8 C9 N2 C6 -2.6(10)
C10 C9 N2 Ni1 -5.0(13)
C8 C9 N2 Ni1 177.0(6)
C15 C14 N3 C11 172.8(9)
C13 C14 N3 C11 -0.1(11)
C15 C14 N3 Ni1 -1.1(14)
C13 C14 N3 Ni1 -173.9(7)
C10 C11 N3 C14 175.2(10)
C12 C11 N3 C14 -1.7(10)
C10 C11 N3 Ni1 -10.8(14)
C12 C11 N3 Ni1 172.3(7)
C15 C16 N4 C19 -176.3(10)
C17 C16 N4 C19 -0.6(10)
C15 C16 N4 Ni1 6.0(14)
C17 C16 N4 Ni1 -178.3(7)
C20 C19 N4 C16 -176.1(9)
C18 C19 N4 C16 0.9(10)
C20 C19 N4 Ni1 1.7(14)
C18 C19 N4 Ni1 178.6(6)
C4 C5 N5 C28 176.5(8)
C6 C5 N5 C28 -1.0(12)
C4 C5 N5 C26 -1.0(12)
C6 C5 N5 C26 -178.5(8)
C27 C28 N5 C5 1.0(13)
C29 C28 N5 C5 -178.6(8)
C27 C28 N5 C26 178.5(8)
C29 C28 N5 C26 -1.0(12)
C21 C26 N5 C5 2.1(13)
C25 C26 N5 C5 178.0(8)
C21 C26 N5 C28 -175.5(8)
C25 C26 N5 C28 0.5(12)
C24 C25 O1 C29 178.9(8)
C26 C25 O1 C29 -2.6(13)
C30 C29 O1 C25 -175.7(8)
C28 C29 O1 C25 1.9(13)
