#------------------------------------------------------------------------------
#$Date: 2017-05-06 00:41:04 +0300 (Sat, 06 May 2017) $
#$Revision: 196314 $
#$URL: file:///home/coder/svn-repositories/cod/cif/1/54/37/1543756.cif $
#------------------------------------------------------------------------------
#
# This file is available in the Crystallography Open Database (COD),
# http://www.crystallography.net/
#
# All data on this site have been placed in the public domain by the
# contributors.
#
data_1543756
loop_
_publ_author_name
'Fukui, Norihito'
'Cha, Wonhee'
'Shimizu, Daiki'
'Oh, Juwon'
'Furukawa, Ko'
'Yorimitsu, Hideki'
'Kim, Dongho'
'Osuka, Atsuhiro'
_publ_section_title
;
 Highly planar diarylamine-fused porphyrins and their remarkably stable
 radical cations.
;
_journal_issue                   1
_journal_name_full               'Chemical science'
_journal_page_first              189
_journal_page_last               199
_journal_paper_doi               10.1039/c6sc02721k
_journal_volume                  8
_journal_year                    2017
_chemical_formula_sum            'C77 H77 Cl2.99 N6 Ni'
_chemical_formula_weight         1251.30
_chemical_name_systematic        2Ni
_space_group_crystal_system      monoclinic
_space_group_IT_number           15
_space_group_name_Hall           '-C 2yc'
_space_group_name_H-M_alt        'C 1 2/c 1'
_symmetry_space_group_name_Hall  '-C 2yc'
_symmetry_space_group_name_H-M   'C 1 2/c 1'
_atom_sites_solution_hydrogens   geom
_audit_creation_method           SHELXL-2014/7
_audit_update_record
;
2016-03-17 deposited with the CCDC.
2016-08-01 downloaded from the CCDC.
;
_cell_angle_alpha                90
_cell_angle_beta                 98.833(7)
_cell_angle_gamma                90
_cell_formula_units_Z            8
_cell_length_a                   36.653(7)
_cell_length_b                   21.504(4)
_cell_length_c                   17.115(3)
_cell_measurement_reflns_used    3878
_cell_measurement_temperature    93(2)
_cell_measurement_theta_max      68.2
_cell_measurement_theta_min      30.8
_cell_volume                     13330(4)
_computing_structure_refinement  'SHELXL-2014/7 (Sheldrick, 2014)'
_diffrn_ambient_temperature      93(2)
_diffrn_detector_area_resol_mean 5.8140
_diffrn_measured_fraction_theta_full 0.990
_diffrn_measured_fraction_theta_max 0.990
_diffrn_measurement_device_type  'Rigaku XtaLAB P200'
_diffrn_measurement_method       \w
_diffrn_radiation_type           CuK\a
_diffrn_radiation_wavelength     1.54187
_diffrn_reflns_av_R_equivalents  0.0537
_diffrn_reflns_av_unetI/netI     0.0369
_diffrn_reflns_Laue_measured_fraction_full 0.990
_diffrn_reflns_Laue_measured_fraction_max 0.990
_diffrn_reflns_limit_h_max       43
_diffrn_reflns_limit_h_min       -43
_diffrn_reflns_limit_k_max       25
_diffrn_reflns_limit_k_min       -23
_diffrn_reflns_limit_l_max       18
_diffrn_reflns_limit_l_min       -20
_diffrn_reflns_number            41836
_diffrn_reflns_point_group_measured_fraction_full 0.990
_diffrn_reflns_point_group_measured_fraction_max 0.990
_diffrn_reflns_theta_full        64.999
_diffrn_reflns_theta_max         64.999
_diffrn_reflns_theta_min         6.592
_diffrn_source                   'fine-focus sealed tube'
_exptl_absorpt_coefficient_mu    1.887
_exptl_absorpt_correction_T_max  1.000
_exptl_absorpt_correction_T_min  0.868
_exptl_absorpt_correction_type   multi-scan
_exptl_absorpt_process_details   'REQAB (Rigaku, 1998)'
_exptl_crystal_colour            Green
_exptl_crystal_density_diffrn    1.247
_exptl_crystal_description       Prism
_exptl_crystal_F_000             5279
_exptl_crystal_size_max          0.230
_exptl_crystal_size_mid          0.080
_exptl_crystal_size_min          0.020
_refine_diff_density_max         1.414
_refine_diff_density_min         -0.655
_refine_diff_density_rms         0.084
_refine_ls_extinction_method     none
_refine_ls_goodness_of_fit_ref   1.047
_refine_ls_hydrogen_treatment    constr
_refine_ls_matrix_type           full
_refine_ls_number_parameters     968
_refine_ls_number_reflns         11222
_refine_ls_number_restraints     423
_refine_ls_restrained_S_all      1.061
_refine_ls_R_factor_all          0.0969
_refine_ls_R_factor_gt           0.0768
_refine_ls_shift/su_max          0.007
_refine_ls_shift/su_mean         0.000
_refine_ls_structure_factor_coef Fsqd
_refine_ls_weighting_details
'w=1/[\s^2^(Fo^2^)+(0.1571P)^2^+32.6841P] where P=(Fo^2^+2Fc^2^)/3'
_refine_ls_weighting_scheme      calc
_refine_ls_wR_factor_gt          0.2260
_refine_ls_wR_factor_ref         0.2444
_reflns_Friedel_coverage         0.000
_reflns_number_gt                8478
_reflns_number_total             11222
_reflns_threshold_expression     'I > 2\s(I)'
_cod_data_source_file            c6sc02721k2.cif
_cod_data_source_block           50411FU
_cod_depositor_comments
;Adding full bibliography for 1543756--1543762.cif.

 Adding full bibliography for 1543756--1543762.cif.
;
_cod_database_code               1543756
_shelx_shelxl_version_number     2014/7
_shelx_space_group_comment
;
The symmetry employed for this shelxl refinement is uniquely defined
by the following loop, which should always be used as a source of
symmetry information in preference to the above space-group names.
They are only intended as comments.
;
_shelx_estimated_absorpt_t_min   0.671
_shelx_estimated_absorpt_t_max   0.963
_shelx_res_file
;

    50411FU.res created by SHELXL-2014/7

TITL
REM  Yadorkari-X generated
CELL 1.54187 36.6530 21.5040 17.1150 90.0000 98.8330 90.0000
ZERR 8.0 0.0070 0.0040 0.0030 0.0000 0.0070 0.0000
LATT 7
SYMM -X, +Y, 1/2-Z
REM  SPGR C2/c monoclinic
SFAC C H N Cl Ni
UNIT 616.02 616 48.02 23.9392 8
SIZE 0.23 0.08 0.02
TEMP -180.0
L.S. 20
FMAP 2
PLAN -50
ACTA
CONF
HTAB
LIST 4
BOND $H
MERG 2
OMIT -10.000000 130.000000
EQIV $1 1/2+X, -1/2+Y, +Z

HTAB C13 Cl4_$1
SADI 0.03 C86 Cl4 C86 Cl5 C86 Cl6
SADI 0.03 Cl4 Cl5 Cl5 Cl6 Cl6 Cl4
SIMU 0.02 C85 Cl1 Cl2 Cl3 C84 C83 N6 N7 C87 C88 C86 Cl4 Cl5 Cl6
ISOR 0.02 C85 Cl1 Cl2 Cl3 C84 C83 N6 N7 C87 C88 C86 Cl4 Cl5 Cl6
SADI 0.03 C92 C91 C92 C93 C92 C94
SADI 0.03 C93 C91 C91 C94 C94 C93
DFIX 1.54 0.03 C92 C94
DFIX 1.54 0.03 C92 C91
DFIX 1.54 0.03 C92 C93
SIMU 0.02 C71 C72 C73 C74 C91 C92 C93 C94
ISOR 0.02 C71 C72 C73 C74 C91 C92 C93 C94
SIMU 0.03 C57 C58 C59 C60 C95 C96 C97
ISOR 0.03 C57 C58 C59 C60 C95 C96 C97

WGHT    0.157100   32.684101
FVAR       0.28821   0.49885   0.53961   0.74017   0.50573
C1    1    0.541010    0.158101    0.552822    11.00000    0.04174    0.01683 =
         0.02281   -0.00103    0.00311   -0.00277
C2    1    0.508575    0.182903    0.575608    11.00000    0.04459    0.01659 =
         0.03027    0.00039    0.00537    0.00275
AFIX  43
H1    2    0.501115    0.225255    0.572601    11.00000   -1.20000
AFIX   0
C3    1    0.489795    0.134059    0.603024    11.00000    0.04024    0.02030 =
         0.02274   -0.00073    0.00071    0.00221
C4    1    0.510843    0.080276    0.592818    11.00000    0.03515    0.01755 =
         0.01806    0.00008    0.00100   -0.00176
C5    1    0.499813    0.022051    0.615666    11.00000    0.03142    0.02143 =
         0.01681   -0.00084   -0.00187   -0.00189
C6    1    0.520639   -0.030279    0.606208    11.00000    0.03111    0.01937 =
         0.01792   -0.00115   -0.00314    0.00034
C7    1    0.510068   -0.089533    0.632195    11.00000    0.03212    0.01885 =
         0.01986   -0.00006   -0.00002   -0.00381
C8    1    0.537709   -0.129606    0.620694    11.00000    0.03815    0.01592 =
         0.02458    0.00021    0.00123   -0.00016
AFIX  43
H2    2    0.539077   -0.172647    0.633315    11.00000   -1.20000
AFIX   0
C9    1    0.563929   -0.094638    0.586336    11.00000    0.03786    0.01619 =
         0.02268   -0.00122   -0.00034    0.00128
C10   1    0.595702   -0.119607    0.563408    11.00000    0.03537    0.02024 =
         0.02703    0.00028    0.00059   -0.00055
C11   1    0.618928   -0.085538    0.524045    11.00000    0.03643    0.02419 =
         0.02693   -0.00177   -0.00206    0.00191
C12   1    0.649182   -0.111712    0.491309    11.00000    0.03906    0.02793 =
         0.03923    0.00021    0.00538    0.00356
AFIX  43
H3    2    0.656075   -0.154327    0.492458    11.00000   -1.20000
AFIX   0
C13   1    0.665897   -0.065524    0.458980    11.00000    0.03419    0.03366 =
         0.03408   -0.00111    0.00705    0.00155
AFIX  43
H4    2    0.686596   -0.069219    0.432012    11.00000   -1.20000
AFIX   0
C14   1    0.646850   -0.009063    0.472410    11.00000    0.03299    0.02683 =
         0.02320   -0.00085   -0.00232   -0.00251
C15   1    0.660136    0.049771    0.458343    11.00000    0.03025    0.03138 =
         0.02133   -0.00057   -0.00237   -0.00525
C16   1    0.643031    0.103214    0.481642    11.00000    0.03355    0.02715 =
         0.02295    0.00168   -0.00257   -0.00691
C17   1    0.657007    0.165243    0.472846    11.00000    0.03730    0.03090 =
         0.03034    0.00086   -0.00079   -0.01061
AFIX  43
H5    2    0.679506    0.175938    0.455071    11.00000   -1.20000
AFIX   0
C89   1    0.632100    0.204861    0.494610    11.00000    0.04506    0.02217 =
         0.02962    0.00138   -0.00023   -0.01019
AFIX  43
H6    2    0.633990    0.248915    0.496293    11.00000   -1.20000
AFIX   0
C19   1    0.602206    0.168588    0.514791    11.00000    0.04328    0.02001 =
         0.02128    0.00076    0.00017   -0.00826
C20   1    0.569830    0.194191    0.531556    11.00000    0.04373    0.01778 =
         0.02086   -0.00125    0.00133   -0.00397
C21   1    0.459687    0.129962    0.647792    11.00000    0.03953    0.02179 =
         0.02585   -0.00095    0.00118    0.00184
C22   1    0.451750    0.071641    0.678858    11.00000    0.03062    0.02334 =
         0.02106    0.00051   -0.00350    0.00090
C23   1    0.430073    0.069888    0.740105    11.00000    0.03588    0.02531 =
         0.01887    0.00057   -0.00136   -0.00105
AFIX  43
H7    2    0.427304    0.031887    0.766890    11.00000   -1.20000
AFIX   0
C24   1    0.412865    0.122861    0.761436    11.00000    0.04096    0.03215 =
         0.02418   -0.00455    0.00636   -0.00035
AFIX  43
H8    2    0.397874    0.120874    0.801986    11.00000   -1.20000
AFIX   0
C25   1    0.417288    0.179480    0.723900    11.00000    0.05728    0.02409 =
         0.04018   -0.00493    0.01464    0.00710
AFIX  43
H9    2    0.403812    0.215184    0.735451    11.00000   -1.20000
AFIX   0
C26   1    0.441360    0.182700    0.670180    11.00000    0.05270    0.02030 =
         0.03697    0.00294    0.01222    0.00110
AFIX  43
H10   2    0.445746    0.221788    0.647479    11.00000   -1.20000
AFIX   0
C27   1    0.474951   -0.096507    0.658278    11.00000    0.03377    0.02121 =
         0.01882   -0.00039   -0.00287   -0.00233
C28   1    0.453250   -0.043286    0.663846    11.00000    0.03301    0.01996 =
         0.01789    0.00157   -0.00381   -0.00483
C29   1    0.416486   -0.051515    0.676204    11.00000    0.03140    0.02593 =
         0.02206   -0.00182   -0.00378   -0.00106
AFIX  43
H11   2    0.400436   -0.016641    0.673669    11.00000   -1.20000
AFIX   0
C30   1    0.403495   -0.109644    0.691957    11.00000    0.03385    0.02935 =
         0.02253   -0.00230   -0.00109   -0.00743
AFIX  43
H12   2    0.378927   -0.114037    0.702523    11.00000   -1.20000
AFIX   0
C31   1    0.425834   -0.161843    0.692586    11.00000    0.04153    0.02518 =
         0.02606   -0.00044    0.00182   -0.00944
AFIX  43
H13   2    0.417081   -0.201426    0.705975    11.00000   -1.20000
AFIX   0
C32   1    0.460908   -0.155575    0.673534    11.00000    0.04027    0.01935 =
         0.02547    0.00038   -0.00072   -0.00372
AFIX  43
H14   2    0.475751   -0.191474    0.670671    11.00000   -1.20000
AFIX   0
C33   1    0.606141   -0.185291    0.585757    11.00000    0.03930    0.02418 =
         0.03192    0.00234    0.00831    0.00614
C34   1    0.585482   -0.235686    0.553269    11.00000    0.03945    0.02311 =
         0.03745    0.00431    0.00720    0.00277
AFIX  43
H15   2    0.564226   -0.228814    0.514924    11.00000   -1.20000
AFIX   0
C35   1    0.595596   -0.296403    0.576326    11.00000    0.05064    0.02236 =
         0.04711    0.00782    0.01347    0.00496
C36   1    0.627181   -0.305000    0.632220    11.00000    0.05461    0.02566 =
         0.05087    0.01316    0.01407    0.01393
AFIX  43
H16   2    0.634319   -0.346089    0.648261    11.00000   -1.20000
AFIX   0
C37   1    0.648752   -0.254848    0.665518    11.00000    0.04370    0.03638 =
         0.03922    0.00591    0.00888    0.01411
C38   1    0.637434   -0.195718    0.641297    11.00000    0.03866    0.03454 =
         0.03700    0.00125    0.00542    0.00946
AFIX  43
H17   2    0.651474   -0.161057    0.663281    11.00000   -1.20000
AFIX   0
C39   1    0.572164   -0.351156    0.541209    11.00000    0.05966    0.02604 =
         0.06162    0.01130    0.00323   -0.00179
C40   1    0.570904   -0.352498    0.455560    11.00000    0.12744    0.04590 =
         0.06837   -0.00587    0.00622   -0.01644
AFIX  33
H18   2    0.562037   -0.312339    0.433134    11.00000   -1.50000
H19   2    0.595707   -0.360526    0.443174    11.00000   -1.50000
H20   2    0.554120   -0.385531    0.432874    11.00000   -1.50000
AFIX   0
C41   1    0.585713   -0.412303    0.578080    11.00000    0.16024    0.03362 =
         0.07370    0.01073    0.00266   -0.02185
AFIX  33
H21   2    0.586297   -0.410168    0.635456    11.00000   -1.50000
H22   2    0.569027   -0.445727    0.556214    11.00000   -1.50000
H23   2    0.610613   -0.420721    0.566514    11.00000   -1.50000
AFIX   0
C42   1    0.533140   -0.341245    0.564129    11.00000    0.08554    0.06821 =
         0.08748    0.00212    0.01236   -0.02189
AFIX  33
H24   2    0.534964   -0.340577    0.621852    11.00000   -1.50000
H25   2    0.522999   -0.301617    0.542381    11.00000   -1.50000
H26   2    0.516860   -0.375294    0.542600    11.00000   -1.50000
AFIX   0
C43   1    0.683827   -0.264582    0.724914    11.00000    0.05598    0.05225 =
         0.05086    0.00126   -0.00083    0.02694
C44   1    0.691069   -0.332453    0.746691    11.00000    0.11870    0.07136 =
         0.06250   -0.00893   -0.02470    0.06023
AFIX  33
H27   2    0.713837   -0.335830    0.784823    11.00000   -1.50000
H28   2    0.670353   -0.349040    0.770255    11.00000   -1.50000
H29   2    0.693685   -0.356259    0.699041    11.00000   -1.50000
AFIX   0
C45   1    0.680698   -0.227842    0.800390    11.00000    0.07420    0.06165 =
         0.05163   -0.00387   -0.00624    0.03067
AFIX  33
H30   2    0.676022   -0.183945    0.787069    11.00000   -1.50000
H31   2    0.660280   -0.244475    0.824899    11.00000   -1.50000
H32   2    0.703794   -0.231625    0.837436    11.00000   -1.50000
AFIX   0
C46   1    0.717168   -0.240732    0.688703    11.00000    0.05548    0.14240 =
         0.07944    0.01389   -0.00015    0.03100
AFIX  33
H33   2    0.713359   -0.196910    0.673953    11.00000   -1.50000
H34   2    0.739648   -0.244851    0.727540    11.00000   -1.50000
H35   2    0.719707   -0.265261    0.641580    11.00000   -1.50000
AFIX   0
C47   1    0.692192    0.055063    0.415412    11.00000    0.03498    0.03336 =
         0.02853   -0.00092   -0.00002   -0.00292
C48   1    0.689655    0.030376    0.339124    11.00000    0.03715    0.03841 =
         0.03047   -0.00039    0.00248   -0.00158
AFIX  43
H36   2    0.667268    0.010998    0.316147    11.00000   -1.20000
AFIX   0
C49   1    0.718365    0.033156    0.296284    11.00000    0.04590    0.06041 =
         0.03351   -0.00344    0.00635   -0.00112
C50   1    0.750418    0.063898    0.329931    11.00000    0.04246    0.09594 =
         0.05014   -0.00518    0.01737   -0.01174
AFIX  43
H37   2    0.770347    0.066911    0.300593    11.00000   -1.20000
AFIX   0
C51   1    0.754317    0.090467    0.405289    11.00000    0.04054    0.07461 =
         0.05051   -0.00670    0.00297   -0.01123
C52   1    0.725139    0.084185    0.448146    11.00000    0.03540    0.05033 =
         0.03791   -0.00577    0.00291   -0.00960
AFIX  43
H38   2    0.727665    0.099963    0.500546    11.00000   -1.20000
AFIX   0
C53   1    0.716205    0.002236    0.214080    11.00000    0.05890    0.08146 =
         0.03681   -0.00804    0.01042    0.01223
C57   1    0.789417    0.127689    0.436607    11.00000    0.04813    0.12254 =
         0.06338   -0.00482    0.00265   -0.02919
C61   1    0.566319    0.263464    0.529076    11.00000    0.04304    0.01965 =
         0.02865    0.00026    0.00635   -0.00597
C62   1    0.566980    0.295437    0.459584    11.00000    0.04240    0.02198 =
         0.02451   -0.00257    0.00212   -0.00344
AFIX  43
H48   2    0.567346    0.272673    0.412141    11.00000   -1.20000
AFIX   0
C63   1    0.567129    0.360597    0.456802    11.00000    0.04174    0.02438 =
         0.02633    0.00393   -0.00026   -0.00124
C64   1    0.566083    0.392087    0.527535    11.00000    0.04839    0.01781 =
         0.03185    0.00126    0.00484   -0.00127
AFIX  43
H49   2    0.566737    0.436250    0.527339    11.00000   -1.20000
AFIX   0
C65   1    0.564122    0.361630    0.598396    11.00000    0.06043    0.01885 =
         0.02951   -0.00200    0.01049   -0.00414
C66   1    0.564512    0.296624    0.598336    11.00000    0.06015    0.01940 =
         0.02746    0.00074    0.01131   -0.00583
AFIX  43
H50   2    0.563531    0.274742    0.646188    11.00000   -1.20000
AFIX   0
C67   1    0.569777    0.395475    0.379394    11.00000    0.05225    0.02912 =
         0.02960    0.00682    0.00198   -0.00137
N1    3    0.542525    0.093590    0.561867    11.00000    0.03839    0.01757 =
         0.01813   -0.00015    0.00130   -0.00379
N2    3    0.553462   -0.032505    0.576804    11.00000    0.03293    0.01861 =
         0.02009   -0.00106   -0.00185   -0.00095
N3    3    0.617021   -0.021690    0.510479    11.00000    0.03354    0.02284 =
         0.02183   -0.00062   -0.00029   -0.00229
N4    3    0.609951    0.105383    0.509818    11.00000    0.03437    0.02155 =
         0.02164   -0.00010    0.00035   -0.00249
N5    3    0.468081    0.016790    0.652149    11.00000    0.03028    0.01879 =
         0.01999    0.00052   -0.00012   -0.00019
NI1   5    0.580654    0.036228    0.538858    11.00000    0.03202    0.01643 =
         0.02100   -0.00090    0.00042   -0.00294
PART 1
C68   1    0.537021    0.379361    0.319044    31.00000    0.06902    0.08499 =
         0.03420    0.01663   -0.00846   -0.00469
AFIX  33
H51   2    0.535683    0.334144    0.312041    31.00000   -1.50000
H52   2    0.514445    0.394227    0.337064    31.00000   -1.50000
H53   2    0.539523    0.399177    0.268575    31.00000   -1.50000
AFIX   0
C69   1    0.605076    0.374824    0.347964    31.00000    0.07135    0.04851 =
         0.03861    0.01749    0.01843    0.01129
AFIX  33
H54   2    0.626729    0.385100    0.386904    31.00000   -1.50000
H55   2    0.604248    0.329825    0.338810    31.00000   -1.50000
H56   2    0.606702    0.396414    0.298190    31.00000   -1.50000
AFIX   0
C70   1    0.572195    0.464998    0.390807    31.00000    0.10491    0.03203 =
         0.03602    0.01952    0.01597    0.01371
AFIX  33
H57   2    0.593670    0.475068    0.430323    31.00000   -1.50000
H58   2    0.574781    0.485019    0.340511    31.00000   -1.50000
H59   2    0.549704    0.480069    0.409000    31.00000   -1.50000
PART 2
AFIX   0
C77   1    0.538615    0.446788    0.364918   -31.00000    0.06568    0.03069 =
         0.04491    0.01584    0.00041    0.00287
AFIX  33
H60   2    0.540712    0.474514    0.410834   -31.00000   -1.50000
H61   2    0.541481    0.470964    0.317703   -31.00000   -1.50000
H62   2    0.514325    0.426711    0.357240   -31.00000   -1.50000
AFIX   0
C78   1    0.606805    0.429646    0.387735   -31.00000    0.07003    0.06053 =
         0.05011    0.02835    0.02045    0.00419
AFIX  33
H63   2    0.609731    0.455610    0.435346   -31.00000   -1.50000
H64   2    0.626933    0.399248    0.391981   -31.00000   -1.50000
H65   2    0.607458    0.455958    0.341219   -31.00000   -1.50000
AFIX   0
C79   1    0.564534    0.354799    0.305884   -31.00000    0.13886    0.04564 =
         0.02747    0.01513    0.01221    0.01012
AFIX  33
H66   2    0.540731    0.333298    0.301461   -31.00000   -1.50000
H67   2    0.565008    0.380793    0.259019   -31.00000   -1.50000
H68   2    0.584483    0.324083    0.309781   -31.00000   -1.50000
PART 1
AFIX   0
C54   1    0.723352    0.052951    0.151668    41.00000    0.07507    0.09074 =
         0.03991    0.01395    0.02046    0.02495
AFIX  33
H69   2    0.704446    0.085423    0.149106    41.00000   -1.50000
H70   2    0.747802    0.071456    0.167524    41.00000   -1.50000
H71   2    0.722252    0.033502    0.099575    41.00000   -1.50000
AFIX   0
C55   1    0.744067   -0.045864    0.218104    41.00000    0.07010    0.08192 =
         0.04181   -0.01136    0.00040    0.03870
AFIX  33
H72   2    0.768359   -0.027986    0.237561    41.00000   -1.50000
H73   2    0.738556   -0.078745    0.254186    41.00000   -1.50000
H74   2    0.744146   -0.063421    0.165291    41.00000   -1.50000
AFIX   0
C56   1    0.677215   -0.021631    0.184138    41.00000    0.06561    0.08534 =
         0.02862   -0.01508   -0.00098    0.01980
AFIX  33
H75   2    0.659590    0.012777    0.182653    41.00000   -1.50000
H76   2    0.676342   -0.038813    0.130849    41.00000   -1.50000
H77   2    0.670752   -0.054137    0.219744    41.00000   -1.50000
PART 2
AFIX   0
C80   1    0.756346   -0.009912    0.186228   -41.00000    0.09178    0.05179 =
         0.05375    0.00355    0.02996    0.01287
AFIX  33
H78   2    0.773986   -0.024250    0.231534   -41.00000   -1.50000
H79   2    0.753801   -0.041637    0.144637   -41.00000   -1.50000
H80   2    0.765299    0.028872    0.165825   -41.00000   -1.50000
AFIX   0
C81   1    0.709598   -0.080668    0.233817   -41.00000    0.07690    0.04682 =
         0.08452   -0.02952    0.01818   -0.01244
AFIX  33
H81   2    0.730161   -0.095590    0.272729   -41.00000   -1.50000
H82   2    0.686356   -0.086308    0.254620   -41.00000   -1.50000
H83   2    0.708755   -0.104322    0.184629   -41.00000   -1.50000
AFIX   0
C82   1    0.689336    0.021203    0.163431   -41.00000    0.12050    0.13659 =
         0.03891   -0.00864   -0.00664    0.09100
AFIX  33
H84   2    0.689719   -0.000281    0.113066   -41.00000   -1.50000
H85   2    0.666007    0.012358    0.182554   -41.00000   -1.50000
H86   2    0.691629    0.066112    0.155742   -41.00000   -1.50000
PART 1
AFIX   0
CL1   4    0.173572    0.068874    0.404868    21.00000    0.12551    0.15488 =
         0.12604   -0.02214   -0.00887   -0.01828
CL2   4    0.222300    0.065766    0.551241    21.00000    0.11582    0.14365 =
         0.18035    0.03113   -0.02675   -0.00771
CL4   4    0.211916    0.320153    0.373003    21.00000    0.10626    0.16337 =
         0.25349   -0.09747    0.02853    0.03693
CL5   4    0.171511    0.298329    0.216101    21.00000    0.11500    0.19994 =
         0.24771   -0.10782    0.00735    0.04004
CL3   4    0.238101    0.153866    0.463290    21.00000    0.14847    0.26523 =
         0.16821    0.04364    0.03800   -0.03007
C86   1    0.180090    0.299833    0.318367    21.00000    0.04454    0.11984 =
         0.12760   -0.04350    0.02537    0.01613
CL6   4    0.160287    0.230519    0.340697    21.00000    0.23914    0.23509 =
         0.30936    0.01410   -0.07053    0.07094
C85   1    0.207281    0.108895    0.506758    21.00000    0.11849    0.06785 =
         0.14348   -0.03424    0.05652   -0.02512
PART 2
C83   1    0.150619    0.229402    0.418139   -21.00000    0.07817    0.04893 =
         0.20949   -0.07742    0.07632   -0.03621
C84   1    0.172533    0.208953    0.473268   -21.00000    0.07982    0.05757 =
         0.05858   -0.02477    0.03407   -0.00727
N6    3    0.181040    0.162792    0.507257   -21.00000    0.09156    0.10851 =
         0.05619   -0.03474    0.02303    0.00742
C87   1    0.186675    0.148205    0.336199   -21.00000    0.10155    0.10624 =
         0.04216   -0.03484    0.00216    0.05547
C88   1    0.164643    0.114589    0.381921   -21.00000    0.10258    0.19870 =
         0.12378   -0.06356   -0.00445    0.00634
N7    3    0.174881    0.183540    0.295849   -21.00000    0.20152    0.19367 =
         0.16723   -0.10296   -0.03570   -0.00377
PART 1
C74   1    0.567438    0.356677    0.748950    10.42169    0.08246    0.02898 =
         0.02608    0.00149    0.02178    0.00869
AFIX  33
H87   2    0.544569    0.332355    0.739752    10.42169   -1.50000
H88   2    0.588685    0.328459    0.756245    10.42169   -1.50000
H89   2    0.567757    0.382219    0.796470    10.42169   -1.50000
AFIX   0
C71   1    0.569500    0.399398    0.676765    10.42169    0.05483    0.02435 =
         0.02436   -0.00283    0.00875    0.00413
C73   1    0.535408    0.442801    0.668963    10.42169    0.06844    0.02416 =
         0.02476    0.00801    0.01322    0.00139
AFIX  33
H90   2    0.512820    0.417834    0.658433    10.42169   -1.50000
H91   2    0.535637    0.466070    0.718269    10.42169   -1.50000
H92   2    0.536199    0.471960    0.625250    10.42169   -1.50000
AFIX   0
C72   1    0.604712    0.435741    0.692921    10.42169    0.05953    0.03759 =
         0.03240   -0.01099    0.00103   -0.00589
AFIX  33
H93   2    0.625766    0.407172    0.697563    10.42169   -1.50000
H94   2    0.605986    0.464860    0.649376    10.42169   -1.50000
H95   2    0.605424    0.458970    0.742395    10.42169   -1.50000
PART 2
AFIX   0
C94   1    0.552478    0.359870    0.742073    10.57831    0.08943    0.03199 =
         0.03823   -0.00435    0.02978    0.01048
AFIX  33
H96   2    0.549437    0.386691    0.786916    10.57831   -1.50000
H97   2    0.530122    0.334882    0.727320    10.57831   -1.50000
H98   2    0.573681    0.332273    0.756993    10.57831   -1.50000
AFIX   0
C93   1    0.527154    0.447223    0.653300    10.57831    0.07325    0.03343 =
         0.03819   -0.01061    0.00971    0.00683
AFIX  33
H99   2    0.524760    0.470885    0.701186    10.57831   -1.50000
H100  2    0.532331    0.475796    0.611761    10.57831   -1.50000
H101  2    0.504086    0.424888    0.635321    10.57831   -1.50000
AFIX   0
C92   1    0.559046    0.400216    0.671587    10.57831    0.05528    0.02202 =
         0.03314   -0.00499    0.00857   -0.00339
C91   1    0.595271    0.436454    0.693372    10.57831    0.06183    0.04172 =
         0.04374   -0.01424    0.00506    0.00220
AFIX  33
H102  2    0.593862    0.462246    0.740022    10.57831   -1.50000
H103  2    0.615863    0.407147    0.705032    10.57831   -1.50000
H104  2    0.599210    0.463100    0.648970    10.57831   -1.50000
PART 1
AFIX   0
C58   1    0.792410    0.153385    0.520680    51.00000    0.03718    0.06224 =
         0.04680   -0.02926   -0.00219   -0.03145
AFIX  33
H105  2    0.784529    0.121505    0.555452    51.00000   -1.50000
H106  2    0.818074    0.165044    0.539816    51.00000   -1.50000
H107  2    0.776544    0.190071    0.520639    51.00000   -1.50000
AFIX   0
C59   1    0.799950    0.168289    0.375764    51.00000    0.09327    0.15616 =
         0.06648    0.01558   -0.00740   -0.08802
AFIX  33
H108  2    0.796731    0.146201    0.325086    51.00000   -1.50000
H109  2    0.784340    0.205511    0.371034    51.00000   -1.50000
H110  2    0.825871    0.180485    0.390212    51.00000   -1.50000
AFIX   0
C60   1    0.823975    0.070211    0.445662    51.00000    0.04085    0.12253 =
         0.11564   -0.00781   -0.00317   -0.00720
AFIX  33
H111  2    0.819489    0.039875    0.485850    51.00000   -1.50000
H112  2    0.823514    0.049091    0.394781    51.00000   -1.50000
H113  2    0.848170    0.089653    0.461400    51.00000   -1.50000
PART 2
AFIX   0
C95   1    0.823155    0.105061    0.422169   -51.00000    0.05045    0.10037 =
         0.07368   -0.01414    0.01294   -0.02273
AFIX  33
H114  2    0.822092    0.097647    0.365367   -51.00000   -1.50000
H115  2    0.842524    0.135563    0.439940   -51.00000   -1.50000
H116  2    0.828706    0.065973    0.450989   -51.00000   -1.50000
AFIX   0
C96   1    0.783164    0.202272    0.396768   -51.00000    0.11679    0.09002 =
         0.17383    0.02706   -0.05015   -0.04885
AFIX  33
H117  2    0.782150    0.200207    0.339273   -51.00000   -1.50000
H118  2    0.760010    0.219692    0.409120   -51.00000   -1.50000
H119  2    0.803820    0.228826    0.419523   -51.00000   -1.50000
AFIX   0
C97   1    0.790192    0.137813    0.511262   -51.00000    0.06413    0.16972 =
         0.11166   -0.04552    0.00578   -0.08001
AFIX  33
H120  2    0.766163    0.153769    0.520420   -51.00000   -1.50000
H121  2    0.795591    0.098879    0.540517   -51.00000   -1.50000
H122  2    0.809409    0.168469    0.529468   -51.00000   -1.50000
PART 0

AFIX   0
HKLF 4 1 1 0 0 0 1 0 0 0 1

REM
REM R1 =  0.0768 for    8478 Fo > 4sig(Fo)  and  0.0969 for all   11222 data
REM    968 parameters refined using    423 restraints

END

WGHT      0.1574     32.4095

REM Instructions for potential hydrogen bonds
HTAB C13 Cl4_$1

REM Highest difference peak  1.414,  deepest hole -0.655,  1-sigma level  0.084
Q1    1   0.7876 -0.2218  0.5459  11.00000  0.05    1.41
Q2    1   0.5357 -0.3376  0.4775  11.00000  0.05    1.14
Q3    1   0.1845  0.3143  0.3390  11.00000  0.05    1.07
Q4    1   0.2150  0.2979  0.1442  11.00000  0.05    0.95
Q5    1   0.1858  0.3248  0.2839  11.00000  0.05    0.88
Q6    1   0.1516  0.2280  0.1795  11.00000  0.05    0.82
Q7    1   0.7803 -0.1033  0.4626  11.00000  0.05    0.82
Q8    1   0.7735 -0.0377  0.4824  11.00000  0.05    0.79
Q9    1   0.8018 -0.0781  0.4406  11.00000  0.05    0.76
Q10   1   0.1901  0.2825  0.1822  11.00000  0.05    0.74
Q11   1   0.8033 -0.1190  0.5210  11.00000  0.05    0.72
Q12   1   0.7962 -0.1084  0.5348  11.00000  0.05    0.70
Q13   1   0.5973 -0.3900  0.4733  11.00000  0.05    0.68
Q14   1   0.1727  0.2506  0.2607  11.00000  0.05    0.63
Q15   1   0.7717 -0.0687  0.4229  11.00000  0.05    0.56
Q16   1   0.5571 -0.3906  0.5994  11.00000  0.05    0.52
Q17   1   0.7310 -0.2186  0.5647  11.00000  0.05    0.44
Q18   1   0.7369 -0.1892  0.4940  11.00000  0.05    0.39
Q19   1   0.8181 -0.1628  0.5391  11.00000  0.05    0.38
Q20   1   0.7851 -0.0739  0.5144  11.00000  0.05    0.38
Q21   1   0.7983  0.0898  0.4732  11.00000  0.05    0.36
Q22   1   0.1687  0.3053  0.1978  11.00000  0.05    0.36
Q23   1   0.7006 -0.2019  0.7669  11.00000  0.05    0.35
Q24   1   0.8054  0.0412  0.5454  11.00000  0.05    0.35
Q25   1   0.6650 -0.2900  0.8200  11.00000  0.05    0.29
Q26   1   0.8353 -0.1661  0.6345  11.00000  0.05    0.29
Q27   1   0.7760  0.1966  0.4565  11.00000  0.05    0.28
Q28   1   0.8484 -0.2360  0.6195  11.00000  0.05    0.28
Q29   1   0.8267 -0.0850  0.5443  11.00000  0.05    0.27
Q30   1   0.7579 -0.1375  0.5665  11.00000  0.05    0.27
Q31   1   0.7968  0.1703  0.5392  11.00000  0.05    0.26
Q32   1   0.5448 -0.3037  0.4208  11.00000  0.05    0.26
Q33   1   0.5883  0.0392  0.4811  11.00000  0.05    0.25
Q34   1   0.5733  0.3764  0.4862  11.00000  0.05    0.24
Q35   1   0.5233  0.0794  0.5573  11.00000  0.05    0.24
Q36   1   0.6575 -0.0417  0.4445  11.00000  0.05    0.23
Q37   1   0.5892 -0.3225  0.5583  11.00000  0.05    0.22
Q38   1   0.5566 -0.1107  0.6170  11.00000  0.05    0.22
Q39   1   0.6016 -0.2153  0.5540  11.00000  0.05    0.21
Q40   1   0.8132 -0.0319  0.5780  11.00000  0.05    0.21
Q41   1   0.5717 -0.1104  0.5654  11.00000  0.05    0.21
Q42   1   0.7628  0.0535  0.4213  11.00000  0.05    0.21
Q43   1   0.5693  0.3317  0.5983  11.00000  0.05    0.21
Q44   1   0.8114  0.1426  0.3216  11.00000  0.05    0.21
Q45   1   0.5018  0.1117  0.5985  11.00000  0.05    0.21
Q46   1   0.5553  0.1785  0.5288  11.00000  0.05    0.21
Q47   1   0.6405 -0.2779  0.6455  11.00000  0.05    0.20
Q48   1   0.5403  0.1223  0.5476  11.00000  0.05    0.20
Q49   1   0.6147 -0.0585  0.5263  11.00000  0.05    0.20
Q50   1   0.6559  0.0747  0.4833  11.00000  0.05    0.20
;
_shelx_res_checksum              20944
loop_
_space_group_symop_operation_xyz
'x, y, z'
'-x, y, -z+1/2'
'x+1/2, y+1/2, z'
'-x+1/2, y+1/2, -z+1/2'
'-x, -y, -z'
'x, -y, z-1/2'
'-x+1/2, -y+1/2, -z'
'x+1/2, -y+1/2, z-1/2'
loop_
_atom_site_label
_atom_site_type_symbol
_atom_site_fract_x
_atom_site_fract_y
_atom_site_fract_z
_atom_site_U_iso_or_equiv
_atom_site_adp_type
_atom_site_occupancy
_atom_site_site_symmetry_order
_atom_site_calc_flag
_atom_site_refinement_flags_posn
_atom_site_refinement_flags_adp
_atom_site_refinement_flags_occupancy
_atom_site_disorder_assembly
_atom_site_disorder_group
C1 C 0.54101(10) 0.15810(16) 0.5528(2) 0.0273(8) Uani 1 1 d . . . . .
C2 C 0.50857(11) 0.18290(17) 0.5756(2) 0.0305(8) Uani 1 1 d . . . . .
H1 H 0.5011 0.2253 0.5726 0.037 Uiso 1 1 calc R U . . .
C3 C 0.48979(10) 0.13406(16) 0.6030(2) 0.0282(8) Uani 1 1 d . . . . .
C4 C 0.51084(10) 0.08028(15) 0.59282(19) 0.0239(7) Uani 1 1 d . . . . .
C5 C 0.49981(10) 0.02205(16) 0.61567(19) 0.0238(7) Uani 1 1 d . . . . .
C6 C 0.52064(10) -0.03028(15) 0.60621(19) 0.0235(7) Uani 1 1 d . . . . .
C7 C 0.51007(10) -0.08953(16) 0.63219(19) 0.0240(7) Uani 1 1 d . . . . .
C8 C 0.53771(10) -0.12961(16) 0.6207(2) 0.0266(8) Uani 1 1 d . . . . .
H2 H 0.5391 -0.1726 0.6333 0.032 Uiso 1 1 calc R U . . .
C9 C 0.56393(10) -0.09464(15) 0.5863(2) 0.0261(7) Uani 1 1 d . . . . .
C10 C 0.59570(10) -0.11961(16) 0.5634(2) 0.0280(8) Uani 1 1 d . . . . .
C11 C 0.61893(10) -0.08554(17) 0.5240(2) 0.0299(8) Uani 1 1 d . . . . .
C12 C 0.64918(11) -0.11171(18) 0.4913(2) 0.0355(9) Uani 1 1 d . . . . .
H3 H 0.6561 -0.1543 0.4925 0.043 Uiso 1 1 calc R U . . .
C13 C 0.66590(11) -0.06552(18) 0.4590(2) 0.0338(9) Uani 1 1 d . . . . .
H4 H 0.6866 -0.0692 0.4320 0.041 Uiso 1 1 calc R U . . .
C14 C 0.64685(10) -0.00906(17) 0.4724(2) 0.0284(8) Uani 1 1 d . . . . .
C15 C 0.66014(10) 0.04977(18) 0.4583(2) 0.0283(8) Uani 1 1 d . . . . .
C16 C 0.64303(10) 0.10321(17) 0.4816(2) 0.0286(8) Uani 1 1 d . . . . .
C17 C 0.65701(11) 0.16524(18) 0.4728(2) 0.0335(9) Uani 1 1 d . . . . .
H5 H 0.6795 0.1759 0.4551 0.040 Uiso 1 1 calc R U . . .
C89 C 0.63210(11) 0.20486(17) 0.4946(2) 0.0329(9) Uani 1 1 d . . . . .
H6 H 0.6340 0.2489 0.4963 0.039 Uiso 1 1 calc R U . . .
C19 C 0.60221(11) 0.16859(16) 0.5148(2) 0.0287(8) Uani 1 1 d . . . . .
C20 C 0.56983(11) 0.19419(16) 0.5316(2) 0.0278(8) Uani 1 1 d . . . . .
C21 C 0.45969(10) 0.12996(17) 0.6478(2) 0.0295(8) Uani 1 1 d . . . . .
C22 C 0.45175(10) 0.07164(16) 0.67886(19) 0.0258(8) Uani 1 1 d . . . . .
C23 C 0.43007(10) 0.06989(17) 0.74010(19) 0.0273(8) Uani 1 1 d . . . . .
H7 H 0.4273 0.0319 0.7669 0.033 Uiso 1 1 calc R U . . .
C24 C 0.41286(11) 0.12286(18) 0.7614(2) 0.0323(8) Uani 1 1 d . . . . .
H8 H 0.3979 0.1209 0.8020 0.039 Uiso 1 1 calc R U . . .
C25 C 0.41729(13) 0.17948(18) 0.7239(2) 0.0398(10) Uani 1 1 d . . . . .
H9 H 0.4038 0.2152 0.7355 0.048 Uiso 1 1 calc R U . . .
C26 C 0.44136(12) 0.18270(18) 0.6702(2) 0.0361(9) Uani 1 1 d . . . . .
H10 H 0.4457 0.2218 0.6475 0.043 Uiso 1 1 calc R U . . .
C27 C 0.47495(10) -0.09651(16) 0.65828(19) 0.0253(7) Uani 1 1 d . . . . .
C28 C 0.45325(10) -0.04329(15) 0.66385(19) 0.0244(7) Uani 1 1 d . . . . .
C29 C 0.41649(10) -0.05151(17) 0.6762(2) 0.0273(8) Uani 1 1 d . . . . .
H11 H 0.4004 -0.0166 0.6737 0.033 Uiso 1 1 calc R U . . .
C30 C 0.40349(10) -0.10964(17) 0.6920(2) 0.0291(8) Uani 1 1 d . . . . .
H12 H 0.3789 -0.1140 0.7025 0.035 Uiso 1 1 calc R U . . .
C31 C 0.42583(11) -0.16184(17) 0.6926(2) 0.0313(8) Uani 1 1 d . . . . .
H13 H 0.4171 -0.2014 0.7060 0.038 Uiso 1 1 calc R U . . .
C32 C 0.46091(11) -0.15558(17) 0.6735(2) 0.0290(8) Uani 1 1 d . . . . .
H14 H 0.4758 -0.1915 0.6707 0.035 Uiso 1 1 calc R U . . .
C33 C 0.60614(11) -0.18529(17) 0.5858(2) 0.0315(8) Uani 1 1 d . . . . .
C34 C 0.58548(11) -0.23569(17) 0.5533(2) 0.0332(8) Uani 1 1 d . . . . .
H15 H 0.5642 -0.2288 0.5149 0.040 Uiso 1 1 calc R U . . .
C35 C 0.59560(12) -0.29640(18) 0.5763(3) 0.0394(9) Uani 1 1 d . . . . .
C36 C 0.62718(12) -0.30500(19) 0.6322(3) 0.0431(10) Uani 1 1 d . . . . .
H16 H 0.6343 -0.3461 0.6483 0.052 Uiso 1 1 calc R U . . .
C37 C 0.64875(12) -0.2548(2) 0.6655(2) 0.0395(9) Uani 1 1 d . . . . .
C38 C 0.63743(11) -0.19572(19) 0.6413(2) 0.0368(9) Uani 1 1 d . . . . .
H17 H 0.6515 -0.1611 0.6633 0.044 Uiso 1 1 calc R U . . .
C39 C 0.57216(14) -0.3512(2) 0.5412(3) 0.0497(11) Uani 1 1 d . . . . .
C40 C 0.5709(2) -0.3525(3) 0.4556(4) 0.0815(19) Uani 1 1 d . . . . .
H18 H 0.5620 -0.3123 0.4331 0.122 Uiso 1 1 calc R U . . .
H19 H 0.5957 -0.3605 0.4432 0.122 Uiso 1 1 calc R U . . .
H20 H 0.5541 -0.3855 0.4329 0.122 Uiso 1 1 calc R U . . .
C41 C 0.5857(2) -0.4123(3) 0.5781(4) 0.091(2) Uani 1 1 d . . . . .
H21 H 0.5863 -0.4102 0.6355 0.136 Uiso 1 1 calc R U . . .
H22 H 0.5690 -0.4457 0.5562 0.136 Uiso 1 1 calc R U . . .
H23 H 0.6106 -0.4207 0.5665 0.136 Uiso 1 1 calc R U . . .
C42 C 0.53314(19) -0.3412(3) 0.5641(4) 0.0805(18) Uani 1 1 d . . . . .
H24 H 0.5350 -0.3406 0.6219 0.121 Uiso 1 1 calc R U . . .
H25 H 0.5230 -0.3016 0.5424 0.121 Uiso 1 1 calc R U . . .
H26 H 0.5169 -0.3753 0.5426 0.121 Uiso 1 1 calc R U . . .
C43 C 0.68383(14) -0.2646(2) 0.7249(3) 0.0540(12) Uani 1 1 d . . . . .
C44 C 0.6911(2) -0.3325(3) 0.7467(4) 0.088(2) Uani 1 1 d . . . . .
H27 H 0.7138 -0.3358 0.7848 0.132 Uiso 1 1 calc R U . . .
H28 H 0.6704 -0.3490 0.7703 0.132 Uiso 1 1 calc R U . . .
H29 H 0.6937 -0.3563 0.6990 0.132 Uiso 1 1 calc R U . . .
C45 C 0.68070(16) -0.2278(3) 0.8004(3) 0.0642(15) Uani 1 1 d . . . . .
H30 H 0.6760 -0.1839 0.7871 0.096 Uiso 1 1 calc R U . . .
H31 H 0.6603 -0.2445 0.8249 0.096 Uiso 1 1 calc R U . . .
H32 H 0.7038 -0.2316 0.8374 0.096 Uiso 1 1 calc R U . . .
C46 C 0.71717(17) -0.2407(4) 0.6887(4) 0.094(2) Uani 1 1 d . . . . .
H33 H 0.7134 -0.1969 0.6740 0.140 Uiso 1 1 calc R U . . .
H34 H 0.7396 -0.2449 0.7275 0.140 Uiso 1 1 calc R U . . .
H35 H 0.7197 -0.2653 0.6416 0.140 Uiso 1 1 calc R U . . .
C47 C 0.69219(11) 0.05506(19) 0.4154(2) 0.0328(8) Uani 1 1 d . . . . .
C48 C 0.68966(11) 0.03038(19) 0.3391(2) 0.0356(9) Uani 1 1 d . . . . .
H36 H 0.6673 0.0110 0.3161 0.043 Uiso 1 1 calc R U . . .
C49 C 0.71836(13) 0.0332(2) 0.2963(3) 0.0466(11) Uani 1 1 d . . . . .
C50 C 0.75042(14) 0.0639(3) 0.3299(3) 0.0618(14) Uani 1 1 d . . . . .
H37 H 0.7703 0.0669 0.3006 0.074 Uiso 1 1 calc R U . . .
C51 C 0.75432(13) 0.0905(3) 0.4053(3) 0.0556(13) Uani 1 1 d . . . . .
C52 C 0.72514(11) 0.0842(2) 0.4481(3) 0.0415(10) Uani 1 1 d . . . . .
H38 H 0.7277 0.1000 0.5005 0.050 Uiso 1 1 calc R U . . .
C53 C 0.71620(15) 0.0022(3) 0.2141(3) 0.0587(14) Uani 1 1 d . . . . .
C57 C 0.78942(16) 0.1277(4) 0.4366(4) 0.0786(19) Uani 1 1 d . U . . .
C61 C 0.56632(11) 0.26346(17) 0.5291(2) 0.0304(8) Uani 1 1 d . . . . .
C62 C 0.56698(11) 0.29544(17) 0.4596(2) 0.0299(8) Uani 1 1 d . . . . .
H48 H 0.5673 0.2727 0.4121 0.036 Uiso 1 1 calc R U . . .
C63 C 0.56713(11) 0.36060(17) 0.4568(2) 0.0314(8) Uani 1 1 d . . . . .
C64 C 0.56608(11) 0.39209(17) 0.5275(2) 0.0328(8) Uani 1 1 d . . . . .
H49 H 0.5667 0.4362 0.5273 0.039 Uiso 1 1 calc R U . . .
C65 C 0.56412(12) 0.36163(17) 0.5984(2) 0.0359(9) Uani 1 1 d . . . . .
C66 C 0.56451(12) 0.29662(17) 0.5983(2) 0.0352(9) Uani 1 1 d . . . . .
H50 H 0.5635 0.2747 0.6462 0.042 Uiso 1 1 calc R U . . .
C67 C 0.56978(12) 0.39547(19) 0.3794(2) 0.0374(9) Uani 1 1 d . . . . .
N1 N 0.54253(8) 0.09359(13) 0.56187(16) 0.0250(6) Uani 1 1 d . . . . .
N2 N 0.55346(8) -0.03250(13) 0.57680(16) 0.0245(6) Uani 1 1 d . . . . .
N3 N 0.61702(8) -0.02169(14) 0.51048(17) 0.0265(6) Uani 1 1 d . . . . .
N4 N 0.60995(8) 0.10538(13) 0.50982(16) 0.0263(6) Uani 1 1 d . . . . .
N5 N 0.46808(8) 0.01679(13) 0.65215(16) 0.0234(6) Uani 1 1 d . . . . .
Ni1 Ni 0.58065(2) 0.03623(2) 0.53886(3) 0.0235(2) Uani 1 1 d . . . . .
C68 C 0.5370(3) 0.3794(6) 0.3190(5) 0.064(3) Uani 0.540(9) 1 d . . P A 1
H51 H 0.5357 0.3341 0.3120 0.097 Uiso 0.540(9) 1 calc R U P A 1
H52 H 0.5144 0.3942 0.3371 0.097 Uiso 0.540(9) 1 calc R U P A 1
H53 H 0.5395 0.3992 0.2686 0.097 Uiso 0.540(9) 1 calc R U P A 1
C69 C 0.6051(3) 0.3748(4) 0.3480(5) 0.052(3) Uani 0.540(9) 1 d . . P A 1
H54 H 0.6267 0.3851 0.3869 0.078 Uiso 0.540(9) 1 calc R U P A 1
H55 H 0.6042 0.3298 0.3388 0.078 Uiso 0.540(9) 1 calc R U P A 1
H56 H 0.6067 0.3964 0.2982 0.078 Uiso 0.540(9) 1 calc R U P A 1
C70 C 0.5722(3) 0.4650(4) 0.3908(5) 0.057(3) Uani 0.540(9) 1 d . . P A 1
H57 H 0.5937 0.4751 0.4303 0.086 Uiso 0.540(9) 1 calc R U P A 1
H58 H 0.5748 0.4850 0.3405 0.086 Uiso 0.540(9) 1 calc R U P A 1
H59 H 0.5497 0.4801 0.4090 0.086 Uiso 0.540(9) 1 calc R U P A 1
C77 C 0.5386(3) 0.4468(4) 0.3649(6) 0.048(3) Uani 0.460(9) 1 d . . P A 2
H60 H 0.5407 0.4745 0.4108 0.072 Uiso 0.460(9) 1 calc R U P A 2
H61 H 0.5415 0.4710 0.3177 0.072 Uiso 0.460(9) 1 calc R U P A 2
H62 H 0.5143 0.4267 0.3572 0.072 Uiso 0.460(9) 1 calc R U P A 2
C78 C 0.6068(3) 0.4296(6) 0.3877(7) 0.059(3) Uani 0.460(9) 1 d . . P A 2
H63 H 0.6097 0.4556 0.4353 0.089 Uiso 0.460(9) 1 calc R U P A 2
H64 H 0.6269 0.3992 0.3920 0.089 Uiso 0.460(9) 1 calc R U P A 2
H65 H 0.6075 0.4560 0.3412 0.089 Uiso 0.460(9) 1 calc R U P A 2
C79 C 0.5645(5) 0.3548(5) 0.3059(6) 0.071(5) Uani 0.460(9) 1 d . . P A 2
H66 H 0.5407 0.3333 0.3015 0.106 Uiso 0.460(9) 1 calc R U P A 2
H67 H 0.5650 0.3808 0.2590 0.106 Uiso 0.460(9) 1 calc R U P A 2
H68 H 0.5845 0.3241 0.3098 0.106 Uiso 0.460(9) 1 calc R U P A 2
C54 C 0.7234(2) 0.0530(4) 0.1517(4) 0.067(2) Uani 0.740(11) 1 d . . P B 1
H69 H 0.7044 0.0854 0.1491 0.101 Uiso 0.740(11) 1 calc R U P B 1
H70 H 0.7478 0.0715 0.1675 0.101 Uiso 0.740(11) 1 calc R U P B 1
H71 H 0.7223 0.0335 0.0996 0.101 Uiso 0.740(11) 1 calc R U P B 1
C55 C 0.7441(2) -0.0459(4) 0.2181(4) 0.065(3) Uani 0.740(11) 1 d . . P B 1
H72 H 0.7684 -0.0280 0.2376 0.098 Uiso 0.740(11) 1 calc R U P B 1
H73 H 0.7386 -0.0787 0.2542 0.098 Uiso 0.740(11) 1 calc R U P B 1
H74 H 0.7441 -0.0634 0.1653 0.098 Uiso 0.740(11) 1 calc R U P B 1
C56 C 0.6772(2) -0.0216(5) 0.1841(4) 0.061(2) Uani 0.740(11) 1 d . . P B 1
H75 H 0.6596 0.0128 0.1827 0.091 Uiso 0.740(11) 1 calc R U P B 1
H76 H 0.6763 -0.0388 0.1308 0.091 Uiso 0.740(11) 1 calc R U P B 1
H77 H 0.6708 -0.0541 0.2197 0.091 Uiso 0.740(11) 1 calc R U P B 1
C80 C 0.7563(7) -0.0099(11) 0.1862(14) 0.064(6) Uani 0.260(11) 1 d . . P B 2
H78 H 0.7740 -0.0242 0.2315 0.096 Uiso 0.260(11) 1 calc R U P B 2
H79 H 0.7538 -0.0416 0.1446 0.096 Uiso 0.260(11) 1 calc R U P B 2
H80 H 0.7653 0.0289 0.1658 0.096 Uiso 0.260(11) 1 calc R U P B 2
C81 C 0.7096(7) -0.0807(9) 0.2338(15) 0.069(7) Uani 0.260(11) 1 d . . P B 2
H81 H 0.7302 -0.0956 0.2727 0.103 Uiso 0.260(11) 1 calc R U P B 2
H82 H 0.6864 -0.0863 0.2546 0.103 Uiso 0.260(11) 1 calc R U P B 2
H83 H 0.7088 -0.1043 0.1846 0.103 Uiso 0.260(11) 1 calc R U P B 2
C82 C 0.6893(10) 0.0212(19) 0.1634(14) 0.101(16) Uani 0.260(11) 1 d . . P B 2
H84 H 0.6897 -0.0003 0.1131 0.151 Uiso 0.260(11) 1 calc R U P B 2
H85 H 0.6660 0.0124 0.1826 0.151 Uiso 0.260(11) 1 calc R U P B 2
H86 H 0.6916 0.0661 0.1557 0.151 Uiso 0.260(11) 1 calc R U P B 2
Cl1 Cl 0.17357(19) 0.0689(4) 0.4049(4) 0.138(2) Uani 0.499(4) 1 d . U P C 1
Cl2 Cl 0.22230(16) 0.0658(3) 0.5512(4) 0.152(2) Uani 0.499(4) 1 d . U P C 1
Cl4 Cl 0.21192(15) 0.3202(3) 0.3730(5) 0.174(3) Uani 0.499(4) 1 d D U P C 1
Cl5 Cl 0.17151(17) 0.2983(4) 0.2161(5) 0.190(4) Uani 0.499(4) 1 d D U P C 1
Cl3 Cl 0.2381(2) 0.1539(4) 0.4633(5) 0.193(3) Uani 0.499(4) 1 d . U P C 1
C86 C 0.1801(3) 0.2998(7) 0.3184(8) 0.096(4) Uani 0.499(4) 1 d D U P C 1
Cl6 Cl 0.1603(3) 0.2305(6) 0.3407(9) 0.273(6) Uani 0.499(4) 1 d D U P C 1
C85 C 0.2073(5) 0.1089(7) 0.5068(12) 0.106(5) Uani 0.499(4) 1 d . U P C 1
C83 C 0.1506(5) 0.2294(7) 0.4181(16) 0.107(6) Uani 0.501(4) 1 d . U P C 2
C84 C 0.1725(4) 0.2090(6) 0.4733(8) 0.063(3) Uani 0.501(4) 1 d . U P C 2
N6 N 0.1810(3) 0.1628(7) 0.5073(6) 0.084(3) Uani 0.501(4) 1 d . U P C 2
C87 C 0.1867(4) 0.1482(8) 0.3362(7) 0.084(4) Uani 0.501(4) 1 d . U P C 2
C88 C 0.1646(7) 0.1146(16) 0.3819(17) 0.144(8) Uani 0.501(4) 1 d . U P C 2
N7 N 0.1749(8) 0.1835(14) 0.2958(15) 0.194(9) Uani 0.501(4) 1 d . U P C 2
C74 C 0.5674(6) 0.3567(12) 0.7489(16) 0.044(5) Uani 0.4217 1 d . U P D 1
H87 H 0.5446 0.3324 0.7398 0.067 Uiso 0.4217 1 calc R U P D 1
H88 H 0.5887 0.3285 0.7562 0.067 Uiso 0.4217 1 calc R U P D 1
H89 H 0.5678 0.3822 0.7965 0.067 Uiso 0.4217 1 calc R U P D 1
C71 C 0.5695(7) 0.3994(17) 0.677(2) 0.034(4) Uani 0.4217 1 d . U P D 1
C73 C 0.5354(8) 0.4428(16) 0.6690(19) 0.038(5) Uani 0.4217 1 d . U P D 1
H90 H 0.5128 0.4178 0.6584 0.058 Uiso 0.4217 1 calc R U P D 1
H91 H 0.5356 0.4661 0.7183 0.058 Uiso 0.4217 1 calc R U P D 1
H92 H 0.5362 0.4720 0.6252 0.058 Uiso 0.4217 1 calc R U P D 1
C72 C 0.6047(10) 0.436(2) 0.693(3) 0.044(6) Uani 0.4217 1 d . U P D 1
H93 H 0.6258 0.4072 0.6976 0.066 Uiso 0.4217 1 calc R U P D 1
H94 H 0.6060 0.4649 0.6494 0.066 Uiso 0.4217 1 calc R U P D 1
H95 H 0.6054 0.4590 0.7424 0.066 Uiso 0.4217 1 calc R U P D 1
C94 C 0.5525(4) 0.3599(9) 0.7421(13) 0.051(4) Uani 0.5783 1 d D U P D 2
H96 H 0.5494 0.3867 0.7869 0.077 Uiso 0.5783 1 calc R U P D 2
H97 H 0.5301 0.3349 0.7273 0.077 Uiso 0.5783 1 calc R U P D 2
H98 H 0.5737 0.3323 0.7570 0.077 Uiso 0.5783 1 calc R U P D 2
C93 C 0.5272(6) 0.4472(12) 0.6533(15) 0.048(5) Uani 0.5783 1 d D U P D 2
H99 H 0.5248 0.4709 0.7012 0.072 Uiso 0.5783 1 calc R U P D 2
H100 H 0.5323 0.4758 0.6118 0.072 Uiso 0.5783 1 calc R U P D 2
H101 H 0.5041 0.4249 0.6353 0.072 Uiso 0.5783 1 calc R U P D 2
C92 C 0.5590(5) 0.4002(12) 0.6716(15) 0.037(4) Uani 0.5783 1 d D U P D 2
C91 C 0.5953(6) 0.4365(16) 0.693(2) 0.049(6) Uani 0.5783 1 d D U P D 2
H102 H 0.5939 0.4622 0.7400 0.074 Uiso 0.5783 1 calc R U P D 2
H103 H 0.6159 0.4071 0.7050 0.074 Uiso 0.5783 1 calc R U P D 2
H104 H 0.5992 0.4631 0.6490 0.074 Uiso 0.5783 1 calc R U P D 2
C58 C 0.7924(7) 0.1534(10) 0.5207(14) 0.050(4) Uani 0.51(3) 1 d . U P E 1
H105 H 0.7845 0.1215 0.5555 0.074 Uiso 0.51(3) 1 calc R U P E 1
H106 H 0.8181 0.1650 0.5398 0.074 Uiso 0.51(3) 1 calc R U P E 1
H107 H 0.7765 0.1901 0.5206 0.074 Uiso 0.51(3) 1 calc R U P E 1
C59 C 0.8000(6) 0.1683(14) 0.3758(10) 0.107(8) Uani 0.51(3) 1 d . U P E 1
H108 H 0.7967 0.1462 0.3251 0.161 Uiso 0.51(3) 1 calc R U P E 1
H109 H 0.7843 0.2055 0.3710 0.161 Uiso 0.51(3) 1 calc R U P E 1
H110 H 0.8259 0.1805 0.3902 0.161 Uiso 0.51(3) 1 calc R U P E 1
C60 C 0.8240(5) 0.0702(13) 0.4457(15) 0.095(6) Uani 0.51(3) 1 d . U P E 1
H111 H 0.8195 0.0399 0.4859 0.142 Uiso 0.51(3) 1 calc R U P E 1
H112 H 0.8235 0.0491 0.3948 0.142 Uiso 0.51(3) 1 calc R U P E 1
H113 H 0.8482 0.0897 0.4614 0.142 Uiso 0.51(3) 1 calc R U P E 1
C95 C 0.8232(5) 0.1051(12) 0.4222(12) 0.074(5) Uani 0.49(3) 1 d . U P E 2
H114 H 0.8221 0.0976 0.3654 0.112 Uiso 0.49(3) 1 calc R U P E 2
H115 H 0.8425 0.1356 0.4399 0.112 Uiso 0.49(3) 1 calc R U P E 2
H116 H 0.8287 0.0660 0.4510 0.112 Uiso 0.49(3) 1 calc R U P E 2
C96 C 0.7832(8) 0.2023(11) 0.397(2) 0.134(10) Uani 0.49(3) 1 d . U P E 2
H117 H 0.7821 0.2002 0.3393 0.202 Uiso 0.49(3) 1 calc R U P E 2
H118 H 0.7600 0.2197 0.4091 0.202 Uiso 0.49(3) 1 calc R U P E 2
H119 H 0.8038 0.2288 0.4195 0.202 Uiso 0.49(3) 1 calc R U P E 2
C97 C 0.7902(10) 0.1378(18) 0.511(2) 0.116(11) Uani 0.49(3) 1 d . U P E 2
H120 H 0.7662 0.1538 0.5204 0.174 Uiso 0.49(3) 1 calc R U P E 2
H121 H 0.7956 0.0989 0.5405 0.174 Uiso 0.49(3) 1 calc R U P E 2
H122 H 0.8094 0.1685 0.5295 0.174 Uiso 0.49(3) 1 calc R U P E 2
loop_
_atom_site_aniso_label
_atom_site_aniso_U_11
_atom_site_aniso_U_22
_atom_site_aniso_U_33
_atom_site_aniso_U_23
_atom_site_aniso_U_13
_atom_site_aniso_U_12
C1 0.042(2) 0.0168(17) 0.0228(17) -0.0010(13) 0.0031(15) -0.0028(15)
C2 0.045(2) 0.0166(17) 0.0303(19) 0.0004(14) 0.0054(16) 0.0027(15)
C3 0.040(2) 0.0203(18) 0.0227(17) -0.0007(14) 0.0007(15) 0.0022(15)
C4 0.0351(18) 0.0176(17) 0.0181(16) 0.0001(13) 0.0010(14) -0.0018(14)
C5 0.0314(18) 0.0214(18) 0.0168(15) -0.0008(13) -0.0019(13) -0.0019(14)
C6 0.0311(18) 0.0194(17) 0.0179(16) -0.0012(13) -0.0031(13) 0.0003(14)
C7 0.0321(18) 0.0188(17) 0.0199(16) -0.0001(13) 0.0000(13) -0.0038(14)
C8 0.0382(19) 0.0159(17) 0.0246(17) 0.0002(13) 0.0012(14) -0.0002(14)
C9 0.0379(19) 0.0162(17) 0.0227(17) -0.0012(13) -0.0003(14) 0.0013(14)
C10 0.0354(19) 0.0202(18) 0.0270(18) 0.0003(14) 0.0006(15) -0.0006(15)
C11 0.0364(19) 0.0242(19) 0.0269(18) -0.0018(15) -0.0021(15) 0.0019(15)
C12 0.039(2) 0.028(2) 0.039(2) 0.0002(16) 0.0054(17) 0.0036(16)
C13 0.034(2) 0.034(2) 0.034(2) -0.0011(16) 0.0071(16) 0.0015(16)
C14 0.0330(18) 0.0268(19) 0.0232(17) -0.0009(14) -0.0023(14) -0.0025(15)
C15 0.0303(18) 0.031(2) 0.0213(17) -0.0006(14) -0.0024(14) -0.0052(15)
C16 0.0335(19) 0.0271(19) 0.0229(17) 0.0017(14) -0.0026(14) -0.0069(15)
C17 0.037(2) 0.031(2) 0.0303(19) 0.0009(16) -0.0008(16) -0.0106(16)
C89 0.045(2) 0.0222(19) 0.0296(19) 0.0014(15) -0.0002(16) -0.0102(16)
C19 0.043(2) 0.0200(18) 0.0213(17) 0.0008(14) 0.0002(15) -0.0083(15)
C20 0.044(2) 0.0178(17) 0.0209(17) -0.0013(13) 0.0013(15) -0.0040(15)
C21 0.040(2) 0.0218(18) 0.0259(18) -0.0009(14) 0.0012(15) 0.0018(15)
C22 0.0306(18) 0.0233(19) 0.0211(17) 0.0005(13) -0.0035(14) 0.0009(14)
C23 0.0359(19) 0.0253(19) 0.0189(16) 0.0006(14) -0.0014(14) -0.0010(15)
C24 0.041(2) 0.032(2) 0.0242(18) -0.0046(15) 0.0064(15) -0.0003(16)
C25 0.057(3) 0.024(2) 0.040(2) -0.0049(17) 0.0146(19) 0.0071(18)
C26 0.053(2) 0.0203(19) 0.037(2) 0.0029(16) 0.0122(18) 0.0011(17)
C27 0.0338(18) 0.0212(18) 0.0188(16) -0.0004(13) -0.0029(14) -0.0023(14)
C28 0.0330(18) 0.0200(17) 0.0179(15) 0.0016(13) -0.0038(13) -0.0048(14)
C29 0.0314(18) 0.0259(18) 0.0221(17) -0.0018(14) -0.0038(14) -0.0011(14)
C30 0.0339(19) 0.029(2) 0.0225(17) -0.0023(14) -0.0011(14) -0.0074(15)
C31 0.042(2) 0.0252(19) 0.0261(18) -0.0004(15) 0.0018(15) -0.0094(16)
C32 0.040(2) 0.0194(18) 0.0255(18) 0.0004(14) -0.0007(15) -0.0037(15)
C33 0.039(2) 0.0242(19) 0.0319(19) 0.0023(15) 0.0083(16) 0.0061(16)
C34 0.039(2) 0.0231(19) 0.037(2) 0.0043(16) 0.0072(16) 0.0028(16)
C35 0.051(2) 0.022(2) 0.047(2) 0.0078(17) 0.0135(19) 0.0050(17)
C36 0.055(3) 0.026(2) 0.051(2) 0.0132(18) 0.014(2) 0.0139(18)
C37 0.044(2) 0.036(2) 0.039(2) 0.0059(18) 0.0089(18) 0.0141(18)
C38 0.039(2) 0.035(2) 0.037(2) 0.0013(17) 0.0054(17) 0.0095(17)
C39 0.060(3) 0.026(2) 0.062(3) 0.011(2) 0.003(2) -0.002(2)
C40 0.127(6) 0.046(3) 0.068(4) -0.006(3) 0.006(4) -0.016(3)
C41 0.160(7) 0.034(3) 0.074(4) 0.011(3) 0.003(4) -0.022(4)
C42 0.086(4) 0.068(4) 0.087(4) 0.002(3) 0.012(3) -0.022(3)
C43 0.056(3) 0.052(3) 0.051(3) 0.001(2) -0.001(2) 0.027(2)
C44 0.119(5) 0.071(4) 0.062(4) -0.009(3) -0.025(3) 0.060(4)
C45 0.074(3) 0.062(3) 0.052(3) -0.004(2) -0.006(3) 0.031(3)
C46 0.055(3) 0.142(7) 0.079(4) 0.014(4) 0.000(3) 0.031(4)
C47 0.035(2) 0.033(2) 0.0285(19) -0.0009(16) 0.0000(16) -0.0029(16)
C48 0.037(2) 0.038(2) 0.030(2) -0.0004(16) 0.0025(16) -0.0016(17)
C49 0.046(2) 0.060(3) 0.034(2) -0.003(2) 0.0064(19) -0.001(2)
C50 0.042(3) 0.096(4) 0.050(3) -0.005(3) 0.017(2) -0.012(3)
C51 0.041(2) 0.075(4) 0.051(3) -0.007(2) 0.003(2) -0.011(2)
C52 0.035(2) 0.050(3) 0.038(2) -0.0058(19) 0.0029(17) -0.0096(19)
C53 0.059(3) 0.081(4) 0.037(2) -0.008(2) 0.010(2) 0.012(3)
C57 0.048(3) 0.123(6) 0.063(4) -0.005(4) 0.003(3) -0.029(3)
C61 0.043(2) 0.0196(18) 0.0286(19) 0.0003(14) 0.0064(16) -0.0060(15)
C62 0.042(2) 0.0220(19) 0.0245(18) -0.0026(14) 0.0021(15) -0.0034(15)
C63 0.042(2) 0.0244(19) 0.0263(18) 0.0039(15) -0.0003(16) -0.0012(15)
C64 0.048(2) 0.0178(18) 0.032(2) 0.0013(15) 0.0048(17) -0.0013(15)
C65 0.060(3) 0.0188(19) 0.0295(19) -0.0020(15) 0.0105(18) -0.0041(17)
C66 0.060(3) 0.0194(18) 0.0275(19) 0.0007(15) 0.0113(17) -0.0058(17)
C67 0.052(2) 0.029(2) 0.0296(19) 0.0068(16) 0.0020(17) -0.0014(18)
N1 0.0384(16) 0.0176(14) 0.0181(13) -0.0002(11) 0.0013(12) -0.0038(12)
N2 0.0329(15) 0.0186(15) 0.0201(14) -0.0011(11) -0.0018(12) -0.0010(12)
N3 0.0335(16) 0.0228(15) 0.0218(14) -0.0006(12) -0.0003(12) -0.0023(12)
N4 0.0344(16) 0.0215(15) 0.0216(14) -0.0001(11) 0.0003(12) -0.0025(12)
N5 0.0303(15) 0.0188(14) 0.0200(14) 0.0005(11) -0.0001(11) -0.0002(12)
Ni1 0.0320(4) 0.0164(3) 0.0210(3) -0.0009(2) 0.0004(2) -0.0029(2)
C68 0.069(7) 0.085(8) 0.034(5) 0.017(5) -0.008(5) -0.005(6)
C69 0.071(6) 0.049(5) 0.039(5) 0.017(4) 0.018(4) 0.011(4)
C70 0.105(9) 0.032(5) 0.036(5) 0.020(4) 0.016(5) 0.014(5)
C77 0.066(7) 0.031(5) 0.045(5) 0.016(4) 0.000(5) 0.003(5)
C78 0.070(7) 0.061(8) 0.050(6) 0.028(6) 0.020(5) 0.004(6)
C79 0.139(14) 0.046(7) 0.027(5) 0.015(5) 0.012(7) 0.010(7)
C54 0.075(5) 0.091(6) 0.040(4) 0.014(4) 0.020(4) 0.025(4)
C55 0.070(5) 0.082(6) 0.042(4) -0.011(4) 0.000(3) 0.039(5)
C56 0.066(5) 0.085(6) 0.029(4) -0.015(4) -0.001(3) 0.020(4)
C80 0.092(16) 0.052(13) 0.054(13) 0.004(10) 0.030(11) 0.013(11)
C81 0.077(15) 0.047(12) 0.085(16) -0.030(11) 0.018(12) -0.012(10)
C82 0.12(3) 0.14(3) 0.039(13) -0.009(16) -0.007(15) 0.09(3)
Cl1 0.126(4) 0.155(5) 0.126(4) -0.022(4) -0.009(3) -0.018(4)
Cl2 0.116(4) 0.144(5) 0.180(6) 0.031(4) -0.027(4) -0.008(3)
Cl4 0.106(4) 0.163(5) 0.253(8) -0.097(5) 0.029(4) 0.037(3)
Cl5 0.115(4) 0.200(7) 0.248(8) -0.108(6) 0.007(4) 0.040(4)
Cl3 0.148(5) 0.265(9) 0.168(6) 0.044(6) 0.038(4) -0.030(6)
C86 0.045(6) 0.120(10) 0.128(10) -0.043(8) 0.025(6) 0.016(6)
Cl6 0.239(10) 0.235(10) 0.309(13) 0.014(10) -0.071(9) 0.071(9)
C85 0.118(10) 0.068(8) 0.143(11) -0.034(8) 0.057(9) -0.025(7)
C83 0.078(8) 0.049(7) 0.209(16) -0.077(9) 0.076(10) -0.036(6)
C84 0.080(8) 0.058(7) 0.059(6) -0.025(6) 0.034(6) -0.007(6)
N6 0.092(7) 0.109(9) 0.056(6) -0.035(6) 0.023(5) 0.007(7)
C87 0.102(9) 0.106(10) 0.042(6) -0.035(6) 0.002(6) 0.055(8)
C88 0.103(13) 0.199(19) 0.124(15) -0.064(15) -0.004(11) 0.006(14)
N7 0.202(17) 0.194(18) 0.167(16) -0.103(14) -0.036(14) -0.004(15)
C74 0.082(13) 0.029(7) 0.026(6) 0.001(5) 0.022(10) 0.009(10)
C71 0.055(11) 0.024(6) 0.024(6) -0.003(5) 0.009(8) 0.004(8)
C73 0.068(13) 0.024(7) 0.025(9) 0.008(6) 0.013(9) 0.001(8)
C72 0.060(13) 0.038(9) 0.032(8) -0.011(7) 0.001(10) -0.006(10)
C94 0.089(10) 0.032(5) 0.038(7) -0.004(4) 0.030(8) 0.010(8)
C93 0.073(10) 0.033(7) 0.038(10) -0.011(7) 0.010(7) 0.007(6)
C92 0.055(9) 0.022(5) 0.033(5) -0.005(4) 0.009(7) -0.003(7)
C91 0.062(12) 0.042(7) 0.044(7) -0.014(5) 0.005(9) 0.002(9)
C58 0.037(7) 0.062(7) 0.047(7) -0.029(6) -0.002(5) -0.031(6)
C59 0.093(13) 0.156(19) 0.066(8) 0.016(10) -0.007(8) -0.088(13)
C60 0.041(7) 0.123(17) 0.116(14) -0.008(12) -0.003(8) -0.007(9)
C95 0.050(7) 0.100(13) 0.074(10) -0.014(9) 0.013(6) -0.023(9)
C96 0.117(17) 0.090(14) 0.17(2) 0.027(13) -0.050(14) -0.049(12)
C97 0.064(11) 0.17(2) 0.112(19) -0.046(16) 0.006(11) -0.080(14)
loop_
_atom_type_symbol
_atom_type_description
_atom_type_scat_dispersion_real
_atom_type_scat_dispersion_imag
_atom_type_scat_source
C C 0.0181 0.0091 'International Tables Vol C Tables 4.2.6.8 and 6.1.1.4'
H H 0.0000 0.0000 'International Tables Vol C Tables 4.2.6.8 and 6.1.1.4'
N N 0.0311 0.0180 'International Tables Vol C Tables 4.2.6.8 and 6.1.1.4'
Cl Cl 0.3639 0.7018 'International Tables Vol C Tables 4.2.6.8 and 6.1.1.4'
Ni Ni -3.0029 0.5091 'International Tables Vol C Tables 4.2.6.8 and 6.1.1.4'
loop_
_geom_angle_atom_site_label_1
_geom_angle_atom_site_label_2
_geom_angle_atom_site_label_3
_geom_angle
N1 C1 C20 124.0(3)
N1 C1 C2 111.4(3)
C20 C1 C2 124.2(3)
C3 C2 C1 107.0(3)
C3 C2 H1 126.5
C1 C2 H1 126.5
C2 C3 C4 105.7(3)
C2 C3 C21 133.8(3)
C4 C3 C21 119.5(3)
N1 C4 C5 126.4(3)
N1 C4 C3 112.6(3)
C5 C4 C3 120.9(3)
C6 C5 C4 120.7(3)
C6 C5 N5 119.7(3)
C4 C5 N5 119.6(3)
N2 C6 C5 126.9(3)
N2 C6 C7 112.3(3)
C5 C6 C7 120.7(3)
C8 C7 C6 106.0(3)
C8 C7 C27 134.4(3)
C6 C7 C27 119.4(3)
C7 C8 C9 106.9(3)
C7 C8 H2 126.6
C9 C8 H2 126.6
C10 C9 N2 124.3(3)
C10 C9 C8 124.2(3)
N2 C9 C8 111.4(3)
C11 C10 C9 122.7(3)
C11 C10 C33 118.3(3)
C9 C10 C33 118.9(3)
C10 C11 N3 126.0(3)
C10 C11 C12 123.8(3)
N3 C11 C12 110.1(3)
C13 C12 C11 107.6(4)
C13 C12 H3 126.2
C11 C12 H3 126.2
C12 C13 C14 107.3(4)
C12 C13 H4 126.3
C14 C13 H4 126.3
N3 C14 C15 125.7(3)
N3 C14 C13 110.4(3)
C15 C14 C13 123.4(4)
C14 C15 C16 121.0(3)
C14 C15 C47 118.8(3)
C16 C15 C47 120.2(3)
N4 C16 C15 126.0(3)
N4 C16 C17 110.6(3)
C15 C16 C17 123.2(4)
C89 C17 C16 106.8(3)
C89 C17 H5 126.6
C16 C17 H5 126.6
C17 C89 C19 107.4(3)
C17 C89 H6 126.3
C19 C89 H6 126.3
C20 C19 N4 126.3(3)
C20 C19 C89 123.3(3)
N4 C19 C89 110.3(3)
C19 C20 C1 122.7(3)
C19 C20 C61 117.7(3)
C1 C20 C61 119.6(3)
C26 C21 C22 118.8(3)
C26 C21 C3 122.3(3)
C22 C21 C3 118.3(3)
C21 C22 C23 118.5(3)
C21 C22 N5 119.5(3)
C23 C22 N5 121.8(3)
C24 C23 C22 120.5(3)
C24 C23 H7 119.7
C22 C23 H7 119.7
C23 C24 C25 120.5(4)
C23 C24 H8 119.7
C25 C24 H8 119.7
C26 C25 C24 119.0(4)
C26 C25 H9 120.5
C24 C25 H9 120.5
C25 C26 C21 121.8(4)
C25 C26 H10 119.1
C21 C26 H10 119.1
C28 C27 C32 119.6(3)
C28 C27 C7 118.7(3)
C32 C27 C7 121.5(3)
C27 C28 C29 118.2(3)
C27 C28 N5 119.7(3)
C29 C28 N5 121.9(3)
C30 C29 C28 120.7(3)
C30 C29 H11 119.6
C28 C29 H11 119.6
C29 C30 C31 120.9(4)
C29 C30 H12 119.6
C31 C30 H12 119.6
C32 C31 C30 119.3(3)
C32 C31 H13 120.4
C30 C31 H13 120.4
C31 C32 C27 120.8(3)
C31 C32 H14 119.6
C27 C32 H14 119.6
C34 C33 C38 119.3(4)
C34 C33 C10 122.1(3)
C38 C33 C10 118.6(3)
C33 C34 C35 120.8(4)
C33 C34 H15 119.6
C35 C34 H15 119.6
C36 C35 C34 118.2(4)
C36 C35 C39 121.7(4)
C34 C35 C39 120.1(4)
C35 C36 C37 122.1(4)
C35 C36 H16 118.9
C37 C36 H16 118.9
C38 C37 C36 117.4(4)
C38 C37 C43 120.6(4)
C36 C37 C43 121.9(4)
C37 C38 C33 122.1(4)
C37 C38 H17 118.9
C33 C38 H17 118.9
C40 C39 C41 111.1(5)
C40 C39 C35 109.9(4)
C41 C39 C35 112.2(4)
C40 C39 C42 111.6(5)
C41 C39 C42 105.7(5)
C35 C39 C42 106.2(4)
C39 C40 H18 109.5
C39 C40 H19 109.5
H18 C40 H19 109.5
C39 C40 H20 109.5
H18 C40 H20 109.5
H19 C40 H20 109.5
C39 C41 H21 109.5
C39 C41 H22 109.5
H21 C41 H22 109.5
C39 C41 H23 109.5
H21 C41 H23 109.5
H22 C41 H23 109.5
C39 C42 H24 109.5
C39 C42 H25 109.5
H24 C42 H25 109.5
C39 C42 H26 109.5
H24 C42 H26 109.5
H25 C42 H26 109.5
C44 C43 C37 113.1(5)
C44 C43 C45 108.7(4)
C37 C43 C45 109.0(4)
C44 C43 C46 107.4(5)
C37 C43 C46 109.0(4)
C45 C43 C46 109.5(5)
C43 C44 H27 109.5
C43 C44 H28 109.5
H27 C44 H28 109.5
C43 C44 H29 109.5
H27 C44 H29 109.5
H28 C44 H29 109.5
C43 C45 H30 109.5
C43 C45 H31 109.5
H30 C45 H31 109.5
C43 C45 H32 109.5
H30 C45 H32 109.5
H31 C45 H32 109.5
C43 C46 H33 109.5
C43 C46 H34 109.5
H33 C46 H34 109.5
C43 C46 H35 109.5
H33 C46 H35 109.5
H34 C46 H35 109.5
C52 C47 C48 118.2(4)
C52 C47 C15 122.5(3)
C48 C47 C15 119.3(3)
C49 C48 C47 122.4(4)
C49 C48 H36 118.8
C47 C48 H36 118.8
C48 C49 C50 117.8(4)
C48 C49 C53 122.0(4)
C50 C49 C53 120.1(4)
C49 C50 C51 122.4(4)
C49 C50 H37 118.8
C51 C50 H37 118.8
C52 C51 C50 117.9(4)
C52 C51 C57 122.3(5)
C50 C51 C57 119.7(5)
C51 C52 C47 121.2(4)
C51 C52 H38 119.4
C47 C52 H38 119.4
C55 C53 C56 113.1(7)
C82 C53 C49 114.0(12)
C55 C53 C49 109.1(5)
C56 C53 C49 111.3(4)
C55 C53 C54 109.7(6)
C56 C53 C54 104.4(6)
C49 C53 C54 109.2(5)
C82 C53 C80 119.2(19)
C49 C53 C80 114.3(9)
C82 C53 C81 109(2)
C49 C53 C81 103.9(8)
C80 C53 C81 92.8(12)
C97 C57 C95 110.5(19)
C59 C57 C58 117.9(13)
C97 C57 C51 108.8(16)
C95 C57 C51 118.4(10)
C59 C57 C51 111.2(8)
C58 C57 C51 116.8(10)
C97 C57 C96 102(2)
C95 C57 C96 108.7(12)
C51 C57 C96 106.8(8)
C59 C57 C60 102.6(13)
C58 C57 C60 103.0(12)
C51 C57 C60 102.5(9)
C62 C61 C66 119.2(3)
C62 C61 C20 120.6(3)
C66 C61 C20 120.0(3)
C61 C62 C63 121.9(3)
C61 C62 H48 119.0
C63 C62 H48 119.0
C64 C63 C62 117.1(3)
C64 C63 C67 121.7(3)
C62 C63 C67 121.2(3)
C65 C64 C63 122.8(3)
C65 C64 H49 118.6
C63 C64 H49 118.6
C64 C65 C66 117.9(3)
C64 C65 C92 119.0(9)
C66 C65 C92 122.9(9)
C64 C65 C71 119.3(12)
C66 C65 C71 121.5(12)
C61 C66 C65 120.9(3)
C61 C66 H50 119.5
C65 C66 H50 119.5
C68 C67 C70 110.1(7)
C79 C67 C78 110.6(9)
C68 C67 C63 109.3(5)
C70 C67 C63 112.4(4)
C79 C67 C63 114.6(5)
C78 C67 C63 109.0(5)
C68 C67 C69 108.6(7)
C70 C67 C69 107.2(6)
C63 C67 C69 109.1(4)
C79 C67 C77 106.0(7)
C78 C67 C77 106.8(6)
C63 C67 C77 109.6(5)
C4 N1 C1 103.2(3)
C4 N1 Ni1 128.2(2)
C1 N1 Ni1 128.6(2)
C6 N2 C9 103.4(3)
C6 N2 Ni1 128.1(2)
C9 N2 Ni1 128.4(3)
C14 N3 C11 104.4(3)
C14 N3 Ni1 128.0(2)
C11 N3 Ni1 127.6(3)
C16 N4 C19 104.7(3)
C16 N4 Ni1 128.1(2)
C19 N4 Ni1 127.2(3)
C5 N5 C28 119.6(3)
C5 N5 C22 119.4(3)
C28 N5 C22 121.0(3)
N3 Ni1 N4 89.96(13)
N3 Ni1 N2 90.16(13)
N4 Ni1 N2 175.29(12)
N3 Ni1 N1 176.93(12)
N4 Ni1 N1 90.51(13)
N2 Ni1 N1 89.62(12)
C67 C68 H51 109.5
C67 C68 H52 109.5
H51 C68 H52 109.5
C67 C68 H53 109.5
H51 C68 H53 109.5
H52 C68 H53 109.5
C67 C69 H54 109.5
C67 C69 H55 109.5
H54 C69 H55 109.5
C67 C69 H56 109.5
H54 C69 H56 109.5
H55 C69 H56 109.5
C67 C70 H57 109.5
C67 C70 H58 109.5
H57 C70 H58 109.5
C67 C70 H59 109.5
H57 C70 H59 109.5
H58 C70 H59 109.5
C67 C77 H60 109.5
C67 C77 H61 109.5
H60 C77 H61 109.5
C67 C77 H62 109.5
H60 C77 H62 109.5
H61 C77 H62 109.5
C67 C78 H63 109.5
C67 C78 H64 109.5
H63 C78 H64 109.5
C67 C78 H65 109.5
H63 C78 H65 109.5
H64 C78 H65 109.5
C67 C79 H66 109.5
C67 C79 H67 109.5
H66 C79 H67 109.5
C67 C79 H68 109.5
H66 C79 H68 109.5
H67 C79 H68 109.5
C53 C54 H69 109.5
C53 C54 H70 109.5
H69 C54 H70 109.5
C53 C54 H71 109.5
H69 C54 H71 109.5
H70 C54 H71 109.5
C53 C55 H72 109.5
C53 C55 H73 109.5
H72 C55 H73 109.5
C53 C55 H74 109.5
H72 C55 H74 109.5
H73 C55 H74 109.5
C53 C56 H75 109.5
C53 C56 H76 109.5
H75 C56 H76 109.5
C53 C56 H77 109.5
H75 C56 H77 109.5
H76 C56 H77 109.5
C53 C80 H78 109.5
C53 C80 H79 109.5
H78 C80 H79 109.5
C53 C80 H80 109.5
H78 C80 H80 109.5
H79 C80 H80 109.5
C53 C81 H81 109.5
C53 C81 H82 109.5
H81 C81 H82 109.5
C53 C81 H83 109.5
H81 C81 H83 109.5
H82 C81 H83 109.5
C53 C82 H84 109.5
C53 C82 H85 109.5
H84 C82 H85 109.5
C53 C82 H86 109.5
H84 C82 H86 109.5
H85 C82 H86 109.5
Cl4 C86 Cl6 116.3(10)
Cl4 C86 Cl5 131.5(9)
Cl6 C86 Cl5 101.0(8)
Cl2 C85 Cl3 114.3(14)
Cl2 C85 Cl1 109.6(9)
Cl3 C85 Cl1 101.8(10)
N6 C84 C83 141.5(14)
N7 C87 C88 121(2)
C71 C74 H87 109.5
C71 C74 H88 109.5
H87 C74 H88 109.5
C71 C74 H89 109.5
H87 C74 H89 109.5
H88 C74 H89 109.5
C72 C71 C73 111(2)
C72 C71 C74 108(2)
C73 C71 C74 107(2)
C72 C71 C65 115(3)
C73 C71 C65 104(2)
C74 C71 C65 111(2)
C71 C73 H90 109.5
C71 C73 H91 109.5
H90 C73 H91 109.5
C71 C73 H92 109.5
H90 C73 H92 109.5
H91 C73 H92 109.5
C71 C72 H93 109.5
C71 C72 H94 109.5
H93 C72 H94 109.5
C71 C72 H95 109.5
H93 C72 H95 109.5
H94 C72 H95 109.5
C92 C94 H96 109.5
C92 C94 H97 109.5
H96 C94 H97 109.5
C92 C94 H98 109.5
H96 C94 H98 109.5
H97 C94 H98 109.5
C92 C93 H99 109.5
C92 C93 H100 109.5
H99 C93 H100 109.5
C92 C93 H101 109.5
H99 C93 H101 109.5
H100 C93 H101 109.5
C65 C92 C94 112.9(17)
C65 C92 C91 105(2)
C94 C92 C91 109.3(16)
C65 C92 C93 111.8(17)
C94 C92 C93 109.0(14)
C91 C92 C93 108.5(16)
C92 C91 H102 109.5
C92 C91 H103 109.5
H102 C91 H103 109.5
C92 C91 H104 109.5
H102 C91 H104 109.5
H103 C91 H104 109.5
C57 C58 H105 109.5
C57 C58 H106 109.5
H105 C58 H106 109.5
C57 C58 H107 109.5
H105 C58 H107 109.5
H106 C58 H107 109.5
C57 C59 H108 109.5
C57 C59 H109 109.5
H108 C59 H109 109.5
C57 C59 H110 109.5
H108 C59 H110 109.5
H109 C59 H110 109.5
C57 C60 H111 109.5
C57 C60 H112 109.5
H111 C60 H112 109.5
C57 C60 H113 109.5
H111 C60 H113 109.5
H112 C60 H113 109.5
C57 C95 H114 109.5
C57 C95 H115 109.5
H114 C95 H115 109.5
C57 C95 H116 109.5
H114 C95 H116 109.5
H115 C95 H116 109.5
C57 C96 H117 109.5
C57 C96 H118 109.5
H117 C96 H118 109.5
C57 C96 H119 109.5
H117 C96 H119 109.5
H118 C96 H119 109.5
C57 C97 H120 109.5
C57 C97 H121 109.5
H120 C97 H121 109.5
C57 C97 H122 109.5
H120 C97 H122 109.5
H121 C97 H122 109.5
loop_
_geom_bond_atom_site_label_1
_geom_bond_atom_site_label_2
_geom_bond_distance
C1 N1 1.396(4)
C1 C20 1.403(5)
C1 C2 1.411(5)
C2 C3 1.377(5)
C2 H1 0.9500
C3 C4 1.416(5)
C3 C21 1.440(5)
C4 N1 1.378(5)
C4 C5 1.390(5)
C5 C6 1.383(5)
C5 N5 1.407(5)
C6 N2 1.374(5)
C6 C7 1.423(5)
C7 C8 1.367(5)
C7 C27 1.434(5)
C8 C9 1.417(5)
C8 H2 0.9500
C9 C10 1.392(5)
C9 N2 1.393(4)
C10 C11 1.375(5)
C10 C33 1.498(5)
C11 N3 1.392(5)
C11 C12 1.432(6)
C12 C13 1.331(6)
C12 H3 0.9500
C13 C14 1.437(5)
C13 H4 0.9500
C14 N3 1.383(5)
C14 C15 1.390(5)
C15 C16 1.396(5)
C15 C47 1.483(5)
C16 N4 1.373(5)
C16 C17 1.445(5)
C17 C89 1.343(6)
C17 H5 0.9500
C89 C19 1.430(5)
C89 H6 0.9500
C19 C20 1.378(6)
C19 N4 1.394(5)
C20 C61 1.495(5)
C21 C26 1.401(5)
C21 C22 1.410(5)
C22 C23 1.410(5)
C22 N5 1.429(5)
C23 C24 1.378(5)
C23 H7 0.9500
C24 C25 1.398(6)
C24 H8 0.9500
C25 C26 1.370(6)
C25 H9 0.9500
C26 H10 0.9500
C27 C28 1.405(5)
C27 C32 1.410(5)
C28 C29 1.407(5)
C28 N5 1.428(4)
C29 C30 1.379(5)
C29 H11 0.9500
C30 C31 1.388(6)
C30 H12 0.9500
C31 C32 1.381(6)
C31 H13 0.9500
C32 H14 0.9500
C33 C34 1.388(6)
C33 C38 1.391(6)
C34 C35 1.397(5)
C34 H15 0.9500
C35 C36 1.396(6)
C35 C39 1.525(6)
C36 C37 1.405(6)
C36 H16 0.9500
C37 C38 1.381(6)
C37 C43 1.526(6)
C38 H17 0.9500
C39 C40 1.460(8)
C39 C41 1.509(7)
C39 C42 1.555(8)
C40 H18 0.9800
C40 H19 0.9800
C40 H20 0.9800
C41 H21 0.9800
C41 H22 0.9800
C41 H23 0.9800
C42 H24 0.9800
C42 H25 0.9800
C42 H26 0.9800
C43 C44 1.520(7)
C43 C45 1.533(7)
C43 C46 1.540(9)
C44 H27 0.9800
C44 H28 0.9800
C44 H29 0.9800
C45 H30 0.9800
C45 H31 0.9800
C45 H32 0.9800
C46 H33 0.9800
C46 H34 0.9800
C46 H35 0.9800
C47 C52 1.399(6)
C47 C48 1.399(6)
C48 C49 1.373(6)
C48 H36 0.9500
C49 C50 1.393(7)
C49 C53 1.547(6)
C50 C51 1.398(7)
C50 H37 0.9500
C51 C52 1.393(7)
C51 C57 1.540(7)
C52 H38 0.9500
C53 C82 1.27(2)
C53 C55 1.448(9)
C53 C56 1.531(10)
C53 C54 1.576(9)
C53 C80 1.64(2)
C53 C81 1.84(2)
C57 C97 1.29(4)
C57 C95 1.386(19)
C57 C59 1.456(18)
C57 C58 1.53(2)
C57 C96 1.74(2)
C57 C60 1.76(2)
C61 C62 1.377(5)
C61 C66 1.394(5)
C62 C63 1.402(5)
C62 H48 0.9500
C63 C64 1.393(5)
C63 C67 1.538(5)
C64 C65 1.390(5)
C64 H49 0.9500
C65 C66 1.398(5)
C65 C92 1.54(3)
C65 C71 1.55(4)
C66 H50 0.9500
C67 C68 1.499(10)
C67 C70 1.509(9)
C67 C79 1.520(12)
C67 C78 1.531(12)
C67 C69 1.541(10)
C67 C77 1.580(11)
N1 Ni1 1.949(3)
N2 Ni1 1.949(3)
N3 Ni1 1.940(3)
N4 Ni1 1.943(3)
C68 H51 0.9800
C68 H52 0.9800
C68 H53 0.9800
C69 H54 0.9800
C69 H55 0.9800
C69 H56 0.9800
C70 H57 0.9800
C70 H58 0.9800
C70 H59 0.9800
C77 H60 0.9800
C77 H61 0.9800
C77 H62 0.9800
C78 H63 0.9800
C78 H64 0.9800
C78 H65 0.9800
C79 H66 0.9800
C79 H67 0.9800
C79 H68 0.9800
C54 H69 0.9800
C54 H70 0.9800
C54 H71 0.9800
C55 H72 0.9800
C55 H73 0.9800
C55 H74 0.9800
C56 H75 0.9800
C56 H76 0.9800
C56 H77 0.9800
C80 H78 0.9800
C80 H79 0.9800
C80 H80 0.9800
C81 H81 0.9800
C81 H82 0.9800
C81 H83 0.9800
C82 H84 0.9800
C82 H85 0.9800
C82 H86 0.9800
Cl1 C85 2.16(2)
Cl2 C85 1.27(2)
Cl4 C86 1.446(12)
Cl5 C86 1.730(14)
Cl3 C85 1.739(17)
C86 Cl6 1.726(15)
C83 C84 1.22(3)
C84 N6 1.168(17)
C87 N7 1.07(3)
C87 C88 1.41(4)
C74 C71 1.55(3)
C74 H87 0.9800
C74 H88 0.9800
C74 H89 0.9800
C71 C72 1.50(3)
C71 C73 1.55(3)
C73 H90 0.9800
C73 H91 0.9800
C73 H92 0.9800
C72 H93 0.9800
C72 H94 0.9800
C72 H95 0.9800
C94 C92 1.535(18)
C94 H96 0.9800
C94 H97 0.9800
C94 H98 0.9800
C93 C92 1.541(18)
C93 H99 0.9800
C93 H100 0.9800
C93 H101 0.9800
C92 C91 1.535(18)
C91 H102 0.9800
C91 H103 0.9800
C91 H104 0.9800
C58 H105 0.9800
C58 H106 0.9800
C58 H107 0.9800
C59 H108 0.9800
C59 H109 0.9800
C59 H110 0.9800
C60 H111 0.9800
C60 H112 0.9800
C60 H113 0.9800
C95 H114 0.9800
C95 H115 0.9800
C95 H116 0.9800
C96 H117 0.9800
C96 H118 0.9800
C96 H119 0.9800
C97 H120 0.9800
C97 H121 0.9800
C97 H122 0.9800
loop_
_geom_hbond_atom_site_label_D
_geom_hbond_atom_site_label_H
_geom_hbond_atom_site_label_A
_geom_hbond_distance_DH
_geom_hbond_distance_HA
_geom_hbond_distance_DA
_geom_hbond_angle_DHA
_geom_hbond_site_symmetry_A
C13 H4 Cl4 0.95 2.80 3.437(6) 125.5 3_545
loop_
_geom_torsion_atom_site_label_1
_geom_torsion_atom_site_label_2
_geom_torsion_atom_site_label_3
_geom_torsion_atom_site_label_4
_geom_torsion
N1 C1 C2 C3 2.7(4)
C20 C1 C2 C3 -171.2(3)
C1 C2 C3 C4 -2.4(4)
C1 C2 C3 C21 165.7(4)
C2 C3 C4 N1 1.5(4)
C21 C3 C4 N1 -168.7(3)
C2 C3 C4 C5 179.2(3)
C21 C3 C4 C5 9.1(5)
N1 C4 C5 C6 -2.0(5)
C3 C4 C5 C6 -179.4(3)
N1 C4 C5 N5 175.0(3)
C3 C4 C5 N5 -2.4(5)
C4 C5 C6 N2 1.6(5)
N5 C5 C6 N2 -175.4(3)
C4 C5 C6 C7 177.7(3)
N5 C5 C6 C7 0.7(5)
N2 C6 C7 C8 1.7(4)
C5 C6 C7 C8 -174.9(3)
N2 C6 C7 C27 -174.7(3)
C5 C6 C7 C27 8.7(5)
C6 C7 C8 C9 -1.4(4)
C27 C7 C8 C9 174.2(4)
C7 C8 C9 C10 -177.9(3)
C7 C8 C9 N2 0.8(4)
N2 C9 C10 C11 -4.3(5)
C8 C9 C10 C11 174.2(3)
N2 C9 C10 C33 172.7(3)
C8 C9 C10 C33 -8.8(5)
C9 C10 C11 N3 8.4(6)
C33 C10 C11 N3 -168.6(3)
C9 C10 C11 C12 -172.1(3)
C33 C10 C11 C12 11.0(5)
C10 C11 C12 C13 -179.0(4)
N3 C11 C12 C13 0.6(4)
C11 C12 C13 C14 1.2(4)
C12 C13 C14 N3 -2.7(4)
C12 C13 C14 C15 169.2(3)
N3 C14 C15 C16 -1.2(5)
C13 C14 C15 C16 -171.8(3)
N3 C14 C15 C47 -179.1(3)
C13 C14 C15 C47 10.3(5)
C14 C15 C16 N4 -9.1(5)
C47 C15 C16 N4 168.7(3)
C14 C15 C16 C17 176.1(3)
C47 C15 C16 C17 -6.1(5)
N4 C16 C17 C89 -0.9(4)
C15 C16 C17 C89 174.6(3)
C16 C17 C89 C19 -1.6(4)
C17 C89 C19 C20 -172.7(3)
C17 C89 C19 N4 3.6(4)
N4 C19 C20 C1 5.7(6)
C89 C19 C20 C1 -178.7(3)
N4 C19 C20 C61 -176.3(3)
C89 C19 C20 C61 -0.6(5)
N1 C1 C20 C19 2.3(5)
C2 C1 C20 C19 175.5(3)
N1 C1 C20 C61 -175.7(3)
C2 C1 C20 C61 -2.6(5)
C2 C3 C21 C26 3.4(6)
C4 C3 C21 C26 170.2(3)
C2 C3 C21 C22 -168.0(4)
C4 C3 C21 C22 -1.2(5)
C26 C21 C22 C23 -9.5(5)
C3 C21 C22 C23 162.2(3)
C26 C21 C22 N5 175.3(3)
C3 C21 C22 N5 -12.9(5)
C21 C22 C23 C24 8.8(5)
N5 C22 C23 C24 -176.1(3)
C22 C23 C24 C25 -1.4(6)
C23 C24 C25 C26 -5.3(6)
C24 C25 C26 C21 4.5(6)
C22 C21 C26 C25 2.9(6)
C3 C21 C26 C25 -168.4(4)
C8 C7 C27 C28 179.4(4)
C6 C7 C27 C28 -5.4(5)
C8 C7 C27 C32 -4.6(6)
C6 C7 C27 C32 170.6(3)
C32 C27 C28 C29 -6.8(5)
C7 C27 C28 C29 169.3(3)
C32 C27 C28 N5 177.0(3)
C7 C27 C28 N5 -6.9(5)
C27 C28 C29 C30 7.7(5)
N5 C28 C29 C30 -176.2(3)
C28 C29 C30 C31 -2.9(5)
C29 C30 C31 C32 -3.0(5)
C30 C31 C32 C27 3.9(5)
C28 C27 C32 C31 1.1(5)
C7 C27 C32 C31 -174.9(3)
C11 C10 C33 C34 -114.4(4)
C9 C10 C33 C34 68.5(5)
C11 C10 C33 C38 66.1(5)
C9 C10 C33 C38 -111.0(4)
C38 C33 C34 C35 0.6(6)
C10 C33 C34 C35 -178.9(4)
C33 C34 C35 C36 -0.6(6)
C33 C34 C35 C39 178.8(4)
C34 C35 C36 C37 0.1(6)
C39 C35 C36 C37 -179.4(4)
C35 C36 C37 C38 0.5(6)
C35 C36 C37 C43 -178.3(4)
C36 C37 C38 C33 -0.5(6)
C43 C37 C38 C33 178.3(4)
C34 C33 C38 C37 -0.1(6)
C10 C33 C38 C37 179.5(4)
C36 C35 C39 C40 -120.1(5)
C34 C35 C39 C40 60.4(6)
C36 C35 C39 C41 4.0(7)
C34 C35 C39 C41 -175.4(5)
C36 C35 C39 C42 119.1(5)
C34 C35 C39 C42 -60.4(6)
C38 C37 C43 C44 177.9(5)
C36 C37 C43 C44 -3.4(7)
C38 C37 C43 C45 56.8(6)
C36 C37 C43 C45 -124.5(5)
C38 C37 C43 C46 -62.7(6)
C36 C37 C43 C46 116.0(6)
C14 C15 C47 C52 -121.3(4)
C16 C15 C47 C52 60.9(5)
C14 C15 C47 C48 59.0(5)
C16 C15 C47 C48 -118.9(4)
C52 C47 C48 C49 0.8(6)
C15 C47 C48 C49 -179.4(4)
C47 C48 C49 C50 -2.4(7)
C47 C48 C49 C53 176.2(4)
C48 C49 C50 C51 1.2(8)
C53 C49 C50 C51 -177.4(5)
C49 C50 C51 C52 1.6(9)
C49 C50 C51 C57 -175.8(6)
C50 C51 C52 C47 -3.3(8)
C57 C51 C52 C47 174.0(5)
C48 C47 C52 C51 2.1(7)
C15 C47 C52 C51 -177.6(4)
C48 C49 C53 C82 58(3)
C50 C49 C53 C82 -124(3)
C48 C49 C53 C55 -116.9(7)
C50 C49 C53 C55 61.6(8)
C48 C49 C53 C56 8.5(8)
C50 C49 C53 C56 -172.9(6)
C48 C49 C53 C54 123.2(6)
C50 C49 C53 C54 -58.2(7)
C48 C49 C53 C80 -160.4(10)
C50 C49 C53 C80 18.2(12)
C48 C49 C53 C81 -60.8(9)
C50 C49 C53 C81 117.7(9)
C52 C51 C57 C97 14(2)
C50 C51 C57 C97 -168(2)
C52 C51 C57 C95 141.7(13)
C50 C51 C57 C95 -41.0(14)
C52 C51 C57 C59 -134.3(16)
C50 C51 C57 C59 42.9(17)
C52 C51 C57 C58 4.9(13)
C50 C51 C57 C58 -177.8(10)
C52 C51 C57 C96 -95.3(16)
C50 C51 C57 C96 81.9(17)
C52 C51 C57 C60 116.6(10)
C50 C51 C57 C60 -66.1(11)
C19 C20 C61 C62 62.9(5)
C1 C20 C61 C62 -119.0(4)
C19 C20 C61 C66 -113.3(4)
C1 C20 C61 C66 64.8(5)
C66 C61 C62 C63 2.2(6)
C20 C61 C62 C63 -174.1(4)
C61 C62 C63 C64 -0.8(6)
C61 C62 C63 C67 177.0(4)
C62 C63 C64 C65 -1.4(6)
C67 C63 C64 C65 -179.2(4)
C63 C64 C65 C66 2.2(6)
C63 C64 C65 C92 -173.7(8)
C63 C64 C65 C71 170.1(12)
C62 C61 C66 C65 -1.3(6)
C20 C61 C66 C65 175.0(4)
C64 C65 C66 C61 -0.8(6)
C92 C65 C66 C61 175.0(8)
C71 C65 C66 C61 -168.4(12)
C64 C63 C67 C68 -120.8(7)
C62 C63 C67 C68 61.5(7)
C64 C63 C67 C70 1.8(7)
C62 C63 C67 C70 -176.0(6)
C64 C63 C67 C79 -170.8(8)
C62 C63 C67 C79 11.5(9)
C64 C63 C67 C78 64.7(7)
C62 C63 C67 C78 -113.0(6)
C64 C63 C67 C69 120.5(6)
C62 C63 C67 C69 -57.2(6)
C64 C63 C67 C77 -51.8(6)
C62 C63 C67 C77 130.5(6)
C5 C4 N1 C1 -177.4(3)
C3 C4 N1 C1 0.2(4)
C5 C4 N1 Ni1 1.3(5)
C3 C4 N1 Ni1 178.8(2)
C20 C1 N1 C4 172.2(3)
C2 C1 N1 C4 -1.7(4)
C20 C1 N1 Ni1 -6.5(5)
C2 C1 N1 Ni1 179.6(2)
C5 C6 N2 C9 175.1(3)
C7 C6 N2 C9 -1.2(4)
C5 C6 N2 Ni1 -0.5(5)
C7 C6 N2 Ni1 -176.8(2)
C10 C9 N2 C6 178.9(3)
C8 C9 N2 C6 0.3(4)
C10 C9 N2 Ni1 -5.5(5)
C8 C9 N2 Ni1 175.9(2)
C15 C14 N3 C11 -168.7(3)
C13 C14 N3 C11 3.0(4)
C15 C14 N3 Ni1 11.3(5)
C13 C14 N3 Ni1 -177.1(2)
C10 C11 N3 C14 177.4(3)
C12 C11 N3 C14 -2.2(4)
C10 C11 N3 Ni1 -2.6(5)
C12 C11 N3 Ni1 177.8(2)
C15 C16 N4 C19 -172.3(3)
C17 C16 N4 C19 3.0(4)
C15 C16 N4 Ni1 8.9(5)
C17 C16 N4 Ni1 -175.7(2)
C20 C19 N4 C16 172.1(3)
C89 C19 N4 C16 -4.0(4)
C20 C19 N4 Ni1 -9.1(5)
C89 C19 N4 Ni1 174.8(2)
C6 C5 N5 C28 -13.2(4)
C4 C5 N5 C28 169.8(3)
C6 C5 N5 C22 165.1(3)
C4 C5 N5 C22 -11.9(4)
C27 C28 N5 C5 16.4(4)
C29 C28 N5 C5 -159.7(3)
C27 C28 N5 C22 -161.9(3)
C29 C28 N5 C22 22.0(4)
C21 C22 N5 C5 19.7(4)
C23 C22 N5 C5 -155.2(3)
C21 C22 N5 C28 -161.9(3)
C23 C22 N5 C28 23.1(5)
C64 C65 C71 C72 -55(2)
C66 C65 C71 C72 112(2)
C64 C65 C71 C73 66.9(18)
C66 C65 C71 C73 -125.7(15)
C64 C65 C71 C74 -178.3(11)
C66 C65 C71 C74 -11(2)
C64 C65 C92 C94 172.7(8)
C66 C65 C92 C94 -3.0(14)
C64 C65 C92 C91 -68.2(14)
C66 C65 C92 C91 116.1(13)
C64 C65 C92 C93 49.5(15)
C66 C65 C92 C93 -126.3(13)
