#------------------------------------------------------------------------------
#$Date: 2019-08-21 10:00:15 +0300 (Wed, 21 Aug 2019) $
#$Revision: 217633 $
#$URL: file:///home/coder/svn-repositories/cod/cif/1/54/37/1543759.cif $
#------------------------------------------------------------------------------
#
# This file is available in the Crystallography Open Database (COD),
# http://www.crystallography.net/
#
# All data on this site have been placed in the public domain by the
# contributors.
#
data_1543759
loop_
_publ_author_name
'Fukui, Norihito'
'Cha, Wonhee'
'Shimizu, Daiki'
'Oh, Juwon'
'Furukawa, Ko'
'Yorimitsu, Hideki'
'Kim, Dongho'
'Osuka, Atsuhiro'
_publ_section_title
;
 Highly planar diarylamine-fused porphyrins and their remarkably stable
 radical cations.
;
_journal_issue                   1
_journal_name_full               'Chemical science'
_journal_page_first              189
_journal_page_last               199
_journal_paper_doi               10.1039/c6sc02721k
_journal_volume                  8
_journal_year                    2017
_chemical_formula_moiety         'C74 H73 Cl2 N5 Ni O, 0.75(C H Cl3)'
_chemical_formula_sum            'C74.75 H73.75 Cl4.25 N5 Ni O'
_chemical_formula_weight         1267.50
_chemical_name_systematic        8
_space_group_crystal_system      triclinic
_space_group_IT_number           2
_space_group_name_Hall           '-P 1'
_space_group_name_H-M_alt        'P -1'
_symmetry_space_group_name_Hall  '-P 1'
_symmetry_space_group_name_H-M   'P -1'
_atom_sites_solution_hydrogens   geom
_audit_creation_method           SHELXL-2014/7
_audit_update_record
;
2016-03-17 deposited with the CCDC.
2016-08-01 downloaded from the CCDC.
;
_cell_angle_alpha                62.0374(10)
_cell_angle_beta                 79.030(16)
_cell_angle_gamma                87.782(14)
_cell_formula_units_Z            4
_cell_length_a                   18.141(3)
_cell_length_b                   20.0791(19)
_cell_length_c                   20.299(2)
_cell_measurement_reflns_used    3163
_cell_measurement_temperature    93(2)
_cell_measurement_theta_max      68.2
_cell_measurement_theta_min      25.2
_cell_volume                     6400.6(14)
_computing_structure_refinement  'SHELXL-2014/7 (Sheldrick, 2014)'
_diffrn_ambient_temperature      93(2)
_diffrn_detector_area_resol_mean 5.8140
_diffrn_measured_fraction_theta_full 0.974
_diffrn_measured_fraction_theta_max 0.970
_diffrn_measurement_device_type  'Rigaku XtaLAB P200'
_diffrn_measurement_method       \w
_diffrn_radiation_monochromator  graphite
_diffrn_radiation_source         'fine-focus sealed tube'
_diffrn_radiation_type           CuK\a
_diffrn_radiation_wavelength     1.54187
_diffrn_reflns_av_R_equivalents  0.0824
_diffrn_reflns_av_unetI/netI     0.0773
_diffrn_reflns_Laue_measured_fraction_full 0.974
_diffrn_reflns_Laue_measured_fraction_max 0.970
_diffrn_reflns_limit_h_max       21
_diffrn_reflns_limit_h_min       -21
_diffrn_reflns_limit_k_max       24
_diffrn_reflns_limit_k_min       -24
_diffrn_reflns_limit_l_max       24
_diffrn_reflns_limit_l_min       -20
_diffrn_reflns_number            84046
_diffrn_reflns_point_group_measured_fraction_full 0.974
_diffrn_reflns_point_group_measured_fraction_max 0.970
_diffrn_reflns_theta_full        67.687
_diffrn_reflns_theta_max         68.360
_diffrn_reflns_theta_min         6.572
_exptl_absorpt_coefficient_mu    2.451
_exptl_absorpt_correction_T_max  1.000
_exptl_absorpt_correction_T_min  0.835
_exptl_absorpt_correction_type   multi-scan
_exptl_absorpt_process_details   'REQAB (Rigaku, 1998)'
_exptl_crystal_colour            Green
_exptl_crystal_density_diffrn    1.315
_exptl_crystal_density_method    'not measured'
_exptl_crystal_description       Prism
_exptl_crystal_F_000             2662
_exptl_crystal_size_max          0.230
_exptl_crystal_size_mid          0.130
_exptl_crystal_size_min          0.020
_refine_diff_density_max         1.791
_refine_diff_density_min         -0.739
_refine_diff_density_rms         0.109
_refine_ls_extinction_method     none
_refine_ls_goodness_of_fit_ref   1.045
_refine_ls_hydrogen_treatment    constr
_refine_ls_matrix_type           full
_refine_ls_number_parameters     1586
_refine_ls_number_reflns         22782
_refine_ls_number_restraints     288
_refine_ls_restrained_S_all      1.068
_refine_ls_R_factor_all          0.1256
_refine_ls_R_factor_gt           0.0791
_refine_ls_shift/su_max          0.137
_refine_ls_shift/su_mean         0.001
_refine_ls_structure_factor_coef Fsqd
_refine_ls_weighting_details
'w=1/[\s^2^(Fo^2^)+(0.1450P)^2^] where P=(Fo^2^+2Fc^2^)/3'
_refine_ls_weighting_scheme      calc
_refine_ls_wR_factor_gt          0.2204
_refine_ls_wR_factor_ref         0.2451
_reflns_Friedel_coverage         0.000
_reflns_number_gt                13168
_reflns_number_total             22782
_reflns_threshold_expression     'I > 2\s(I)'
_cod_data_source_file            c6sc02721k2.cif
_cod_data_source_block           50727NF
_cod_depositor_comments
;
The following automatic conversions were performed:

'_exptl_absorpt_correction_type' value 'Multi-scan' changed to
'multi-scan' according to
/usr/data/users/saulius/crontab/automatic-downloads/rss-feeds/RSC/lib/dictionaries/cif_core.dic
dictionary named 'cif_core.dic' version 2.4.2 from 2011-04-26.

Automatic conversion script
Id: cif_fix_values 4268 2015-11-12 08:31:59Z antanas 

 Adding full bibliography for 1543756--1543762.cif.

 Adding full bibliography for 1543756--1543762.cif.

2019-08-14
Z value and formula fixed to values more according to usual
chemical conventions.                 miguel
;
_cod_original_formula_weight         2535.01
_cod_original_formula_moiety         '2(C74 H73 Cl2 N5 Ni O), 1.5(C H Cl3)'
_cod_original_formula_units_Z            2
_cod_original_formula_sum        'C149.50 H147.50 Cl8.50 N10 Ni2 O2'
_cod_database_code               1543759
_shelx_shelxl_version_number     2014/7
_shelx_space_group_comment
;
The symmetry employed for this shelxl refinement is uniquely defined
by the following loop, which should always be used as a source of
symmetry information in preference to the above space-group names.
They are only intended as comments.
;
_shelx_estimated_absorpt_t_min   0.603
_shelx_estimated_absorpt_t_max   0.953
_shelx_res_file
;

    50727NF.res created by SHELXL-2014/7

TITL _150727fukui
REM  Yadorkari-X generated
CELL 1.54187 18.1410 20.0791 20.2990 62.0374 79.0300 87.7820
ZERR 2.0 0.0030 0.0019 0.0020 0.0010 0.0160 0.0140
LATT 1
REM  SPGR P-1 triclinic
SFAC C H N O Cl Ni
UNIT 299 295 20 4 17 4
SIZE 0.23 0.13 0.02
TEMP -180.0
L.S. 10
FMAP 2
PLAN -25
ACTA
CONF
LIST 4
MERG 2

SIMU 0.03 C150 Cl8 Cl9 Cl10
ISOR 0.03 C150 Cl8 Cl9 Cl10
SIMU 0.03 C149 Cl5 Cl6 Cl7 Cl11 Cl12
ISOR 0.03 C149 Cl5 Cl6 Cl7 Cl11 Cl12
SIMU 0.01 C61 C62 C63 C64 C65 C66 C67 C68 C69 C70 C71 C72 C73 C74
ISOR 0.01 C61 C62 C63 C64 C65 C66 C67 C68 C69 C70 C71 C72 C73 C74

WGHT    0.145000
FVAR       0.30175   0.12917
C1    1    0.037330    0.205585    0.455064    11.00000    0.03938    0.02926 =
         0.01906   -0.00585   -0.00769    0.00195
C2    1    0.093734    0.224115    0.389703    11.00000    0.03938    0.03029 =
         0.01813   -0.00501   -0.00161    0.00034
C3    1    0.125752    0.158742    0.396706    11.00000    0.03704    0.03988 =
         0.01717   -0.01010   -0.00532   -0.00178
C4    1    0.087064    0.100800    0.466964    11.00000    0.03537    0.02977 =
         0.01599   -0.00919   -0.00779    0.00280
C5    1    0.107802    0.027110    0.494054    11.00000    0.03219    0.03029 =
         0.01851   -0.01290   -0.00494    0.00129
C6    1    0.071406   -0.030780    0.564667    11.00000    0.03505    0.02852 =
         0.01863   -0.01216   -0.00836    0.00600
C7    1    0.095670   -0.105764    0.592952    11.00000    0.03596    0.02876 =
         0.02363   -0.01166   -0.00904    0.00438
C8    1    0.051972   -0.144791    0.664619    11.00000    0.03783    0.03032 =
         0.02647   -0.01238   -0.00817    0.00621
C9    1    0.003669   -0.093515    0.678031    11.00000    0.03214    0.02536 =
         0.02380   -0.00579   -0.00872    0.00144
C10   1   -0.048957   -0.111101    0.745151    11.00000    0.03442    0.02562 =
         0.02227   -0.00643   -0.00507   -0.00062
C11   1   -0.103204   -0.062298    0.749055    11.00000    0.03207    0.02695 =
         0.01940   -0.00703   -0.00435   -0.00019
C12   1   -0.162046   -0.082728    0.813953    11.00000    0.04030    0.02785 =
         0.01947   -0.00469   -0.00292    0.00177
AFIX  43
H1    2   -0.169472   -0.129769    0.859167    11.00000   -1.20000
AFIX   0
C13   1   -0.204795   -0.023639    0.799539    11.00000    0.03139    0.03466 =
         0.02489   -0.01018   -0.00450   -0.00057
AFIX  43
H2    2   -0.249176   -0.021471    0.831808    11.00000   -1.20000
AFIX   0
C14   1   -0.171075    0.036159    0.725980    11.00000    0.02963    0.03388 =
         0.02064   -0.01127   -0.00532   -0.00049
C15   1   -0.192979    0.109133    0.698387    11.00000    0.02827    0.03257 =
         0.02472   -0.01311   -0.00820    0.00223
C16   1   -0.151580    0.168048    0.632376    11.00000    0.02953    0.03515 =
         0.02057   -0.01169   -0.00849    0.00649
C17   1   -0.168113    0.245893    0.605389    11.00000    0.03910    0.03069 =
         0.03093   -0.01266   -0.00927    0.01008
AFIX  43
H3    2   -0.208841    0.265162    0.627041    11.00000   -1.20000
AFIX   0
C18   1   -0.115723    0.285842    0.544462    11.00000    0.04707    0.02624 =
         0.02949   -0.00639   -0.01069    0.00878
AFIX  43
H4    2   -0.111728    0.339243    0.514515    11.00000   -1.20000
AFIX   0
C19   1   -0.066308    0.233809    0.532070    11.00000    0.03677    0.02924 =
         0.02349   -0.00928   -0.00973    0.00749
C20   1   -0.006834    0.256486    0.471750    11.00000    0.04402    0.03141 =
         0.02097   -0.00661   -0.00839    0.00663
C21   1    0.187860    0.140999    0.352531    11.00000    0.03540    0.03791 =
         0.01935   -0.01391   -0.00341    0.00123
C22   1    0.231228    0.195934    0.282840    11.00000    0.04306    0.04134 =
         0.02024   -0.01069   -0.00616    0.00019
AFIX  43
H5    2    0.218094    0.247083    0.262015    11.00000   -1.20000
AFIX   0
C23   1    0.291775    0.176152    0.245223    11.00000    0.04308    0.04813 =
         0.02146   -0.01511   -0.00044   -0.00349
AFIX  43
H6    2    0.320466    0.213391    0.198709    11.00000   -1.20000
AFIX   0
C24   1    0.310893    0.101607    0.275380    11.00000    0.03944    0.05815 =
         0.02483   -0.02276   -0.00061    0.00133
AFIX  43
H7    2    0.352471    0.087711    0.249053    11.00000   -1.20000
AFIX   0
C25   1    0.269977    0.047228    0.343488    11.00000    0.03599    0.04351 =
         0.02424   -0.01943   -0.00686    0.00362
C26   1    0.208110    0.066547    0.382161    11.00000    0.03394    0.04258 =
         0.02019   -0.01786   -0.00683    0.00131
C27   1    0.157152   -0.124210    0.548756    11.00000    0.04040    0.03362 =
         0.02369   -0.01398   -0.01084    0.00767
C28   1    0.183533   -0.196724    0.571685    11.00000    0.04470    0.03561 =
         0.02870   -0.01469   -0.00720    0.00711
AFIX  43
H8    2    0.158574   -0.237680    0.617766    11.00000   -1.20000
AFIX   0
C29   1    0.244296   -0.209571    0.529123    11.00000    0.05183    0.03839 =
         0.03956   -0.02198   -0.01619    0.01600
AFIX  43
H9    2    0.261780   -0.259024    0.545782    11.00000   -1.20000
AFIX   0
C30   1    0.280477   -0.150507    0.461636    11.00000    0.03864    0.05373 =
         0.03309   -0.02666   -0.01131    0.01633
AFIX  43
H10   2    0.323296   -0.159425    0.432335    11.00000   -1.20000
AFIX   0
C31   1    0.255327   -0.079787    0.436834    11.00000    0.03649    0.04759 =
         0.02250   -0.02148   -0.00547    0.00662
C32   1    0.192522   -0.064477    0.479462    11.00000    0.03471    0.03875 =
         0.02507   -0.01955   -0.00846    0.00681
C33   1   -0.043287   -0.179773    0.817829    11.00000    0.03217    0.03139 =
         0.01959   -0.00809   -0.00253    0.00353
C34   1    0.008912   -0.175470    0.857782    11.00000    0.03732    0.03848 =
         0.02487   -0.00949   -0.00173   -0.00155
AFIX  43
H11   2    0.040380   -0.130777    0.837080    11.00000   -1.20000
AFIX   0
C35   1    0.015859   -0.235290    0.927349    11.00000    0.03388    0.05222 =
         0.02162   -0.01159   -0.00258    0.00652
C36   1   -0.030469   -0.300241    0.955528    11.00000    0.03921    0.04128 =
         0.02087   -0.00249   -0.00329    0.00753
AFIX  43
H12   2   -0.025198   -0.342094    1.002541    11.00000   -1.20000
AFIX   0
C37   1   -0.084378   -0.306519    0.917646    11.00000    0.03498    0.03019 =
         0.02313   -0.00631   -0.00051    0.00917
C38   1   -0.090447   -0.244520    0.848378    11.00000    0.03180    0.02866 =
         0.02413   -0.00892   -0.00494    0.00378
AFIX  43
H13   2   -0.127300   -0.246544    0.821696    11.00000   -1.20000
AFIX   0
C39   1    0.073238   -0.232227    0.973463    11.00000    0.03870    0.07620 =
         0.02948   -0.01572   -0.01059   -0.00205
C40   1    0.033485   -0.248556    1.051915    11.00000    0.05602    0.10038 =
         0.04224   -0.03939   -0.01475    0.01129
AFIX  33
H39   2   -0.005993   -0.212943    1.048224    11.00000   -1.50000
H40   2    0.010861   -0.300264    1.079154    11.00000   -1.50000
H41   2    0.069646   -0.243117    1.079564    11.00000   -1.50000
AFIX   0
C41   1    0.133504   -0.282997    0.973439    11.00000    0.06851    0.20724 =
         0.11799   -0.12313   -0.06381    0.07773
AFIX  33
H42   2    0.157213   -0.269601    0.920891    11.00000   -1.50000
H43   2    0.171188   -0.278094    0.999910    11.00000   -1.50000
H44   2    0.112403   -0.335241    0.999499    11.00000   -1.50000
AFIX   0
C42   1    0.107692   -0.149279    0.938675    11.00000    0.08578    0.12568 =
         0.05276   -0.02458   -0.02276   -0.03775
AFIX  33
H45   2    0.067230   -0.115529    0.938796    11.00000   -1.50000
H46   2    0.142841   -0.147825    0.969208    11.00000   -1.50000
H47   2    0.134476   -0.132791    0.886342    11.00000   -1.50000
AFIX   0
C43   1   -0.134560   -0.379209    0.953720    11.00000    0.04039    0.03268 =
         0.02719   -0.00259   -0.00260    0.00458
C44   1   -0.085838   -0.445639    0.963985    11.00000    0.06520    0.03995 =
         0.08037   -0.01695   -0.00584    0.00884
AFIX  33
H48   2   -0.057179   -0.437092    0.914346    11.00000   -1.50000
H49   2   -0.051002   -0.450387    0.997204    11.00000   -1.50000
H50   2   -0.117999   -0.492161    0.987007    11.00000   -1.50000
AFIX   0
C45   1   -0.179310   -0.392436    1.031091    11.00000    0.05162    0.06085 =
         0.02952   -0.00752   -0.00107   -0.00616
AFIX  33
H51   2   -0.210617   -0.349680    1.024414    11.00000   -1.50000
H52   2   -0.211499   -0.438942    1.054134    11.00000   -1.50000
H53   2   -0.144502   -0.397168    1.064331    11.00000   -1.50000
AFIX   0
C46   1   -0.190360   -0.375539    0.904264    11.00000    0.05956    0.03968 =
         0.03657   -0.00771   -0.00420   -0.01287
AFIX  33
H54   2   -0.222391   -0.333126    0.896860    11.00000   -1.50000
H55   2   -0.162639   -0.368388    0.854785    11.00000   -1.50000
H56   2   -0.221726   -0.422758    0.929530    11.00000   -1.50000
AFIX   0
C47   1   -0.256611    0.127741    0.744056    11.00000    0.03084    0.03003 =
         0.02164   -0.00752   -0.00514    0.00280
C48   1   -0.329548    0.099915    0.756267    11.00000    0.03483    0.04019 =
         0.02934   -0.01924   -0.00954    0.00377
AFIX  43
H14   2   -0.338925    0.069291    0.734219    11.00000   -1.20000
AFIX   0
C49   1   -0.389149    0.115756    0.799935    11.00000    0.03229    0.04088 =
         0.03403   -0.01973   -0.00653    0.00489
C50   1   -0.374365    0.161692    0.830330    11.00000    0.03103    0.03935 =
         0.03032   -0.01681   -0.00439    0.00794
AFIX  43
H15   2   -0.414753    0.173270    0.859944    11.00000   -1.20000
AFIX   0
C51   1   -0.301290    0.191810    0.818717    11.00000    0.03498    0.03144 =
         0.02897   -0.01244   -0.00989    0.00801
C52   1   -0.243422    0.172791    0.776701    11.00000    0.02714    0.03510 =
         0.02413   -0.01002   -0.00453    0.00442
AFIX  43
H16   2   -0.193425    0.190779    0.769828    11.00000   -1.20000
AFIX   0
C53   1   -0.468579    0.084418    0.812279    11.00000    0.03370    0.06851 =
         0.06239   -0.04614   -0.00619    0.00413
C54   1   -0.497368    0.131298    0.737619    11.00000    0.07747    0.13520 =
         0.16038   -0.03726   -0.07544   -0.00728
AFIX  33
H57   2   -0.462895    0.128474    0.695633    11.00000   -1.50000
H58   2   -0.547587    0.111133    0.742490    11.00000   -1.50000
H59   2   -0.499905    0.184062    0.727316    11.00000   -1.50000
AFIX   0
C55   1   -0.521420    0.089835    0.873958    11.00000    0.05357    0.31357 =
         0.20367   -0.22117    0.05780   -0.08181
AFIX  33
H60   2   -0.521113    0.142314    0.864730    11.00000   -1.50000
H61   2   -0.572193    0.073280    0.875699    11.00000   -1.50000
H62   2   -0.506180    0.057524    0.922561    11.00000   -1.50000
AFIX   0
C56   1   -0.469440    0.004234    0.826841    11.00000    0.04108    0.08595 =
         0.20416   -0.08486    0.00874   -0.01872
AFIX  33
H63   2   -0.434303    0.000250    0.785892    11.00000   -1.50000
H64   2   -0.454284   -0.027941    0.875522    11.00000   -1.50000
H65   2   -0.520296   -0.012185    0.828659    11.00000   -1.50000
AFIX   0
C57   1   -0.289485    0.245487    0.851519    11.00000    0.03508    0.03855 =
         0.03732   -0.02035   -0.00857    0.00642
C58   1   -0.320839    0.208239    0.936769    11.00000    0.05984    0.04622 =
         0.03592   -0.02345   -0.01445    0.00979
AFIX  33
H66   2   -0.294485    0.162337    0.962508    11.00000   -1.50000
H67   2   -0.313538    0.243332    0.956299    11.00000   -1.50000
H68   2   -0.374659    0.195094    0.946325    11.00000   -1.50000
AFIX   0
C59   1   -0.330376    0.317408    0.810700    11.00000    0.05593    0.03906 =
         0.03938   -0.01968   -0.00888    0.00974
AFIX  33
H69   2   -0.309962    0.341075    0.755932    11.00000   -1.50000
H70   2   -0.384211    0.304438    0.820053    11.00000   -1.50000
H71   2   -0.323090    0.352677    0.830026    11.00000   -1.50000
AFIX   0
C60   1   -0.205578    0.267533    0.838166    11.00000    0.04184    0.06915 =
         0.07090   -0.05144   -0.00910    0.00236
AFIX  33
H72   2   -0.184370    0.291628    0.783546    11.00000   -1.50000
H73   2   -0.200148    0.302859    0.857908    11.00000   -1.50000
H74   2   -0.178791    0.222150    0.864542    11.00000   -1.50000
AFIX   0
C61   1    0.011535    0.339941    0.426630    11.00000    0.05252    0.02931 =
         0.03419   -0.00912    0.00497    0.00633
C62   1   -0.021555    0.385865    0.366767    11.00000    0.07101    0.04295 =
         0.04749    0.00255   -0.00223    0.01745
AFIX  43
H17   2   -0.057505    0.365041    0.352023    11.00000   -1.20000
AFIX   0
C63   1   -0.002461    0.463442    0.327293    11.00000    0.09081    0.05322 =
         0.07582    0.00859    0.01068    0.02044
C64   1    0.049266    0.491605    0.349203    11.00000    0.08086    0.03931 =
         0.08578   -0.00581    0.02942    0.00770
AFIX  43
H18   2    0.063240    0.544103    0.321183    11.00000   -1.20000
AFIX   0
C65   1    0.082290    0.447957    0.409785    11.00000    0.07596    0.04921 =
         0.08543   -0.03914    0.03020   -0.00921
C66   1    0.062390    0.370627    0.449174    11.00000    0.06140    0.03603 =
         0.04986   -0.02108    0.02142   -0.00457
AFIX  43
H19   2    0.084000    0.338841    0.491837    11.00000   -1.20000
AFIX   0
C67   1    0.003127    0.511969    0.195699    11.00000    0.22441    0.13969 =
         0.10421   -0.04375   -0.06091    0.10719
AFIX  33
H75   2    0.056381    0.522459    0.192440    11.00000   -1.50000
H76   2   -0.003920    0.461459    0.200910    11.00000   -1.50000
H77   2   -0.012979    0.549629    0.149438    11.00000   -1.50000
AFIX   0
C68   1   -0.038942    0.515266    0.257625    11.00000    0.12305    0.09268 =
         0.11279    0.00824   -0.00082    0.04467
C69   1   -0.119723    0.503311    0.282847    11.00000    0.16648    0.18622 =
         0.15815   -0.00162   -0.05820    0.07131
AFIX  33
H78   2   -0.134412    0.509205    0.328768    11.00000   -1.50000
H79   2   -0.144263    0.540401    0.242691    11.00000   -1.50000
H80   2   -0.135205    0.452231    0.294163    11.00000   -1.50000
AFIX   0
C70   1   -0.034849    0.596330    0.243788    11.00000    0.20976    0.11944 =
         0.11762    0.02503    0.03442    0.10255
AFIX  33
H81   2   -0.064723    0.599629    0.287671    11.00000   -1.50000
H82   2    0.017623    0.612561    0.236631    11.00000   -1.50000
H83   2   -0.054807    0.629110    0.198132    11.00000   -1.50000
AFIX   0
C71   1    0.137896    0.482131    0.433775    11.00000    0.09920    0.06758 =
         0.14671   -0.06206    0.00849   -0.02338
C72   1    0.124789    0.557711    0.416796    11.00000    0.23321    0.13688 =
         0.30548   -0.14834   -0.06232   -0.00475
AFIX  33
H84   2    0.092016    0.578419    0.379357    11.00000   -1.50000
H85   2    0.100472    0.559532    0.463320    11.00000   -1.50000
H86   2    0.172777    0.587673    0.395918    11.00000   -1.50000
AFIX   0
C73   1    0.207943    0.510718    0.364035    11.00000    0.12912    0.17839 =
         0.19807   -0.06182   -0.00404   -0.02090
AFIX  33
H87   2    0.230954    0.467118    0.360787    11.00000   -1.50000
H88   2    0.190683    0.543478    0.316680    11.00000   -1.50000
H89   2    0.245111    0.539075    0.371907    11.00000   -1.50000
AFIX   0
C74   1    0.183746    0.427080    0.486930    11.00000    0.22957    0.14730 =
         0.21360   -0.09192   -0.06950   -0.06809
AFIX  33
H90   2    0.181399    0.378993    0.485727    11.00000   -1.50000
H91   2    0.236117    0.447130    0.471273    11.00000   -1.50000
H92   2    0.163813    0.418989    0.538675    11.00000   -1.50000
AFIX   0
C75   1    0.504848   -0.141984    0.717249    11.00000    0.04035    0.03604 =
         0.02645   -0.01398   -0.00899    0.00574
C76   1    0.551742   -0.193568    0.703349    11.00000    0.04783    0.03056 =
         0.03264   -0.01163   -0.01516    0.00635
C77   1    0.593943   -0.156552    0.630239    11.00000    0.04167    0.03816 =
         0.02561   -0.01406   -0.01015    0.00088
C78   1    0.570207   -0.082192    0.601657    11.00000    0.03619    0.03739 =
         0.01915   -0.01392   -0.00855    0.00666
C79   1    0.604807   -0.025728    0.530616    11.00000    0.03643    0.04263 =
         0.02344   -0.01674   -0.00952    0.00393
C80   1    0.584215    0.049070    0.501309    11.00000    0.03508    0.03646 =
         0.02137   -0.01372   -0.00860    0.00394
C81   1    0.623429    0.106040    0.430164    11.00000    0.03682    0.03785 =
         0.02300   -0.01461   -0.00538    0.00121
C82   1    0.591673    0.171546    0.422556    11.00000    0.04028    0.03969 =
         0.02268   -0.01181   -0.00386    0.00401
C83   1    0.535672    0.154458    0.488318    11.00000    0.03601    0.03551 =
         0.02403   -0.01026   -0.00646    0.00659
C84   1    0.492669    0.206351    0.504434    11.00000    0.04073    0.03786 =
         0.02216   -0.00790   -0.00542    0.00716
C85   1    0.430946    0.183989    0.563267    11.00000    0.04337    0.03516 =
         0.02945   -0.01126   -0.01011    0.00714
C86   1    0.381358    0.235740    0.574585    11.00000    0.04981    0.04040 =
         0.03142   -0.00965   -0.00614    0.01185
AFIX  43
H20   2    0.385920    0.289180    0.545004    11.00000   -1.20000
AFIX   0
C87   1    0.327520    0.195820    0.634001    11.00000    0.04146    0.04292 =
         0.03241   -0.01174   -0.00831    0.00974
AFIX  43
H21   2    0.285671    0.215401    0.653859    11.00000   -1.20000
AFIX   0
C88   1    0.343800    0.117804    0.662894    11.00000    0.03521    0.03769 =
         0.02533   -0.01383   -0.00850    0.00781
C89   1    0.306243    0.060635    0.731538    11.00000    0.03274    0.04293 =
         0.02442   -0.01494   -0.00836    0.00228
C90   1    0.331859   -0.011143    0.763738    11.00000    0.03278    0.04229 =
         0.02786   -0.01631   -0.00696    0.00207
C91   1    0.299737   -0.069554    0.838438    11.00000    0.03497    0.04810 =
         0.03024   -0.01719    0.00086    0.00073
AFIX  43
H22   2    0.254906   -0.067308    0.870127    11.00000   -1.20000
AFIX   0
C92   1    0.344138   -0.127510    0.855332    11.00000    0.04114    0.03970 =
         0.03157   -0.01301   -0.00213    0.00044
AFIX  43
H23   2    0.338466   -0.173115    0.901965    11.00000   -1.20000
AFIX   0
C93   1    0.402438   -0.107342    0.788908    11.00000    0.03689    0.03772 =
         0.02099   -0.00989   -0.00227    0.00031
C94   1    0.455647   -0.157014    0.785136    11.00000    0.04136    0.03876 =
         0.02466   -0.01202   -0.00750   -0.00160
C95   1    0.653598   -0.176462    0.587489    11.00000    0.04471    0.04459 =
         0.02731   -0.02119   -0.00998    0.00558
C96   1    0.681192   -0.249322    0.612696    11.00000    0.05688    0.04077 =
         0.03431   -0.01897   -0.01220    0.00683
AFIX  43
H24   2    0.657485   -0.289440    0.660115    11.00000   -1.20000
AFIX   0
C97   1    0.741405   -0.262966    0.569958    11.00000    0.05027    0.04995 =
         0.04063   -0.02605   -0.01502    0.01679
AFIX  43
H25   2    0.758706   -0.312559    0.587605    11.00000   -1.20000
AFIX   0
C98   1    0.777451   -0.205483    0.501354    11.00000    0.05022    0.05214 =
         0.03743   -0.02686   -0.00973    0.01257
AFIX  43
H26   2    0.819617   -0.215369    0.472126    11.00000   -1.20000
AFIX   0
C99   1    0.751967   -0.133559    0.475392    11.00000    0.04161    0.04989 =
         0.02387   -0.02055   -0.00760    0.00470
C100  1    0.689465   -0.118044    0.517014    11.00000    0.04033    0.04239 =
         0.03037   -0.01844   -0.01507    0.00667
C101  1    0.684475    0.087210    0.386509    11.00000    0.03993    0.04167 =
         0.02387   -0.01461   -0.00662   -0.00202
C102  1    0.725893    0.140064    0.314910    11.00000    0.04561    0.04233 =
         0.03254   -0.01694   -0.00119   -0.00399
AFIX  43
H27   2    0.711247    0.190641    0.291408    11.00000   -1.20000
AFIX   0
C103  1    0.786773    0.119028    0.279254    11.00000    0.04540    0.04776 =
         0.03027   -0.02018    0.00418   -0.00693
AFIX  43
H28   2    0.814670    0.155638    0.231852    11.00000   -1.20000
AFIX   0
C104  1    0.808414    0.045776    0.310753    11.00000    0.04407    0.05105 =
         0.03085   -0.02171    0.00104   -0.00637
AFIX  43
H29   2    0.850865    0.031824    0.285477    11.00000   -1.20000
AFIX   0
C105  1    0.767168   -0.007574    0.380211    11.00000    0.03994    0.04730 =
         0.03799   -0.02641   -0.01154    0.00594
C106  1    0.705001    0.012039    0.418152    11.00000    0.03749    0.04516 =
         0.02201   -0.01701   -0.00655    0.00290
C107  1    0.515795    0.289181    0.463971    11.00000    0.03844    0.04001 =
         0.02784   -0.01517    0.00262    0.00581
C108  1    0.564019    0.312920    0.495525    11.00000    0.04642    0.04239 =
         0.03845   -0.01571   -0.00785    0.01398
AFIX  43
H30   2    0.582233    0.276565    0.538732    11.00000   -1.20000
AFIX   0
C109  1    0.586224    0.389191    0.464944    11.00000    0.06006    0.04683 =
         0.05953   -0.02807   -0.02007    0.01974
C110  1    0.558950    0.439968    0.400322    11.00000    0.06045    0.03535 =
         0.05548   -0.01795   -0.00392    0.00503
AFIX  43
H31   2    0.575071    0.491822    0.377061    11.00000   -1.20000
AFIX   0
C111  1    0.510381    0.418574    0.369187    11.00000    0.05067    0.04234 =
         0.03355   -0.01209   -0.00628    0.00982
C112  1    0.488667    0.342330    0.401325    11.00000    0.04769    0.04307 =
         0.02781   -0.01203   -0.00559    0.00766
AFIX  43
H32   2    0.454941    0.326544    0.380147    11.00000   -1.20000
AFIX   0
C113  1    0.639181    0.415554    0.499526    11.00000    0.07711    0.05962 =
         0.09847   -0.04533   -0.04072    0.01625
C114  1    0.652101    0.354422    0.575776    11.00000    0.14612    0.09196 =
         0.14574   -0.06675   -0.10841    0.04061
AFIX  33
H93   2    0.668007    0.309246    0.571352    11.00000   -1.50000
H94   2    0.691341    0.372424    0.591758    11.00000   -1.50000
H95   2    0.605322    0.342018    0.613582    11.00000   -1.50000
AFIX   0
C115  1    0.716880    0.437097    0.442206    11.00000    0.06131    0.14941 =
         0.22121   -0.14493   -0.01878    0.01651
AFIX  33
H96   2    0.735804    0.392213    0.438793    11.00000   -1.50000
H97   2    0.710148    0.476037    0.391898    11.00000   -1.50000
H98   2    0.753053    0.456449    0.460249    11.00000   -1.50000
AFIX   0
C116  1    0.614656    0.486787    0.501202    11.00000    0.10604    0.06978 =
         0.08959   -0.04895   -0.04746    0.03281
AFIX  33
H99   2    0.607163    0.524202    0.450569    11.00000   -1.50000
H100  2    0.567355    0.476221    0.537979    11.00000   -1.50000
H101  2    0.653374    0.506627    0.516155    11.00000   -1.50000
AFIX   0
C117  1    0.482071    0.475724    0.296876    11.00000    0.07534    0.03932 =
         0.03545   -0.00258   -0.00905    0.00805
C118  1    0.522850    0.462983    0.231008    11.00000    0.09715    0.05574 =
         0.03646   -0.01158   -0.00623    0.00316
AFIX  33
H102  2    0.577252    0.470406    0.225142    11.00000   -1.50000
H103  2    0.510710    0.411356    0.241564    11.00000   -1.50000
H104  2    0.506768    0.499008    0.184029    11.00000   -1.50000
AFIX   0
C119  1    0.499270    0.557409    0.276718    11.00000    0.12871    0.03917 =
         0.06690   -0.00792   -0.03981    0.01641
AFIX  33
H105  2    0.553703    0.566714    0.268545    11.00000   -1.50000
H106  2    0.481153    0.591205    0.230189    11.00000   -1.50000
H107  2    0.474028    0.566903    0.318442    11.00000   -1.50000
AFIX   0
C120  1    0.397675    0.465025    0.308716    11.00000    0.06858    0.06433 =
         0.06224   -0.00243   -0.02714    0.02007
AFIX  33
H108  2    0.384192    0.412875    0.321865    11.00000   -1.50000
H109  2    0.373496    0.475481    0.350106    11.00000   -1.50000
H110  2    0.380621    0.499783    0.261853    11.00000   -1.50000
AFIX   0
C121  1    0.240459    0.079222    0.776116    11.00000    0.03442    0.03774 =
         0.03008   -0.01271   -0.00703    0.00135
C122  1    0.242582    0.068741    0.848232    11.00000    0.03256    0.04551 =
         0.02480   -0.01133   -0.00755    0.00624
AFIX  43
H33   2    0.287357    0.052721    0.867722    11.00000   -1.20000
AFIX   0
C123  1    0.180507    0.081123    0.893164    11.00000    0.03655    0.04790 =
         0.02936   -0.01710   -0.00729    0.00554
C124  1    0.117914    0.108915    0.861062    11.00000    0.03323    0.04689 =
         0.02658   -0.01356   -0.00207    0.00277
AFIX  43
H34   2    0.075991    0.119269    0.890161    11.00000   -1.20000
AFIX   0
C125  1    0.113524    0.122426    0.787986    11.00000    0.03232    0.04023 =
         0.03141   -0.01691   -0.00477    0.00226
C126  1    0.175320    0.106728    0.746391    11.00000    0.03550    0.04198 =
         0.03047   -0.01711   -0.00817    0.00407
AFIX  43
H35   2    0.173480    0.114774    0.696745    11.00000   -1.20000
AFIX   0
C127  1    0.183336    0.061878    0.975871    11.00000    0.03950    0.06875 =
         0.03036   -0.02086   -0.00914    0.01567
C128  1    0.254158    0.098821    0.977833    11.00000    0.05886    0.09962 =
         0.03172   -0.03205   -0.00666   -0.01336
AFIX  33
H111  2    0.298448    0.083665    0.953131    11.00000   -1.50000
H112  2    0.252007    0.153872    0.950862    11.00000   -1.50000
H113  2    0.257554    0.082676    1.030766    11.00000   -1.50000
AFIX   0
C129  1    0.185851   -0.023929    1.022943    11.00000    0.09817    0.05835 =
         0.03900   -0.01021   -0.01314    0.01468
AFIX  33
H114  2    0.229784   -0.041332    1.000185    11.00000   -1.50000
H115  2    0.189413   -0.036643    1.075070    11.00000   -1.50000
H116  2    0.139964   -0.048665    1.023664    11.00000   -1.50000
AFIX   0
C130  1    0.115280    0.084677    1.013497    11.00000    0.05762    0.09538 =
         0.03497   -0.03697   -0.01279    0.01921
AFIX  33
H117  2    0.069985    0.060739    1.012032    11.00000   -1.50000
H118  2    0.118432    0.068508    1.066493    11.00000   -1.50000
H119  2    0.112886    0.139705    0.986589    11.00000   -1.50000
AFIX   0
C131  1    0.042042    0.150261    0.755640    11.00000    0.03184    0.07036 =
         0.04196   -0.03514   -0.01376    0.01190
C132  1   -0.009722    0.080790    0.782015    11.00000    0.06048    0.10707 =
         0.09030   -0.00901   -0.04533   -0.02503
AFIX  33
H120  2    0.015660    0.047234    0.763273    11.00000   -1.50000
H121  2   -0.022037    0.053989    0.837713    11.00000   -1.50000
H122  2   -0.056066    0.096486    0.762013    11.00000   -1.50000
AFIX   0
C133  1    0.001919    0.200099    0.784991    11.00000    0.11087    0.22435 =
         0.16922   -0.16605   -0.11068    0.12664
AFIX  33
H123  2   -0.009015    0.173246    0.840712    11.00000   -1.50000
H124  2    0.033680    0.245949    0.767252    11.00000   -1.50000
H125  2   -0.045277    0.213855    0.766296    11.00000   -1.50000
AFIX   0
C134  1    0.058706    0.192074    0.669668    11.00000    0.04564    0.10552 =
         0.04414   -0.00847   -0.01988    0.00601
AFIX  33
H126  2    0.085085    0.159545    0.650090    11.00000   -1.50000
H127  2    0.011437    0.205841    0.651120    11.00000   -1.50000
H128  2    0.090394    0.237935    0.652077    11.00000   -1.50000
AFIX   0
C135  1    0.462581   -0.224632    0.858522    11.00000    0.04030    0.03468 =
         0.02739   -0.01065   -0.00126    0.00341
C136  1    0.518128   -0.220173    0.896576    11.00000    0.03963    0.03191 =
         0.02304   -0.00893    0.00025    0.00100
AFIX  43
H36   2    0.550766   -0.176009    0.873738    11.00000   -1.20000
AFIX   0
C137  1    0.526136   -0.278270    0.965968    11.00000    0.04333    0.04051 =
         0.02529   -0.01477    0.00144    0.00641
C138  1    0.477463   -0.342569    0.998083    11.00000    0.05007    0.03530 =
         0.02799   -0.00666   -0.00003    0.00935
AFIX  43
H37   2    0.482421   -0.383302    1.045912    11.00000   -1.20000
AFIX   0
C139  1    0.421901   -0.348790    0.962141    11.00000    0.04855    0.03044 =
         0.03820   -0.01223    0.00724    0.00153
C140  1    0.414916   -0.288835    0.892669    11.00000    0.04180    0.03843 =
         0.03617   -0.01500   -0.00072    0.00180
AFIX  43
H38   2    0.376600   -0.291901    0.867996    11.00000   -1.20000
AFIX   0
C141  1    0.549728   -0.233686    1.055445    11.00000    0.07252    0.25647 =
         0.12766   -0.16349   -0.04823    0.07568
AFIX  33
H129  2    0.532087   -0.184654    1.022330    11.00000   -1.50000
H130  2    0.507101   -0.265968    1.093778    11.00000   -1.50000
H131  2    0.587166   -0.226272    1.080777    11.00000   -1.50000
AFIX   0
C142  1    0.584512   -0.270506    1.008893    11.00000    0.04819    0.05087 =
         0.02149   -0.01134   -0.00610    0.01360
C143  1    0.653811   -0.220931    0.955711    11.00000    0.08912    0.10413 =
         0.04281   -0.01498   -0.02851   -0.03063
AFIX  33
H132  2    0.678695   -0.242942    0.923801    11.00000   -1.50000
H133  2    0.638831   -0.170259    0.923342    11.00000   -1.50000
H134  2    0.688599   -0.217621    0.985692    11.00000   -1.50000
AFIX   0
C144  1    0.612177   -0.346033    1.058272    11.00000    0.08717    0.06445 =
         0.11762   -0.01062   -0.05919    0.00709
AFIX  33
H135  2    0.634773   -0.369264    1.026747    11.00000   -1.50000
H136  2    0.649922   -0.339169    1.083616    11.00000   -1.50000
H137  2    0.569857   -0.378865    1.096617    11.00000   -1.50000
AFIX   0
C145  1    0.367872   -0.420128    0.998517    11.00000    0.05444    0.03052 =
         0.04491   -0.01104    0.00413    0.00025
C146  1    0.377854   -0.455719    0.947350    11.00000    0.09253    0.06356 =
         0.10578   -0.05155    0.02092   -0.01733
AFIX  33
H138  2    0.430528   -0.467604    0.938312    11.00000   -1.50000
H139  2    0.345581   -0.502269    0.971405    11.00000   -1.50000
H140  2    0.363994   -0.420604    0.898805    11.00000   -1.50000
AFIX   0
C147  1    0.289964   -0.399199    1.016855    11.00000    0.05598    0.05919 =
         0.12724   -0.04056    0.01283   -0.00637
AFIX  33
H141  2    0.288553   -0.376399    1.050446    11.00000   -1.50000
H142  2    0.274215   -0.362873    0.969799    11.00000   -1.50000
H143  2    0.255802   -0.444538    1.042399    11.00000   -1.50000
AFIX   0
C148  1    0.385611   -0.480102    1.077540    11.00000    0.08655    0.06392 =
         0.08829    0.00046   -0.01610   -0.01430
AFIX  33
H144  2    0.436585   -0.496738    1.069977    11.00000   -1.50000
H145  2    0.381972   -0.457252    1.111317    11.00000   -1.50000
H146  2    0.349311   -0.523626    1.100485    11.00000   -1.50000
AFIX   0
C150  1    0.206215    0.636726    0.787928    10.50000    0.08875    0.08358 =
         0.13433   -0.01967   -0.03670   -0.04064
AFIX  13
H147  2    0.200712    0.684513    0.741461    10.50000   -1.20000
AFIX   0
N1    3    0.032097    0.128195    0.502694    11.00000    0.03619    0.02682 =
         0.01882   -0.00717   -0.00901    0.00348
N2    3    0.014864   -0.022520    0.614845    11.00000    0.03076    0.02723 =
         0.01882   -0.00851   -0.00597    0.00365
N3    3   -0.109703    0.011264    0.694209    11.00000    0.03031    0.02826 =
         0.02293   -0.01202   -0.00458    0.00413
N4    3   -0.089503    0.160208    0.587133    11.00000    0.03184    0.02493 =
         0.01688   -0.00394   -0.00561    0.00350
N5    3    0.168511    0.009576    0.452711    11.00000    0.03376    0.03168 =
         0.01912   -0.01226   -0.00496    0.00373
N6    3    0.514413   -0.071755    0.652168    11.00000    0.03770    0.03373 =
         0.02265   -0.01030   -0.00654   -0.00110
N7    3    0.530166    0.077058    0.536923    11.00000    0.03748    0.03622 =
         0.02220   -0.01133   -0.00873    0.00638
N8    3    0.406761    0.110106    0.618042    11.00000    0.03906    0.03889 =
         0.02107   -0.00762   -0.00611    0.00520
N9    3    0.394145   -0.035537    0.732486    11.00000    0.03474    0.03627 =
         0.02643   -0.01154   -0.00483    0.00219
N10   3    0.665195   -0.044012    0.489482    11.00000    0.03864    0.03780 =
         0.02066   -0.01539   -0.00765    0.00457
O1    4    0.294321   -0.023991    0.369028    11.00000    0.04137    0.04471 =
         0.02777   -0.02024   -0.00251    0.00626
O2    4    0.791531   -0.079390    0.408312    11.00000    0.04842    0.04826 =
         0.03148   -0.01840   -0.00600    0.00833
NI1   6   -0.038220    0.069523    0.599726    11.00000    0.03081    0.02462 =
         0.01643   -0.00614   -0.00422    0.00413
NI2   6    0.461202    0.019850    0.635152    11.00000    0.03501    0.03452 =
         0.02002   -0.00909   -0.00541    0.00495
CL1   5    0.119109    0.312811    0.313582    11.00000    0.06280    0.03202 =
         0.02400   -0.00194    0.00487    0.00204
CL2   5    0.054602   -0.239467    0.724602    11.00000    0.05037    0.02625 =
         0.03321   -0.00628    0.00038    0.00828
CL3   5    0.555679   -0.288505    0.766410    11.00000    0.05881    0.03406 =
         0.03428   -0.01053   -0.00259    0.00824
CL4   5    0.614692    0.259187    0.344658    11.00000    0.05742    0.03987 =
         0.03056   -0.00514    0.00484    0.00625
CL8   5    0.261758    0.583681    0.757656    10.50000    0.13971    0.13925 =
         0.27339   -0.00805    0.00448   -0.05131
CL9   5    0.115429    0.593852    0.831585    10.50000    0.10309    0.11460 =
         0.18443    0.01032   -0.03196    0.00408
CL10  5    0.245421    0.659036    0.834698    10.50000    0.23446    0.26000 =
         0.07798   -0.05509   -0.02674   -0.05345
PART 1
C149  1    0.250956    0.277425    0.770150    11.00000    0.10225    0.06242 =
         0.06272   -0.02925   -0.02357    0.02479
AFIX  13
H148  2    0.225940    0.227303    0.809466    11.00000   -1.20000
AFIX   0
CL6   5    0.346813    0.278530    0.762292    11.00000    0.08943    0.14789 =
         0.12456   -0.07858   -0.04389    0.01002
CL5   5    0.219489    0.309444    0.694853    21.00000    0.13998    0.12988 =
         0.20538   -0.07257   -0.06636    0.03526
CL7   5    0.251848    0.348292    0.810569    21.00000    0.18097    0.17260 =
         0.11261   -0.06791   -0.05030    0.04708
PART 2
CL11  5    0.206060    0.300724    0.841629   -21.00000    0.16580    0.08676 =
         0.05895   -0.03447   -0.02155    0.05503
CL12  5    0.224398    0.337616    0.682878   -21.00000    0.10998    0.05507 =
         0.05788   -0.02606   -0.02554    0.03156
PART 0

HKLF 4 1 1 0 0 0 1 0 0 0 1

REM  _150727fukui
REM R1 =  0.0791 for   13168 Fo > 4sig(Fo)  and  0.1256 for all   22782 data
REM   1586 parameters refined using    288 restraints

END

WGHT      0.1576      0.0000

REM Highest difference peak  1.791,  deepest hole -0.739,  1-sigma level  0.109
Q1    1   0.0963  0.4770  0.5160  11.00000  0.05    1.79
Q2    1   0.2779  0.4739  0.7586  11.00000  0.05    1.55
Q3    1   0.2160  0.6012  0.6453  11.00000  0.05    1.48
Q4    1   0.3034 -0.4095  0.9330  11.00000  0.05    0.93
Q5    1   0.3143 -0.4336  1.0687  11.00000  0.05    0.92
Q6    1  -0.0560  0.4544  0.2103  11.00000  0.05    0.85
Q7    1   0.2227  0.6221  0.7133  11.00000  0.05    0.83
Q8    1  -0.0374  0.0118  0.6281  11.00000  0.05    0.80
Q9    1   0.4052 -0.4897  1.0049  11.00000  0.05    0.80
Q10   1   0.4655 -0.0414  0.6610  11.00000  0.05    0.73
Q11   1   0.2070  0.4507  0.4288  11.00000  0.05    0.70
Q12   1  -0.0449  0.1281  0.5763  11.00000  0.05    0.66
Q13   1   0.1018 -0.3345  1.0271  11.00000  0.05    0.65
Q14   1   0.0642  0.5342  0.1721  11.00000  0.05    0.65
Q15   1   0.4580  0.0776  0.6078  11.00000  0.05    0.65
Q16   1  -0.0236  0.1238  0.5564  11.00000  0.05    0.63
Q17   1   0.1488 -0.2005  0.9331  11.00000  0.05    0.63
Q18   1   0.4444  0.0699  0.6259  11.00000  0.05    0.63
Q19   1  -0.0775  0.1004  0.6024  11.00000  0.05    0.60
Q20   1   0.0547 -0.1884  0.6882  11.00000  0.05    0.56
Q21   1  -0.5225  0.1409  0.7879  11.00000  0.05    0.55
Q22   1  -0.0823  0.5643  0.2421  11.00000  0.05    0.54
Q23   1   0.1093  0.2637  0.3598  11.00000  0.05    0.53
Q24   1  -0.4891  0.0329  0.9132  11.00000  0.05    0.53
Q25   1   0.3756  0.3102  0.7098  11.00000  0.05    0.52
;
_shelx_res_checksum              91569
loop_
_space_group_symop_operation_xyz
'x, y, z'
'-x, -y, -z'
loop_
_atom_site_label
_atom_site_type_symbol
_atom_site_fract_x
_atom_site_fract_y
_atom_site_fract_z
_atom_site_U_iso_or_equiv
_atom_site_adp_type
_atom_site_occupancy
_atom_site_site_symmetry_order
_atom_site_calc_flag
_atom_site_refinement_flags_posn
_atom_site_refinement_flags_adp
_atom_site_refinement_flags_occupancy
_atom_site_disorder_assembly
_atom_site_disorder_group
C1 C 0.0373(2) 0.2056(2) 0.4551(2) 0.0312(10) Uani 1 1 d . . . . .
C2 C 0.0937(2) 0.2241(2) 0.3897(2) 0.0324(10) Uani 1 1 d . . . . .
C3 C 0.1258(2) 0.1587(3) 0.3967(2) 0.0326(10) Uani 1 1 d . . . . .
C4 C 0.0871(2) 0.1008(2) 0.4670(2) 0.0273(9) Uani 1 1 d . . . . .
C5 C 0.1078(2) 0.0271(2) 0.4941(2) 0.0264(9) Uani 1 1 d . . . . .
C6 C 0.0714(2) -0.0308(2) 0.5647(2) 0.0266(9) Uani 1 1 d . . . . .
C7 C 0.0957(2) -0.1058(2) 0.5930(2) 0.0293(10) Uani 1 1 d . . . . .
C8 C 0.0520(2) -0.1448(2) 0.6646(2) 0.0318(10) Uani 1 1 d . . . . .
C9 C 0.0037(2) -0.0935(2) 0.6780(2) 0.0290(10) Uani 1 1 d . . . . .
C10 C -0.0490(2) -0.1111(2) 0.7452(2) 0.0294(10) Uani 1 1 d . . . . .
C11 C -0.1032(2) -0.0623(2) 0.7491(2) 0.0278(9) Uani 1 1 d . . . . .
C12 C -0.1620(2) -0.0827(2) 0.8140(2) 0.0323(10) Uani 1 1 d . . . . .
H1 H -0.1695 -0.1298 0.8592 0.039 Uiso 1 1 calc R U . . .
C13 C -0.2048(2) -0.0236(2) 0.7995(2) 0.0320(10) Uani 1 1 d . . . . .
H2 H -0.2492 -0.0215 0.8318 0.038 Uiso 1 1 calc R U . . .
C14 C -0.1711(2) 0.0362(2) 0.7260(2) 0.0286(9) Uani 1 1 d . . . . .
C15 C -0.1930(2) 0.1091(2) 0.6984(2) 0.0282(9) Uani 1 1 d . . . . .
C16 C -0.1516(2) 0.1680(2) 0.6324(2) 0.0286(9) Uani 1 1 d . . . . .
C17 C -0.1681(3) 0.2459(2) 0.6054(3) 0.0342(10) Uani 1 1 d . . . . .
H3 H -0.2088 0.2652 0.6270 0.041 Uiso 1 1 calc R U . . .
C18 C -0.1157(3) 0.2858(2) 0.5445(3) 0.0367(11) Uani 1 1 d . . . . .
H4 H -0.1117 0.3392 0.5145 0.044 Uiso 1 1 calc R U . . .
C19 C -0.0663(2) 0.2338(2) 0.5321(2) 0.0307(10) Uani 1 1 d . . . . .
C20 C -0.0068(3) 0.2565(2) 0.4718(2) 0.0343(10) Uani 1 1 d . . . . .
C21 C 0.1879(2) 0.1410(2) 0.3525(2) 0.0310(10) Uani 1 1 d . . . . .
C22 C 0.2312(3) 0.1959(3) 0.2828(2) 0.0364(11) Uani 1 1 d . . . . .
H5 H 0.2181 0.2471 0.2620 0.044 Uiso 1 1 calc R U . . .
C23 C 0.2918(3) 0.1762(3) 0.2452(3) 0.0388(11) Uani 1 1 d . . . . .
H6 H 0.3205 0.2134 0.1987 0.047 Uiso 1 1 calc R U . . .
C24 C 0.3109(3) 0.1016(3) 0.2754(3) 0.0403(11) Uani 1 1 d . . . . .
H7 H 0.3525 0.0877 0.2491 0.048 Uiso 1 1 calc R U . . .
C25 C 0.2700(2) 0.0472(3) 0.3435(2) 0.0330(10) Uani 1 1 d . . . . .
C26 C 0.2081(2) 0.0665(3) 0.3822(2) 0.0307(10) Uani 1 1 d . . . . .
C27 C 0.1572(2) -0.1242(2) 0.5488(2) 0.0318(10) Uani 1 1 d . . . . .
C28 C 0.1835(3) -0.1967(3) 0.5717(3) 0.0367(11) Uani 1 1 d . . . . .
H8 H 0.1586 -0.2377 0.6178 0.044 Uiso 1 1 calc R U . . .
C29 C 0.2443(3) -0.2096(3) 0.5291(3) 0.0411(12) Uani 1 1 d . . . . .
H9 H 0.2618 -0.2590 0.5458 0.049 Uiso 1 1 calc R U . . .
C30 C 0.2805(3) -0.1505(3) 0.4616(3) 0.0390(11) Uani 1 1 d . . . . .
H10 H 0.3233 -0.1594 0.4323 0.047 Uiso 1 1 calc R U . . .
C31 C 0.2553(2) -0.0798(3) 0.4368(2) 0.0336(10) Uani 1 1 d . . . . .
C32 C 0.1925(2) -0.0645(2) 0.4795(2) 0.0307(10) Uani 1 1 d . . . . .
C33 C -0.0433(2) -0.1798(2) 0.8178(2) 0.0297(10) Uani 1 1 d . . . . .
C34 C 0.0089(3) -0.1755(3) 0.8578(2) 0.0363(11) Uani 1 1 d . . . . .
H11 H 0.0404 -0.1308 0.8371 0.044 Uiso 1 1 calc R U . . .
C35 C 0.0159(3) -0.2353(3) 0.9273(3) 0.0388(11) Uani 1 1 d . . . . .
C36 C -0.0305(3) -0.3002(3) 0.9555(3) 0.0393(11) Uani 1 1 d . . . . .
H12 H -0.0252 -0.3421 1.0025 0.047 Uiso 1 1 calc R U . . .
C37 C -0.0844(2) -0.3065(2) 0.9176(2) 0.0330(10) Uani 1 1 d . . . . .
C38 C -0.0904(2) -0.2445(2) 0.8484(2) 0.0298(10) Uani 1 1 d . . . . .
H13 H -0.1273 -0.2465 0.8217 0.036 Uiso 1 1 calc R U . . .
C39 C 0.0732(3) -0.2322(3) 0.9735(3) 0.0511(14) Uani 1 1 d . . . . .
C40 C 0.0335(3) -0.2486(4) 1.0519(3) 0.0633(16) Uani 1 1 d . . . . .
H39 H -0.0060 -0.2129 1.0482 0.095 Uiso 1 1 calc R U . . .
H40 H 0.0109 -0.3003 1.0792 0.095 Uiso 1 1 calc R U . . .
H41 H 0.0696 -0.2431 1.0796 0.095 Uiso 1 1 calc R U . . .
C41 C 0.1335(4) -0.2830(6) 0.9734(5) 0.107(3) Uani 1 1 d . . . . .
H42 H 0.1572 -0.2696 0.9209 0.161 Uiso 1 1 calc R U . . .
H43 H 0.1712 -0.2781 0.9999 0.161 Uiso 1 1 calc R U . . .
H44 H 0.1124 -0.3352 0.9995 0.161 Uiso 1 1 calc R U . . .
C42 C 0.1077(4) -0.1493(5) 0.9387(4) 0.092(3) Uani 1 1 d . . . . .
H45 H 0.0672 -0.1155 0.9388 0.139 Uiso 1 1 calc R U . . .
H46 H 0.1428 -0.1478 0.9692 0.139 Uiso 1 1 calc R U . . .
H47 H 0.1345 -0.1328 0.8863 0.139 Uiso 1 1 calc R U . . .
C43 C -0.1346(3) -0.3792(3) 0.9537(3) 0.0388(11) Uani 1 1 d . . . . .
C44 C -0.0858(3) -0.4456(3) 0.9640(4) 0.0679(18) Uani 1 1 d . . . . .
H48 H -0.0572 -0.4371 0.9143 0.102 Uiso 1 1 calc R U . . .
H49 H -0.0510 -0.4504 0.9972 0.102 Uiso 1 1 calc R U . . .
H50 H -0.1180 -0.4922 0.9870 0.102 Uiso 1 1 calc R U . . .
C45 C -0.1793(3) -0.3924(3) 1.0311(3) 0.0537(14) Uani 1 1 d . . . . .
H51 H -0.2106 -0.3497 1.0244 0.081 Uiso 1 1 calc R U . . .
H52 H -0.2115 -0.4389 1.0541 0.081 Uiso 1 1 calc R U . . .
H53 H -0.1445 -0.3972 1.0643 0.081 Uiso 1 1 calc R U . . .
C46 C -0.1904(3) -0.3755(3) 0.9043(3) 0.0498(13) Uani 1 1 d . . . . .
H54 H -0.2224 -0.3331 0.8969 0.075 Uiso 1 1 calc R U . . .
H55 H -0.1626 -0.3684 0.8548 0.075 Uiso 1 1 calc R U . . .
H56 H -0.2217 -0.4228 0.9295 0.075 Uiso 1 1 calc R U . . .
C47 C -0.2566(2) 0.1277(2) 0.7441(2) 0.0294(10) Uani 1 1 d . . . . .
C48 C -0.3295(2) 0.0999(3) 0.7563(2) 0.0332(10) Uani 1 1 d . . . . .
H14 H -0.3389 0.0693 0.7342 0.040 Uiso 1 1 calc R U . . .
C49 C -0.3891(2) 0.1158(3) 0.7999(3) 0.0349(10) Uani 1 1 d . . . . .
C50 C -0.3744(2) 0.1617(2) 0.8303(3) 0.0338(10) Uani 1 1 d . . . . .
H15 H -0.4148 0.1733 0.8599 0.041 Uiso 1 1 calc R U . . .
C51 C -0.3013(2) 0.1918(2) 0.8187(2) 0.0322(10) Uani 1 1 d . . . . .
C52 C -0.2434(2) 0.1728(2) 0.7767(2) 0.0305(10) Uani 1 1 d . . . . .
H16 H -0.1934 0.1908 0.7698 0.037 Uiso 1 1 calc R U . . .
C53 C -0.4686(3) 0.0844(3) 0.8123(3) 0.0491(13) Uani 1 1 d . . . . .
C54 C -0.4974(5) 0.1313(6) 0.7376(6) 0.129(4) Uani 1 1 d . . . . .
H57 H -0.4629 0.1285 0.6956 0.194 Uiso 1 1 calc R U . . .
H58 H -0.5476 0.1111 0.7425 0.194 Uiso 1 1 calc R U . . .
H59 H -0.4999 0.1841 0.7273 0.194 Uiso 1 1 calc R U . . .
C55 C -0.5214(4) 0.0898(7) 0.8740(6) 0.159(6) Uani 1 1 d . . . . .
H60 H -0.5211 0.1423 0.8647 0.239 Uiso 1 1 calc R U . . .
H61 H -0.5722 0.0733 0.8757 0.239 Uiso 1 1 calc R U . . .
H62 H -0.5062 0.0575 0.9226 0.239 Uiso 1 1 calc R U . . .
C56 C -0.4694(4) 0.0042(4) 0.8268(6) 0.108(3) Uani 1 1 d . . . . .
H63 H -0.4343 0.0002 0.7859 0.162 Uiso 1 1 calc R U . . .
H64 H -0.4543 -0.0279 0.8755 0.162 Uiso 1 1 calc R U . . .
H65 H -0.5203 -0.0122 0.8287 0.162 Uiso 1 1 calc R U . . .
C57 C -0.2895(2) 0.2455(3) 0.8515(3) 0.0359(11) Uani 1 1 d . . . . .
C58 C -0.3208(3) 0.2082(3) 0.9368(3) 0.0451(12) Uani 1 1 d . . . . .
H66 H -0.2945 0.1623 0.9625 0.068 Uiso 1 1 calc R U . . .
H67 H -0.3135 0.2433 0.9563 0.068 Uiso 1 1 calc R U . . .
H68 H -0.3747 0.1951 0.9463 0.068 Uiso 1 1 calc R U . . .
C59 C -0.3304(3) 0.3174(3) 0.8107(3) 0.0446(12) Uani 1 1 d . . . . .
H69 H -0.3100 0.3411 0.7559 0.067 Uiso 1 1 calc R U . . .
H70 H -0.3842 0.3044 0.8201 0.067 Uiso 1 1 calc R U . . .
H71 H -0.3231 0.3527 0.8300 0.067 Uiso 1 1 calc R U . . .
C60 C -0.2056(3) 0.2675(3) 0.8382(4) 0.0533(14) Uani 1 1 d . . . . .
H72 H -0.1844 0.2916 0.7835 0.080 Uiso 1 1 calc R U . . .
H73 H -0.2001 0.3029 0.8579 0.080 Uiso 1 1 calc R U . . .
H74 H -0.1788 0.2221 0.8645 0.080 Uiso 1 1 calc R U . . .
C61 C 0.0115(3) 0.3399(3) 0.4266(3) 0.0432(12) Uani 1 1 d . U . . .
C62 C -0.0216(4) 0.3859(3) 0.3668(3) 0.0654(16) Uani 1 1 d . U . . .
H17 H -0.0575 0.3650 0.3520 0.078 Uiso 1 1 calc R U . . .
C63 C -0.0025(5) 0.4634(4) 0.3273(4) 0.094(2) Uani 1 1 d . U . . .
C64 C 0.0493(4) 0.4916(4) 0.3492(5) 0.085(2) Uani 1 1 d . U . . .
H18 H 0.0632 0.5441 0.3212 0.102 Uiso 1 1 calc R U . . .
C65 C 0.0823(4) 0.4480(3) 0.4098(4) 0.0736(17) Uani 1 1 d . U . . .
C66 C 0.0624(3) 0.3706(3) 0.4492(3) 0.0533(14) Uani 1 1 d . U . . .
H19 H 0.0840 0.3388 0.4918 0.064 Uiso 1 1 calc R U . . .
C67 C 0.0031(8) 0.5120(6) 0.1957(6) 0.160(4) Uani 1 1 d . U . . .
H75 H 0.0564 0.5225 0.1924 0.240 Uiso 1 1 calc R U . . .
H76 H -0.0039 0.4615 0.2009 0.240 Uiso 1 1 calc R U . . .
H77 H -0.0130 0.5496 0.1494 0.240 Uiso 1 1 calc R U . . .
C68 C -0.0389(6) 0.5153(6) 0.2576(7) 0.137(3) Uani 1 1 d . U . . .
C69 C -0.1197(8) 0.5033(8) 0.2828(8) 0.201(6) Uani 1 1 d . U . . .
H78 H -0.1344 0.5092 0.3288 0.301 Uiso 1 1 calc R U . . .
H79 H -0.1443 0.5404 0.2427 0.301 Uiso 1 1 calc R U . . .
H80 H -0.1352 0.4522 0.2942 0.301 Uiso 1 1 calc R U . . .
C70 C -0.0348(7) 0.5963(6) 0.2438(6) 0.195(6) Uani 1 1 d . U . . .
H81 H -0.0647 0.5996 0.2877 0.292 Uiso 1 1 calc R U . . .
H82 H 0.0176 0.6126 0.2366 0.292 Uiso 1 1 calc R U . . .
H83 H -0.0548 0.6291 0.1981 0.292 Uiso 1 1 calc R U . . .
C71 C 0.1379(5) 0.4821(5) 0.4338(6) 0.104(2) Uani 1 1 d . U . . .
C72 C 0.1248(9) 0.5577(7) 0.4168(10) 0.205(5) Uani 1 1 d . U . . .
H84 H 0.0920 0.5784 0.3794 0.308 Uiso 1 1 calc R U . . .
H85 H 0.1005 0.5595 0.4633 0.308 Uiso 1 1 calc R U . . .
H86 H 0.1728 0.5877 0.3959 0.308 Uiso 1 1 calc R U . . .
C73 C 0.2079(7) 0.5107(8) 0.3640(8) 0.183(5) Uani 1 1 d . U . . .
H87 H 0.2310 0.4671 0.3608 0.274 Uiso 1 1 calc R U . . .
H88 H 0.1907 0.5435 0.3167 0.274 Uiso 1 1 calc R U . . .
H89 H 0.2451 0.5391 0.3719 0.274 Uiso 1 1 calc R U . . .
C74 C 0.1837(8) 0.4271(7) 0.4869(8) 0.188(5) Uani 1 1 d . U . . .
H90 H 0.1814 0.3790 0.4857 0.281 Uiso 1 1 calc R U . . .
H91 H 0.2361 0.4471 0.4713 0.281 Uiso 1 1 calc R U . . .
H92 H 0.1638 0.4190 0.5387 0.281 Uiso 1 1 calc R U . . .
C75 C 0.5048(3) -0.1420(2) 0.7172(3) 0.0343(10) Uani 1 1 d . . . . .
C76 C 0.5517(3) -0.1936(2) 0.7033(3) 0.0374(11) Uani 1 1 d . . . . .
C77 C 0.5939(3) -0.1566(3) 0.6302(3) 0.0350(11) Uani 1 1 d . . . . .
C78 C 0.5702(2) -0.0822(2) 0.6017(2) 0.0303(10) Uani 1 1 d . . . . .
C79 C 0.6048(2) -0.0257(3) 0.5306(2) 0.0332(10) Uani 1 1 d . . . . .
C80 C 0.5842(2) 0.0491(2) 0.5013(2) 0.0305(10) Uani 1 1 d . . . . .
C81 C 0.6234(2) 0.1060(2) 0.4302(2) 0.0325(10) Uani 1 1 d . . . . .
C82 C 0.5917(3) 0.1715(3) 0.4226(3) 0.0358(11) Uani 1 1 d . . . . .
C83 C 0.5357(2) 0.1545(2) 0.4883(2) 0.0334(10) Uani 1 1 d . . . . .
C84 C 0.4927(3) 0.2064(3) 0.5044(3) 0.0364(11) Uani 1 1 d . . . . .
C85 C 0.4309(3) 0.1840(3) 0.5633(3) 0.0373(11) Uani 1 1 d . . . . .
C86 C 0.3814(3) 0.2357(3) 0.5746(3) 0.0440(12) Uani 1 1 d . . . . .
H20 H 0.3859 0.2892 0.5450 0.053 Uiso 1 1 calc R U . . .
C87 C 0.3275(3) 0.1958(3) 0.6340(3) 0.0414(12) Uani 1 1 d . . . . .
H21 H 0.2857 0.2154 0.6539 0.050 Uiso 1 1 calc R U . . .
C88 C 0.3438(2) 0.1178(2) 0.6629(3) 0.0329(10) Uani 1 1 d . . . . .
C89 C 0.3062(2) 0.0606(3) 0.7315(2) 0.0333(10) Uani 1 1 d . . . . .
C90 C 0.3319(2) -0.0111(3) 0.7637(3) 0.0342(10) Uani 1 1 d . . . . .
C91 C 0.2997(3) -0.0696(3) 0.8384(3) 0.0393(11) Uani 1 1 d . . . . .
H22 H 0.2549 -0.0673 0.8701 0.047 Uiso 1 1 calc R U . . .
C92 C 0.3441(3) -0.1275(3) 0.8553(3) 0.0397(11) Uani 1 1 d . . . . .
H23 H 0.3385 -0.1731 0.9020 0.048 Uiso 1 1 calc R U . . .
C93 C 0.4024(2) -0.1073(3) 0.7889(2) 0.0339(10) Uani 1 1 d . . . . .
C94 C 0.4556(3) -0.1570(3) 0.7851(3) 0.0358(11) Uani 1 1 d . . . . .
C95 C 0.6536(3) -0.1765(3) 0.5875(3) 0.0368(11) Uani 1 1 d . . . . .
C96 C 0.6812(3) -0.2493(3) 0.6127(3) 0.0431(12) Uani 1 1 d . . . . .
H24 H 0.6575 -0.2894 0.6601 0.052 Uiso 1 1 calc R U . . .
C97 C 0.7414(3) -0.2630(3) 0.5700(3) 0.0445(12) Uani 1 1 d . . . . .
H25 H 0.7587 -0.3126 0.5876 0.053 Uiso 1 1 calc R U . . .
C98 C 0.7775(3) -0.2055(3) 0.5014(3) 0.0443(12) Uani 1 1 d . . . . .
H26 H 0.8196 -0.2154 0.4721 0.053 Uiso 1 1 calc R U . . .
C99 C 0.7520(3) -0.1336(3) 0.4754(3) 0.0370(11) Uani 1 1 d . . . . .
C100 C 0.6895(3) -0.1180(3) 0.5170(3) 0.0361(11) Uani 1 1 d . . . . .
C101 C 0.6845(3) 0.0872(3) 0.3865(2) 0.0353(11) Uani 1 1 d . . . . .
C102 C 0.7259(3) 0.1401(3) 0.3149(3) 0.0412(12) Uani 1 1 d . . . . .
H27 H 0.7112 0.1906 0.2914 0.049 Uiso 1 1 calc R U . . .
C103 C 0.7868(3) 0.1190(3) 0.2793(3) 0.0418(12) Uani 1 1 d . . . . .
H28 H 0.8147 0.1556 0.2319 0.050 Uiso 1 1 calc R U . . .
C104 C 0.8084(3) 0.0458(3) 0.3108(3) 0.0420(12) Uani 1 1 d . . . . .
H29 H 0.8509 0.0318 0.2855 0.050 Uiso 1 1 calc R U . . .
C105 C 0.7672(3) -0.0076(3) 0.3802(3) 0.0387(11) Uani 1 1 d . . . . .
C106 C 0.7050(3) 0.0120(3) 0.4182(2) 0.0343(10) Uani 1 1 d . . . . .
C107 C 0.5158(3) 0.2892(3) 0.4640(3) 0.0372(11) Uani 1 1 d . . . . .
C108 C 0.5640(3) 0.3129(3) 0.4955(3) 0.0442(12) Uani 1 1 d . . . . .
H30 H 0.5822 0.2766 0.5387 0.053 Uiso 1 1 calc R U . . .
C109 C 0.5862(3) 0.3892(3) 0.4649(3) 0.0535(14) Uani 1 1 d . . . . .
C110 C 0.5589(3) 0.4400(3) 0.4003(3) 0.0530(14) Uani 1 1 d . . . . .
H31 H 0.5751 0.4918 0.3771 0.064 Uiso 1 1 calc R U . . .
C111 C 0.5104(3) 0.4186(3) 0.3692(3) 0.0450(12) Uani 1 1 d . . . . .
C112 C 0.4887(3) 0.3423(3) 0.4013(3) 0.0418(12) Uani 1 1 d . . . . .
H32 H 0.4549 0.3265 0.3801 0.050 Uiso 1 1 calc R U . . .
C113 C 0.6392(4) 0.4156(4) 0.4995(4) 0.0719(19) Uani 1 1 d . . . . .
C114 C 0.6521(5) 0.3544(5) 0.5758(5) 0.113(3) Uani 1 1 d . . . . .
H93 H 0.6680 0.3092 0.5714 0.169 Uiso 1 1 calc R U . . .
H94 H 0.6913 0.3724 0.5918 0.169 Uiso 1 1 calc R U . . .
H95 H 0.6053 0.3420 0.6136 0.169 Uiso 1 1 calc R U . . .
C115 C 0.7169(4) 0.4371(6) 0.4422(7) 0.122(4) Uani 1 1 d . . . . .
H96 H 0.7358 0.3922 0.4388 0.183 Uiso 1 1 calc R U . . .
H97 H 0.7101 0.4760 0.3919 0.183 Uiso 1 1 calc R U . . .
H98 H 0.7531 0.4564 0.4602 0.183 Uiso 1 1 calc R U . . .
C116 C 0.6147(4) 0.4868(4) 0.5012(4) 0.080(2) Uani 1 1 d . . . . .
H99 H 0.6072 0.5242 0.4506 0.121 Uiso 1 1 calc R U . . .
H100 H 0.5674 0.4762 0.5380 0.121 Uiso 1 1 calc R U . . .
H101 H 0.6534 0.5066 0.5162 0.121 Uiso 1 1 calc R U . . .
C117 C 0.4821(3) 0.4757(3) 0.2969(3) 0.0566(15) Uani 1 1 d . . . . .
C118 C 0.5229(4) 0.4630(3) 0.2310(3) 0.0682(17) Uani 1 1 d . . . . .
H102 H 0.5773 0.4704 0.2251 0.102 Uiso 1 1 calc R U . . .
H103 H 0.5107 0.4114 0.2416 0.102 Uiso 1 1 calc R U . . .
H104 H 0.5068 0.4990 0.1840 0.102 Uiso 1 1 calc R U . . .
C119 C 0.4993(5) 0.5574(3) 0.2767(4) 0.082(2) Uani 1 1 d . . . . .
H105 H 0.5537 0.5667 0.2685 0.124 Uiso 1 1 calc R U . . .
H106 H 0.4812 0.5912 0.2302 0.124 Uiso 1 1 calc R U . . .
H107 H 0.4740 0.5669 0.3184 0.124 Uiso 1 1 calc R U . . .
C120 C 0.3977(4) 0.4650(4) 0.3087(4) 0.075(2) Uani 1 1 d . . . . .
H108 H 0.3842 0.4129 0.3219 0.112 Uiso 1 1 calc R U . . .
H109 H 0.3735 0.4755 0.3501 0.112 Uiso 1 1 calc R U . . .
H110 H 0.3806 0.4998 0.2619 0.112 Uiso 1 1 calc R U . . .
C121 C 0.2405(2) 0.0792(3) 0.7761(3) 0.0353(11) Uani 1 1 d . . . . .
C122 C 0.2426(2) 0.0687(3) 0.8482(2) 0.0362(11) Uani 1 1 d . . . . .
H33 H 0.2874 0.0527 0.8677 0.043 Uiso 1 1 calc R U . . .
C123 C 0.1805(3) 0.0811(3) 0.8932(3) 0.0383(11) Uani 1 1 d . . . . .
C124 C 0.1179(3) 0.1089(3) 0.8611(3) 0.0377(11) Uani 1 1 d . . . . .
H34 H 0.0760 0.1193 0.8902 0.045 Uiso 1 1 calc R U . . .
C125 C 0.1135(2) 0.1224(3) 0.7880(3) 0.0348(10) Uani 1 1 d . . . . .
C126 C 0.1753(2) 0.1067(3) 0.7464(3) 0.0357(11) Uani 1 1 d . . . . .
H35 H 0.1735 0.1148 0.6967 0.043 Uiso 1 1 calc R U . . .
C127 C 0.1833(3) 0.0619(3) 0.9759(3) 0.0472(13) Uani 1 1 d . . . . .
C128 C 0.2542(3) 0.0988(4) 0.9778(3) 0.0627(17) Uani 1 1 d . . . . .
H111 H 0.2984 0.0837 0.9531 0.094 Uiso 1 1 calc R U . . .
H112 H 0.2520 0.1539 0.9509 0.094 Uiso 1 1 calc R U . . .
H113 H 0.2576 0.0827 1.0308 0.094 Uiso 1 1 calc R U . . .
C129 C 0.1859(4) -0.0239(3) 1.0229(3) 0.0707(18) Uani 1 1 d . . . . .
H114 H 0.2298 -0.0413 1.0002 0.106 Uiso 1 1 calc R U . . .
H115 H 0.1894 -0.0366 1.0751 0.106 Uiso 1 1 calc R U . . .
H116 H 0.1400 -0.0487 1.0237 0.106 Uiso 1 1 calc R U . . .
C130 C 0.1153(3) 0.0847(4) 1.0135(3) 0.0600(16) Uani 1 1 d . . . . .
H117 H 0.0700 0.0607 1.0120 0.090 Uiso 1 1 calc R U . . .
H118 H 0.1184 0.0685 1.0665 0.090 Uiso 1 1 calc R U . . .
H119 H 0.1129 0.1397 0.9866 0.090 Uiso 1 1 calc R U . . .
C131 C 0.0420(3) 0.1503(3) 0.7556(3) 0.0438(12) Uani 1 1 d . . . . .
C132 C -0.0097(4) 0.0808(4) 0.7820(4) 0.096(3) Uani 1 1 d . . . . .
H120 H 0.0157 0.0472 0.7633 0.144 Uiso 1 1 calc R U . . .
H121 H -0.0220 0.0540 0.8377 0.144 Uiso 1 1 calc R U . . .
H122 H -0.0561 0.0965 0.7620 0.144 Uiso 1 1 calc R U . . .
C133 C 0.0019(5) 0.2001(6) 0.7850(6) 0.129(4) Uani 1 1 d . . . . .
H123 H -0.0090 0.1732 0.8407 0.194 Uiso 1 1 calc R U . . .
H124 H 0.0337 0.2459 0.7673 0.194 Uiso 1 1 calc R U . . .
H125 H -0.0453 0.2139 0.7663 0.194 Uiso 1 1 calc R U . . .
C134 C 0.0587(3) 0.1921(4) 0.6697(3) 0.074(2) Uani 1 1 d . . . . .
H126 H 0.0851 0.1595 0.6501 0.112 Uiso 1 1 calc R U . . .
H127 H 0.0114 0.2058 0.6511 0.112 Uiso 1 1 calc R U . . .
H128 H 0.0904 0.2379 0.6521 0.112 Uiso 1 1 calc R U . . .
C135 C 0.4626(3) -0.2246(3) 0.8585(3) 0.0366(11) Uani 1 1 d . . . . .
C136 C 0.5181(3) -0.2202(2) 0.8966(2) 0.0341(10) Uani 1 1 d . . . . .
H36 H 0.5508 -0.1760 0.8737 0.041 Uiso 1 1 calc R U . . .
C137 C 0.5261(3) -0.2783(3) 0.9660(3) 0.0380(11) Uani 1 1 d . . . . .
C138 C 0.4775(3) -0.3426(3) 0.9981(3) 0.0425(12) Uani 1 1 d . . . . .
H37 H 0.4824 -0.3833 1.0459 0.051 Uiso 1 1 calc R U . . .
C139 C 0.4219(3) -0.3488(3) 0.9621(3) 0.0430(12) Uani 1 1 d . . . . .
C140 C 0.4149(3) -0.2888(3) 0.8927(3) 0.0409(11) Uani 1 1 d . . . . .
H38 H 0.3766 -0.2919 0.8680 0.049 Uiso 1 1 calc R U . . .
C141 C 0.5497(4) -0.2337(6) 1.0554(5) 0.120(4) Uani 1 1 d . . . . .
H129 H 0.5321 -0.1847 1.0223 0.180 Uiso 1 1 calc R U . . .
H130 H 0.5071 -0.2660 1.0938 0.180 Uiso 1 1 calc R U . . .
H131 H 0.5872 -0.2263 1.0808 0.180 Uiso 1 1 calc R U . . .
C142 C 0.5845(3) -0.2705(3) 1.0089(3) 0.0429(12) Uani 1 1 d . . . . .
C143 C 0.6538(4) -0.2209(4) 0.9557(3) 0.083(2) Uani 1 1 d . . . . .
H132 H 0.6787 -0.2429 0.9238 0.125 Uiso 1 1 calc R U . . .
H133 H 0.6388 -0.1703 0.9233 0.125 Uiso 1 1 calc R U . . .
H134 H 0.6886 -0.2176 0.9857 0.125 Uiso 1 1 calc R U . . .
C144 C 0.6122(4) -0.3460(4) 1.0583(5) 0.097(3) Uani 1 1 d . . . . .
H135 H 0.6348 -0.3693 1.0267 0.146 Uiso 1 1 calc R U . . .
H136 H 0.6499 -0.3392 1.0836 0.146 Uiso 1 1 calc R U . . .
H137 H 0.5699 -0.3789 1.0966 0.146 Uiso 1 1 calc R U . . .
C145 C 0.3679(3) -0.4201(3) 0.9985(3) 0.0480(13) Uani 1 1 d . . . . .
C146 C 0.3779(4) -0.4557(4) 0.9474(5) 0.088(2) Uani 1 1 d . . . . .
H138 H 0.4305 -0.4676 0.9383 0.132 Uiso 1 1 calc R U . . .
H139 H 0.3456 -0.5023 0.9714 0.132 Uiso 1 1 calc R U . . .
H140 H 0.3640 -0.4206 0.8988 0.132 Uiso 1 1 calc R U . . .
C147 C 0.2900(4) -0.3992(4) 1.0169(5) 0.086(2) Uani 1 1 d . . . . .
H141 H 0.2886 -0.3764 1.0504 0.130 Uiso 1 1 calc R U . . .
H142 H 0.2742 -0.3629 0.9698 0.130 Uiso 1 1 calc R U . . .
H143 H 0.2558 -0.4445 1.0424 0.130 Uiso 1 1 calc R U . . .
C148 C 0.3856(4) -0.4801(4) 1.0775(4) 0.094(3) Uani 1 1 d . . . . .
H144 H 0.4366 -0.4967 1.0700 0.141 Uiso 1 1 calc R U . . .
H145 H 0.3820 -0.4573 1.1113 0.141 Uiso 1 1 calc R U . . .
H146 H 0.3493 -0.5236 1.1005 0.141 Uiso 1 1 calc R U . . .
C150 C 0.2062(10) 0.6367(10) 0.7879(11) 0.112(6) Uani 0.5 1 d . U P . .
H147 H 0.2007 0.6845 0.7415 0.134 Uiso 0.5 1 calc R U P . .
N1 N 0.03210(19) 0.12820(19) 0.50269(19) 0.0282(8) Uani 1 1 d . . . . .
N2 N 0.01486(19) -0.02252(18) 0.61484(19) 0.0264(8) Uani 1 1 d . . . . .
N3 N -0.10970(19) 0.01126(19) 0.69421(19) 0.0273(8) Uani 1 1 d . . . . .
N4 N -0.08950(19) 0.16021(18) 0.58713(19) 0.0269(8) Uani 1 1 d . . . . .
N5 N 0.16851(19) 0.00958(19) 0.45271(19) 0.0281(8) Uani 1 1 d . . . . .
N6 N 0.5144(2) -0.0718(2) 0.6522(2) 0.0324(9) Uani 1 1 d . . . . .
N7 N 0.5302(2) 0.0771(2) 0.5369(2) 0.0326(8) Uani 1 1 d . . . . .
N8 N 0.4068(2) 0.1101(2) 0.6180(2) 0.0357(9) Uani 1 1 d . . . . .
N9 N 0.3941(2) -0.0355(2) 0.7325(2) 0.0340(9) Uani 1 1 d . . . . .
N10 N 0.6652(2) -0.0440(2) 0.4895(2) 0.0315(8) Uani 1 1 d . . . . .
O1 O 0.29432(17) -0.02399(18) 0.36903(17) 0.0374(7) Uani 1 1 d . . . . .
O2 O 0.79153(18) -0.07939(19) 0.40831(18) 0.0433(8) Uani 1 1 d . . . . .
Ni1 Ni -0.03822(4) 0.06952(4) 0.59973(4) 0.02552(19) Uani 1 1 d . . . . .
Ni2 Ni 0.46120(4) 0.01985(4) 0.63515(4) 0.0315(2) Uani 1 1 d . . . . .
Cl1 Cl 0.11911(7) 0.31281(6) 0.31358(6) 0.0462(3) Uani 1 1 d . . . . .
Cl2 Cl 0.05460(7) -0.23947(6) 0.72460(7) 0.0412(3) Uani 1 1 d . . . . .
Cl3 Cl 0.55568(7) -0.28851(6) 0.76641(7) 0.0458(3) Uani 1 1 d . . . . .
Cl4 Cl 0.61469(7) 0.25919(7) 0.34466(7) 0.0494(3) Uani 1 1 d . . . . .
Cl8 Cl 0.2618(4) 0.5837(4) 0.7577(6) 0.225(4) Uani 0.5 1 d . U P . .
Cl9 Cl 0.1154(3) 0.5939(3) 0.8316(4) 0.166(3) Uani 0.5 1 d . U P . .
Cl10 Cl 0.2454(5) 0.6590(5) 0.8347(3) 0.199(4) Uani 0.5 1 d . U P . .
C149 C 0.2510(4) 0.2774(4) 0.7702(4) 0.0754(19) Uani 1 1 d . U . A 1
H148 H 0.2259 0.2273 0.8095 0.090 Uiso 1 1 calc R U . A 1
Cl6 Cl 0.34681(12) 0.27853(15) 0.76229(14) 0.1113(7) Uani 1 1 d . U . A 1
Cl5 Cl 0.219(3) 0.309(3) 0.695(3) 0.157(13) Uani 0.129(11) 1 d . U P A 1
Cl7 Cl 0.252(2) 0.348(3) 0.811(2) 0.153(11) Uani 0.129(11) 1 d . U P A 1
Cl11 Cl 0.2061(3) 0.3007(2) 0.84163(16) 0.1052(15) Uani 0.871(11) 1 d . U P A 2
Cl12 Cl 0.2244(3) 0.33762(17) 0.68288(16) 0.0739(9) Uani 0.871(11) 1 d . U P A
2
loop_
_atom_site_aniso_label
_atom_site_aniso_U_11
_atom_site_aniso_U_22
_atom_site_aniso_U_33
_atom_site_aniso_U_23
_atom_site_aniso_U_13
_atom_site_aniso_U_12
C1 0.039(2) 0.029(2) 0.019(2) -0.0059(19) -0.0077(19) 0.0020(19)
C2 0.039(2) 0.030(2) 0.018(2) -0.0050(19) -0.0016(19) 0.0003(19)
C3 0.037(2) 0.040(3) 0.017(2) -0.010(2) -0.0053(19) -0.002(2)
C4 0.035(2) 0.030(2) 0.016(2) -0.0092(18) -0.0078(18) 0.0028(18)
C5 0.032(2) 0.030(2) 0.019(2) -0.0129(18) -0.0049(18) 0.0013(18)
C6 0.035(2) 0.029(2) 0.019(2) -0.0122(18) -0.0084(19) 0.0060(18)
C7 0.036(2) 0.029(2) 0.024(2) -0.0117(19) -0.009(2) 0.0044(18)
C8 0.038(2) 0.030(2) 0.026(2) -0.012(2) -0.008(2) 0.0062(19)
C9 0.032(2) 0.025(2) 0.024(2) -0.0058(18) -0.0087(19) 0.0014(17)
C10 0.034(2) 0.026(2) 0.022(2) -0.0064(18) -0.0051(19) -0.0006(18)
C11 0.032(2) 0.027(2) 0.019(2) -0.0070(18) -0.0043(18) -0.0002(18)
C12 0.040(3) 0.028(2) 0.019(2) -0.0047(19) -0.003(2) 0.0018(19)
C13 0.031(2) 0.035(2) 0.025(2) -0.010(2) -0.0045(19) -0.0006(19)
C14 0.030(2) 0.034(2) 0.021(2) -0.0113(19) -0.0053(18) -0.0005(18)
C15 0.028(2) 0.033(2) 0.025(2) -0.0131(19) -0.0082(19) 0.0022(18)
C16 0.030(2) 0.035(2) 0.021(2) -0.0117(19) -0.0085(19) 0.0065(18)
C17 0.039(2) 0.031(2) 0.031(3) -0.013(2) -0.009(2) 0.0101(19)
C18 0.047(3) 0.026(2) 0.029(3) -0.006(2) -0.011(2) 0.009(2)
C19 0.037(2) 0.029(2) 0.023(2) -0.0093(19) -0.010(2) 0.0075(18)
C20 0.044(3) 0.031(2) 0.021(2) -0.0066(19) -0.008(2) 0.007(2)
C21 0.035(2) 0.038(2) 0.019(2) -0.014(2) -0.0034(19) 0.0012(19)
C22 0.043(3) 0.041(3) 0.020(2) -0.011(2) -0.006(2) 0.000(2)
C23 0.043(3) 0.048(3) 0.021(2) -0.015(2) 0.000(2) -0.003(2)
C24 0.039(3) 0.058(3) 0.025(3) -0.023(2) -0.001(2) 0.001(2)
C25 0.036(2) 0.044(3) 0.024(2) -0.019(2) -0.007(2) 0.004(2)
C26 0.034(2) 0.043(3) 0.020(2) -0.018(2) -0.0068(19) 0.0013(19)
C27 0.040(3) 0.034(2) 0.024(2) -0.014(2) -0.011(2) 0.0077(19)
C28 0.045(3) 0.036(2) 0.029(3) -0.015(2) -0.007(2) 0.007(2)
C29 0.052(3) 0.038(3) 0.040(3) -0.022(2) -0.016(2) 0.016(2)
C30 0.039(3) 0.054(3) 0.033(3) -0.027(2) -0.011(2) 0.016(2)
C31 0.036(2) 0.048(3) 0.022(2) -0.021(2) -0.005(2) 0.007(2)
C32 0.035(2) 0.039(2) 0.025(2) -0.020(2) -0.008(2) 0.0068(19)
C33 0.032(2) 0.031(2) 0.020(2) -0.0081(19) -0.0025(18) 0.0035(18)
C34 0.037(3) 0.038(2) 0.025(2) -0.009(2) -0.002(2) -0.002(2)
C35 0.034(2) 0.052(3) 0.022(2) -0.012(2) -0.003(2) 0.007(2)
C36 0.039(3) 0.041(3) 0.021(2) -0.002(2) -0.003(2) 0.008(2)
C37 0.035(2) 0.030(2) 0.023(2) -0.0063(19) -0.0005(19) 0.0092(18)
C38 0.032(2) 0.029(2) 0.024(2) -0.0089(19) -0.0049(19) 0.0038(18)
C39 0.039(3) 0.076(4) 0.029(3) -0.016(3) -0.011(2) -0.002(3)
C40 0.056(3) 0.100(5) 0.042(3) -0.039(3) -0.015(3) 0.011(3)
C41 0.069(4) 0.207(10) 0.118(7) -0.123(7) -0.064(5) 0.078(5)
C42 0.086(5) 0.126(6) 0.053(4) -0.025(4) -0.023(4) -0.038(5)
C43 0.040(3) 0.033(2) 0.027(3) -0.003(2) -0.003(2) 0.005(2)
C44 0.065(4) 0.040(3) 0.080(5) -0.017(3) -0.006(3) 0.009(3)
C45 0.052(3) 0.061(3) 0.030(3) -0.008(3) -0.001(2) -0.006(3)
C46 0.060(3) 0.040(3) 0.037(3) -0.008(2) -0.004(3) -0.013(2)
C47 0.031(2) 0.030(2) 0.022(2) -0.0075(19) -0.0051(18) 0.0028(18)
C48 0.035(2) 0.040(2) 0.029(2) -0.019(2) -0.010(2) 0.0038(19)
C49 0.032(2) 0.041(3) 0.034(3) -0.020(2) -0.007(2) 0.0049(19)
C50 0.031(2) 0.039(2) 0.030(3) -0.017(2) -0.004(2) 0.0079(19)
C51 0.035(2) 0.031(2) 0.029(2) -0.012(2) -0.010(2) 0.0080(18)
C52 0.027(2) 0.035(2) 0.024(2) -0.0100(19) -0.0045(18) 0.0044(18)
C53 0.034(3) 0.069(3) 0.062(4) -0.046(3) -0.006(3) 0.004(2)
C54 0.077(5) 0.135(8) 0.160(9) -0.037(7) -0.075(6) -0.007(5)
C55 0.054(4) 0.314(15) 0.204(11) -0.221(12) 0.058(6) -0.082(7)
C56 0.041(4) 0.086(5) 0.204(10) -0.085(6) 0.009(5) -0.019(3)
C57 0.035(2) 0.039(2) 0.037(3) -0.020(2) -0.009(2) 0.0064(19)
C58 0.060(3) 0.046(3) 0.036(3) -0.023(2) -0.014(2) 0.010(2)
C59 0.056(3) 0.039(3) 0.039(3) -0.020(2) -0.009(2) 0.010(2)
C60 0.042(3) 0.069(4) 0.071(4) -0.051(3) -0.009(3) 0.002(3)
C61 0.053(3) 0.029(2) 0.034(3) -0.009(2) 0.005(2) 0.006(2)
C62 0.071(3) 0.043(3) 0.047(3) 0.003(2) -0.002(3) 0.017(2)
C63 0.091(4) 0.053(3) 0.076(4) 0.009(3) 0.011(3) 0.020(3)
C64 0.081(4) 0.039(3) 0.086(4) -0.006(3) 0.029(3) 0.008(3)
C65 0.076(3) 0.049(3) 0.085(4) -0.039(3) 0.030(3) -0.009(3)
C66 0.061(3) 0.036(2) 0.050(3) -0.021(2) 0.021(2) -0.005(2)
C67 0.224(10) 0.140(8) 0.104(7) -0.044(6) -0.061(7) 0.107(7)
C68 0.123(5) 0.093(5) 0.113(5) 0.008(4) -0.001(5) 0.045(4)
C69 0.166(9) 0.186(10) 0.158(9) -0.002(8) -0.058(8) 0.071(8)
C70 0.210(9) 0.119(7) 0.118(7) 0.025(6) 0.034(7) 0.103(7)
C71 0.099(4) 0.068(4) 0.147(5) -0.062(4) 0.008(4) -0.023(3)
C72 0.233(11) 0.137(8) 0.305(12) -0.148(8) -0.062(10) -0.005(8)
C73 0.129(8) 0.178(9) 0.198(10) -0.062(8) -0.004(8) -0.021(7)
C74 0.230(10) 0.147(8) 0.214(10) -0.092(8) -0.070(9) -0.068(8)
C75 0.040(3) 0.036(2) 0.026(3) -0.014(2) -0.009(2) 0.006(2)
C76 0.048(3) 0.031(2) 0.033(3) -0.012(2) -0.015(2) 0.006(2)
C77 0.042(3) 0.038(3) 0.026(3) -0.014(2) -0.010(2) 0.001(2)
C78 0.036(2) 0.037(2) 0.019(2) -0.014(2) -0.009(2) 0.0067(19)
C79 0.036(2) 0.043(3) 0.023(2) -0.017(2) -0.010(2) 0.004(2)
C80 0.035(2) 0.036(2) 0.021(2) -0.014(2) -0.0086(19) 0.0039(19)
C81 0.037(2) 0.038(2) 0.023(2) -0.015(2) -0.005(2) 0.001(2)
C82 0.040(3) 0.040(3) 0.023(2) -0.012(2) -0.004(2) 0.004(2)
C83 0.036(2) 0.036(2) 0.024(2) -0.010(2) -0.006(2) 0.0066(19)
C84 0.041(3) 0.038(3) 0.022(2) -0.008(2) -0.005(2) 0.007(2)
C85 0.043(3) 0.035(3) 0.029(3) -0.011(2) -0.010(2) 0.007(2)
C86 0.050(3) 0.040(3) 0.031(3) -0.010(2) -0.006(2) 0.012(2)
C87 0.041(3) 0.043(3) 0.032(3) -0.012(2) -0.008(2) 0.010(2)
C88 0.035(2) 0.038(2) 0.025(2) -0.014(2) -0.008(2) 0.0078(19)
C89 0.033(2) 0.043(3) 0.024(2) -0.015(2) -0.008(2) 0.002(2)
C90 0.033(2) 0.042(3) 0.028(2) -0.016(2) -0.007(2) 0.002(2)
C91 0.035(2) 0.048(3) 0.030(3) -0.017(2) 0.001(2) 0.001(2)
C92 0.041(3) 0.040(3) 0.032(3) -0.013(2) -0.002(2) 0.000(2)
C93 0.037(2) 0.038(2) 0.021(2) -0.010(2) -0.002(2) 0.000(2)
C94 0.041(3) 0.039(3) 0.025(2) -0.012(2) -0.007(2) -0.002(2)
C95 0.045(3) 0.045(3) 0.027(3) -0.021(2) -0.010(2) 0.006(2)
C96 0.057(3) 0.041(3) 0.034(3) -0.019(2) -0.012(2) 0.007(2)
C97 0.050(3) 0.050(3) 0.041(3) -0.026(3) -0.015(3) 0.017(2)
C98 0.050(3) 0.052(3) 0.037(3) -0.027(3) -0.010(2) 0.013(2)
C99 0.042(3) 0.050(3) 0.024(3) -0.021(2) -0.008(2) 0.005(2)
C100 0.040(3) 0.042(3) 0.030(3) -0.018(2) -0.015(2) 0.007(2)
C101 0.040(3) 0.042(3) 0.024(2) -0.015(2) -0.007(2) -0.002(2)
C102 0.046(3) 0.042(3) 0.033(3) -0.017(2) -0.001(2) -0.004(2)
C103 0.045(3) 0.048(3) 0.030(3) -0.020(2) 0.004(2) -0.007(2)
C104 0.044(3) 0.051(3) 0.031(3) -0.022(2) 0.001(2) -0.006(2)
C105 0.040(3) 0.047(3) 0.038(3) -0.026(2) -0.012(2) 0.006(2)
C106 0.037(3) 0.045(3) 0.022(2) -0.017(2) -0.007(2) 0.003(2)
C107 0.038(3) 0.040(3) 0.028(3) -0.015(2) 0.003(2) 0.006(2)
C108 0.046(3) 0.042(3) 0.038(3) -0.016(2) -0.008(2) 0.014(2)
C109 0.060(3) 0.047(3) 0.060(4) -0.028(3) -0.020(3) 0.020(3)
C110 0.060(3) 0.035(3) 0.055(4) -0.018(3) -0.004(3) 0.005(2)
C111 0.051(3) 0.042(3) 0.034(3) -0.012(2) -0.006(2) 0.010(2)
C112 0.048(3) 0.043(3) 0.028(3) -0.012(2) -0.006(2) 0.008(2)
C113 0.077(4) 0.060(4) 0.098(5) -0.045(4) -0.041(4) 0.016(3)
C114 0.146(8) 0.092(5) 0.146(8) -0.067(6) -0.108(7) 0.041(5)
C115 0.061(5) 0.149(8) 0.221(12) -0.145(9) -0.019(6) 0.017(5)
C116 0.106(6) 0.070(4) 0.090(5) -0.049(4) -0.047(5) 0.033(4)
C117 0.075(4) 0.039(3) 0.035(3) -0.003(2) -0.009(3) 0.008(3)
C118 0.097(5) 0.056(3) 0.036(3) -0.012(3) -0.006(3) 0.003(3)
C119 0.129(6) 0.039(3) 0.067(4) -0.008(3) -0.040(4) 0.016(4)
C120 0.069(4) 0.064(4) 0.062(4) -0.002(3) -0.027(3) 0.020(3)
C121 0.034(2) 0.038(2) 0.030(3) -0.013(2) -0.007(2) 0.0013(19)
C122 0.033(2) 0.046(3) 0.025(2) -0.011(2) -0.008(2) 0.006(2)
C123 0.037(3) 0.048(3) 0.029(3) -0.017(2) -0.007(2) 0.006(2)
C124 0.033(2) 0.047(3) 0.027(3) -0.014(2) -0.002(2) 0.003(2)
C125 0.032(2) 0.040(3) 0.031(3) -0.017(2) -0.005(2) 0.0023(19)
C126 0.035(2) 0.042(3) 0.030(3) -0.017(2) -0.008(2) 0.004(2)
C127 0.040(3) 0.069(3) 0.030(3) -0.021(3) -0.009(2) 0.016(2)
C128 0.059(4) 0.100(5) 0.032(3) -0.032(3) -0.007(3) -0.013(3)
C129 0.098(5) 0.058(4) 0.039(3) -0.010(3) -0.013(3) 0.015(3)
C130 0.058(3) 0.095(5) 0.035(3) -0.037(3) -0.013(3) 0.019(3)
C131 0.032(2) 0.070(3) 0.042(3) -0.035(3) -0.014(2) 0.012(2)
C132 0.060(4) 0.107(6) 0.090(5) -0.009(4) -0.045(4) -0.025(4)
C133 0.111(6) 0.224(11) 0.169(9) -0.166(9) -0.111(7) 0.127(7)
C134 0.046(3) 0.106(5) 0.044(4) -0.008(3) -0.020(3) 0.006(3)
C135 0.040(3) 0.035(2) 0.027(3) -0.011(2) -0.001(2) 0.003(2)
C136 0.040(3) 0.032(2) 0.023(2) -0.009(2) 0.000(2) 0.0010(19)
C137 0.043(3) 0.041(3) 0.025(2) -0.015(2) 0.001(2) 0.006(2)
C138 0.050(3) 0.035(3) 0.028(3) -0.007(2) 0.000(2) 0.009(2)
C139 0.049(3) 0.030(2) 0.038(3) -0.012(2) 0.007(2) 0.002(2)
C140 0.042(3) 0.038(3) 0.036(3) -0.015(2) -0.001(2) 0.002(2)
C141 0.073(5) 0.256(12) 0.128(7) -0.163(9) -0.048(5) 0.076(6)
C142 0.048(3) 0.051(3) 0.021(2) -0.011(2) -0.006(2) 0.014(2)
C143 0.089(5) 0.104(5) 0.043(4) -0.015(4) -0.029(3) -0.031(4)
C144 0.087(5) 0.064(4) 0.118(7) -0.011(4) -0.059(5) 0.007(4)
C145 0.054(3) 0.031(2) 0.045(3) -0.011(2) 0.004(3) 0.000(2)
C146 0.093(5) 0.064(4) 0.106(6) -0.052(4) 0.021(4) -0.017(4)
C147 0.056(4) 0.059(4) 0.127(7) -0.041(4) 0.013(4) -0.006(3)
C148 0.087(5) 0.064(4) 0.088(6) 0.000(4) -0.016(4) -0.014(4)
C150 0.089(10) 0.084(10) 0.134(13) -0.020(9) -0.037(10) -0.041(8)
N1 0.036(2) 0.0268(18) 0.0188(18) -0.0072(15) -0.0090(16) 0.0035(15)
N2 0.0308(19) 0.0272(18) 0.0188(18) -0.0085(15) -0.0060(15) 0.0037(14)
N3 0.0303(19) 0.0283(18) 0.0229(19) -0.0120(16) -0.0046(15) 0.0041(15)
N4 0.0318(19) 0.0249(18) 0.0169(18) -0.0039(15) -0.0056(15) 0.0035(14)
N5 0.0338(19) 0.0317(19) 0.0191(19) -0.0123(16) -0.0050(16) 0.0037(15)
N6 0.038(2) 0.034(2) 0.023(2) -0.0103(17) -0.0065(17) -0.0011(16)
N7 0.037(2) 0.036(2) 0.0222(19) -0.0113(17) -0.0087(17) 0.0064(16)
N8 0.039(2) 0.039(2) 0.021(2) -0.0076(17) -0.0061(17) 0.0052(17)
N9 0.035(2) 0.036(2) 0.026(2) -0.0115(17) -0.0048(17) 0.0022(16)
N10 0.039(2) 0.038(2) 0.0207(19) -0.0154(17) -0.0077(17) 0.0046(16)
O1 0.0414(18) 0.0447(19) 0.0278(18) -0.0202(15) -0.0025(14) 0.0063(14)
O2 0.0484(19) 0.048(2) 0.0315(19) -0.0184(16) -0.0060(15) 0.0083(15)
Ni1 0.0308(4) 0.0246(4) 0.0164(4) -0.0061(3) -0.0042(3) 0.0041(3)
Ni2 0.0350(4) 0.0345(4) 0.0200(4) -0.0091(3) -0.0054(3) 0.0049(3)
Cl1 0.0628(8) 0.0320(6) 0.0240(6) -0.0019(5) 0.0049(5) 0.0020(5)
Cl2 0.0504(7) 0.0262(5) 0.0332(6) -0.0063(5) 0.0004(5) 0.0083(5)
Cl3 0.0588(7) 0.0341(6) 0.0343(7) -0.0105(5) -0.0026(6) 0.0082(5)
Cl4 0.0574(8) 0.0399(6) 0.0306(7) -0.0051(5) 0.0048(6) 0.0062(5)
Cl8 0.140(5) 0.139(5) 0.273(10) -0.008(6) 0.004(6) -0.051(5)
Cl9 0.103(4) 0.115(4) 0.184(6) 0.010(4) -0.032(4) 0.004(3)
Cl10 0.234(8) 0.260(9) 0.078(4) -0.055(5) -0.027(4) -0.053(7)
C149 0.102(5) 0.062(4) 0.063(4) -0.029(3) -0.024(4) 0.025(4)
Cl6 0.0894(14) 0.148(2) 0.1246(18) -0.0786(16) -0.0439(13) 0.0100(13)
Cl5 0.140(19) 0.13(2) 0.21(3) -0.073(19) -0.066(18) 0.04(2)
Cl7 0.18(2) 0.17(2) 0.113(17) -0.068(17) -0.050(16) 0.047(19)
Cl11 0.166(3) 0.087(2) 0.0590(16) -0.0345(15) -0.0215(18) 0.055(2)
Cl12 0.110(2) 0.0551(15) 0.0579(15) -0.0261(11) -0.0255(12) 0.0316(13)
loop_
_atom_type_symbol
_atom_type_description
_atom_type_scat_dispersion_real
_atom_type_scat_dispersion_imag
_atom_type_scat_source
C C 0.0181 0.0091 'International Tables Vol C Tables 4.2.6.8 and 6.1.1.4'
H H 0.0000 0.0000 'International Tables Vol C Tables 4.2.6.8 and 6.1.1.4'
N N 0.0311 0.0180 'International Tables Vol C Tables 4.2.6.8 and 6.1.1.4'
O O 0.0492 0.0322 'International Tables Vol C Tables 4.2.6.8 and 6.1.1.4'
Cl Cl 0.3639 0.7018 'International Tables Vol C Tables 4.2.6.8 and 6.1.1.4'
Ni Ni -3.0029 0.5091 'International Tables Vol C Tables 4.2.6.8 and 6.1.1.4'
loop_
_geom_angle_atom_site_label_1
_geom_angle_atom_site_label_2
_geom_angle_atom_site_label_3
_geom_angle
N1 C1 C20 123.7(4)
N1 C1 C2 110.1(4)
C20 C1 C2 126.2(4)
C3 C2 C1 107.9(4)
C3 C2 Cl1 125.1(3)
C1 C2 Cl1 126.9(4)
C2 C3 C4 105.4(4)
C2 C3 C21 134.6(4)
C4 C3 C21 119.9(4)
N1 C4 C5 127.0(4)
N1 C4 C3 112.0(4)
C5 C4 C3 120.9(4)
C4 C5 N5 119.7(4)
C4 C5 C6 121.7(4)
N5 C5 C6 118.5(4)
N2 C6 C5 126.2(4)
N2 C6 C7 112.9(4)
C5 C6 C7 120.8(4)
C8 C7 C6 104.7(4)
C8 C7 C27 134.7(4)
C6 C7 C27 120.5(4)
C7 C8 C9 107.8(4)
C7 C8 Cl2 125.3(3)
C9 C8 Cl2 126.9(3)
N2 C9 C10 124.0(4)
N2 C9 C8 110.5(4)
C10 C9 C8 125.5(4)
C11 C10 C9 121.8(4)
C11 C10 C33 116.8(4)
C9 C10 C33 121.1(4)
C10 C11 N3 127.4(4)
C10 C11 C12 122.4(4)
N3 C11 C12 110.2(4)
C13 C12 C11 107.5(4)
C12 C13 C14 107.2(4)
C15 C14 N3 126.5(4)
C15 C14 C13 122.9(4)
N3 C14 C13 110.1(4)
C14 C15 C16 121.3(4)
C14 C15 C47 119.5(4)
C16 C15 C47 118.8(4)
N4 C16 C15 125.4(4)
N4 C16 C17 111.2(4)
C15 C16 C17 123.3(4)
C18 C17 C16 106.9(4)
C17 C18 C19 107.5(4)
C20 C19 N4 127.1(4)
C20 C19 C18 122.6(4)
N4 C19 C18 110.3(4)
C19 C20 C1 122.9(4)
C19 C20 C61 115.8(4)
C1 C20 C61 121.1(4)
C26 C21 C22 118.7(4)
C26 C21 C3 117.7(4)
C22 C21 C3 123.6(4)
C23 C22 C21 120.9(4)
C22 C23 C24 119.6(4)
C25 C24 C23 120.5(5)
O1 C25 C24 116.0(4)
O1 C25 C26 123.7(4)
C24 C25 C26 120.4(4)
C21 C26 C25 119.9(4)
C21 C26 N5 121.3(4)
C25 C26 N5 118.8(4)
C28 C27 C32 119.2(4)
C28 C27 C7 124.1(4)
C32 C27 C7 116.7(4)
C29 C28 C27 121.2(4)
C28 C29 C30 119.8(4)
C31 C30 C29 120.5(5)
C30 C31 O1 117.1(4)
C30 C31 C32 121.1(4)
O1 C31 C32 121.8(4)
C27 C32 N5 122.2(4)
C27 C32 C31 118.1(4)
N5 C32 C31 119.7(4)
C34 C33 C38 119.8(4)
C34 C33 C10 117.0(4)
C38 C33 C10 123.0(4)
C35 C34 C33 121.1(4)
C34 C35 C36 117.9(4)
C34 C35 C39 122.4(4)
C36 C35 C39 119.7(4)
C35 C36 C37 122.8(4)
C38 C37 C36 117.4(4)
C38 C37 C43 123.1(4)
C36 C37 C43 119.4(4)
C33 C38 C37 120.9(4)
C41 C39 C40 113.3(5)
C41 C39 C35 110.2(5)
C40 C39 C35 110.0(4)
C41 C39 C42 109.7(6)
C40 C39 C42 103.2(5)
C35 C39 C42 110.3(4)
C44 C43 C45 109.5(4)
C44 C43 C37 109.5(4)
C45 C43 C37 109.5(4)
C44 C43 C46 108.0(5)
C45 C43 C46 108.3(4)
C37 C43 C46 112.0(4)
C48 C47 C52 118.7(4)
C48 C47 C15 121.1(4)
C52 C47 C15 120.2(4)
C47 C48 C49 121.6(4)
C50 C49 C48 118.2(4)
C50 C49 C53 121.4(4)
C48 C49 C53 120.4(4)
C49 C50 C51 122.1(4)
C52 C51 C50 117.7(4)
C52 C51 C57 123.0(4)
C50 C51 C57 119.3(4)
C51 C52 C47 121.6(4)
C55 C53 C56 109.1(7)
C55 C53 C49 113.6(5)
C56 C53 C49 111.7(4)
C55 C53 C54 108.1(7)
C56 C53 C54 107.0(6)
C49 C53 C54 107.0(5)
C58 C57 C59 109.9(4)
C58 C57 C60 108.3(4)
C59 C57 C60 108.5(4)
C58 C57 C51 110.7(4)
C59 C57 C51 107.9(4)
C60 C57 C51 111.5(4)
C62 C61 C66 119.9(5)
C62 C61 C20 122.7(5)
C66 C61 C20 117.4(4)
C61 C62 C63 120.0(7)
C64 C63 C62 118.8(7)
C64 C63 C68 121.5(8)
C62 C63 C68 119.7(9)
C63 C64 C65 123.0(6)
C64 C65 C66 117.7(7)
C64 C65 C71 121.3(7)
C66 C65 C71 121.1(7)
C61 C66 C65 120.6(6)
C67 C68 C69 127.2(15)
C67 C68 C70 108.5(9)
C69 C68 C70 96.0(10)
C67 C68 C63 106.8(8)
C69 C68 C63 107.5(9)
C70 C68 C63 109.7(11)
C72 C71 C74 129.7(10)
C72 C71 C65 113.0(9)
C74 C71 C65 115.3(7)
C72 C71 C73 89.8(9)
C74 C71 C73 91.9(9)
C65 C71 C73 103.5(8)
N6 C75 C94 123.8(4)
N6 C75 C76 109.9(4)
C94 C75 C76 126.4(4)
C77 C76 C75 109.0(4)
C77 C76 Cl3 125.0(4)
C75 C76 Cl3 126.1(4)
C76 C77 C78 103.9(4)
C76 C77 C95 134.6(4)
C78 C77 C95 121.2(4)
N6 C78 C79 125.3(4)
N6 C78 C77 113.6(4)
C79 C78 C77 120.9(4)
C78 C79 N10 118.3(4)
C78 C79 C80 122.5(4)
N10 C79 C80 119.1(4)
N7 C80 C79 126.2(4)
N7 C80 C81 112.8(4)
C79 C80 C81 121.0(4)
C82 C81 C80 104.7(4)
C82 C81 C101 135.0(4)
C80 C81 C101 120.3(4)
C81 C82 C83 108.5(4)
C81 C82 Cl4 125.2(4)
C83 C82 Cl4 126.3(4)
N7 C83 C84 123.8(4)
N7 C83 C82 109.7(4)
C84 C83 C82 126.4(4)
C85 C84 C83 122.3(4)
C85 C84 C107 115.8(4)
C83 C84 C107 121.7(4)
C84 C85 N8 126.8(4)
C84 C85 C86 122.9(4)
N8 C85 C86 110.2(4)
C87 C86 C85 107.4(4)
C86 C87 C88 107.7(5)
N8 C88 C89 125.6(4)
N8 C88 C87 110.2(4)
C89 C88 C87 123.8(4)
C90 C89 C88 121.9(4)
C90 C89 C121 118.7(4)
C88 C89 C121 119.1(4)
N9 C90 C89 125.7(4)
N9 C90 C91 110.4(4)
C89 C90 C91 123.7(4)
C92 C91 C90 107.7(4)
C91 C92 C93 106.5(4)
C94 C93 N9 127.5(4)
C94 C93 C92 121.8(4)
N9 C93 C92 110.7(4)
C93 C94 C75 121.7(4)
C93 C94 C135 116.8(4)
C75 C94 C135 121.4(4)
C100 C95 C96 118.5(5)
C100 C95 C77 116.9(4)
C96 C95 C77 124.5(4)
C97 C96 C95 120.9(5)
C96 C97 C98 120.7(5)
C97 C98 C99 119.7(5)
O2 C99 C98 116.4(4)
O2 C99 C100 122.6(4)
C98 C99 C100 121.1(5)
C99 C100 C95 119.1(4)
C99 C100 N10 119.8(4)
C95 C100 N10 121.0(4)
C106 C101 C102 118.5(4)
C106 C101 C81 117.5(4)
C102 C101 C81 124.0(4)
C103 C102 C101 120.6(5)
C102 C103 C104 121.2(5)
C103 C104 C105 119.0(5)
O2 C105 C104 116.1(4)
O2 C105 C106 122.7(4)
C104 C105 C106 121.2(5)
C105 C106 C101 119.4(4)
C105 C106 N10 119.3(4)
C101 C106 N10 121.3(4)
C112 C107 C108 119.3(4)
C112 C107 C84 124.2(4)
C108 C107 C84 116.4(4)
C107 C108 C109 121.3(5)
C108 C109 C110 116.8(5)
C108 C109 C113 121.5(5)
C110 C109 C113 121.7(5)
C111 C110 C109 123.1(5)
C110 C111 C112 118.7(5)
C110 C111 C117 122.1(5)
C112 C111 C117 119.1(5)
C107 C112 C111 120.6(5)
C116 C113 C114 113.0(6)
C116 C113 C109 111.1(5)
C114 C113 C109 113.3(5)
C116 C113 C115 105.9(6)
C114 C113 C115 107.5(7)
C109 C113 C115 105.4(6)
C120 C117 C119 106.9(5)
C120 C117 C118 111.9(5)
C119 C117 C118 107.9(5)
C120 C117 C111 110.1(4)
C119 C117 C111 112.7(5)
C118 C117 C111 107.4(5)
C122 C121 C126 118.5(4)
C122 C121 C89 120.4(4)
C126 C121 C89 121.1(4)
C121 C122 C123 121.8(4)
C124 C123 C122 117.4(4)
C124 C123 C127 122.8(4)
C122 C123 C127 119.7(4)
C123 C124 C125 123.1(4)
C126 C125 C124 117.6(4)
C126 C125 C131 120.8(4)
C124 C125 C131 121.5(4)
C125 C126 C121 121.5(4)
C130 C127 C128 109.9(5)
C130 C127 C129 106.8(5)
C128 C127 C129 108.2(5)
C130 C127 C123 112.8(4)
C128 C127 C123 110.2(4)
C129 C127 C123 108.8(5)
C133 C131 C134 109.2(6)
C133 C131 C132 108.2(6)
C134 C131 C132 108.8(5)
C133 C131 C125 111.5(4)
C134 C131 C125 111.9(4)
C132 C131 C125 107.2(4)
C140 C135 C136 118.7(4)
C140 C135 C94 123.5(4)
C136 C135 C94 117.6(4)
C137 C136 C135 121.5(4)
C136 C137 C138 118.0(4)
C136 C137 C142 120.7(4)
C138 C137 C142 121.2(4)
C139 C138 C137 122.0(4)
C140 C139 C138 118.4(4)
C140 C139 C145 119.9(5)
C138 C139 C145 121.6(4)
C135 C140 C139 121.3(5)
C141 C142 C144 110.7(6)
C141 C142 C143 106.5(6)
C144 C142 C143 106.3(5)
C141 C142 C137 109.0(4)
C144 C142 C137 111.4(5)
C143 C142 C137 112.8(4)
C147 C145 C146 114.9(6)
C147 C145 C139 108.9(4)
C146 C145 C139 109.3(5)
C147 C145 C148 104.7(6)
C146 C145 C148 107.9(5)
C139 C145 C148 111.0(5)
Cl10 C150 Cl8 109.8(12)
Cl10 C150 Cl9 115.5(14)
Cl8 C150 Cl9 111.6(9)
C4 N1 C1 104.5(3)
C4 N1 Ni1 127.1(3)
C1 N1 Ni1 128.4(3)
C6 N2 C9 104.1(3)
C6 N2 Ni1 127.4(3)
C9 N2 Ni1 128.5(3)
C14 N3 C11 104.9(3)
C14 N3 Ni1 128.1(3)
C11 N3 Ni1 126.5(3)
C16 N4 C19 104.1(3)
C16 N4 Ni1 129.1(3)
C19 N4 Ni1 126.6(3)
C5 N5 C32 121.3(3)
C5 N5 C26 120.5(3)
C32 N5 C26 118.2(4)
C78 N6 C75 103.6(4)
C78 N6 Ni2 127.8(3)
C75 N6 Ni2 128.6(3)
C80 N7 C83 104.3(4)
C80 N7 Ni2 127.3(3)
C83 N7 Ni2 128.4(3)
C88 N8 C85 104.4(4)
C88 N8 Ni2 128.5(3)
C85 N8 Ni2 126.4(3)
C90 N9 C93 104.5(4)
C90 N9 Ni2 128.5(3)
C93 N9 Ni2 126.8(3)
C79 N10 C100 121.5(4)
C79 N10 C106 120.9(4)
C100 N10 C106 117.6(4)
C25 O1 C31 117.8(4)
C99 O2 C105 118.0(4)
N4 Ni1 N3 89.42(14)
N4 Ni1 N1 90.40(14)
N3 Ni1 N1 178.47(14)
N4 Ni1 N2 178.42(14)
N3 Ni1 N2 90.06(14)
N1 Ni1 N2 90.16(14)
N9 Ni2 N8 89.60(16)
N9 Ni2 N6 90.04(15)
N8 Ni2 N6 178.98(15)
N9 Ni2 N7 179.04(16)
N8 Ni2 N7 90.10(15)
N6 Ni2 N7 90.27(15)
Cl5 C149 Cl6 117.6(18)
Cl5 C149 Cl7 114.1(17)
Cl6 C149 Cl7 86.6(11)
loop_
_geom_bond_atom_site_label_1
_geom_bond_atom_site_label_2
_geom_bond_distance
C1 N1 1.388(5)
C1 C20 1.400(6)
C1 C2 1.413(6)
C2 C3 1.370(6)
C2 Cl1 1.727(4)
C3 C4 1.416(6)
C3 C21 1.444(6)
C4 N1 1.371(6)
C4 C5 1.381(6)
C5 N5 1.392(5)
C5 C6 1.407(6)
C6 N2 1.366(5)
C6 C7 1.423(6)
C7 C8 1.378(6)
C7 C27 1.444(6)
C8 C9 1.416(6)
C8 Cl2 1.716(4)
C9 N2 1.388(5)
C9 C10 1.404(6)
C10 C11 1.380(6)
C10 C33 1.492(6)
C11 N3 1.389(5)
C11 C12 1.427(6)
C12 C13 1.336(6)
C13 C14 1.440(6)
C14 C15 1.374(6)
C14 N3 1.375(6)
C15 C16 1.399(6)
C15 C47 1.489(6)
C16 N4 1.366(6)
C16 C17 1.434(6)
C17 C18 1.326(6)
C18 C19 1.431(6)
C19 C20 1.372(6)
C19 N4 1.389(5)
C20 C61 1.499(6)
C21 C26 1.389(6)
C21 C22 1.420(6)
C22 C23 1.371(7)
C23 C24 1.384(7)
C24 C25 1.382(6)
C25 O1 1.361(5)
C25 C26 1.394(6)
C26 N5 1.418(5)
C27 C28 1.400(6)
C27 C32 1.401(6)
C28 C29 1.361(7)
C29 C30 1.381(7)
C30 C31 1.358(7)
C31 O1 1.376(5)
C31 C32 1.410(6)
C32 N5 1.406(6)
C33 C34 1.388(6)
C33 C38 1.391(6)
C34 C35 1.385(6)
C35 C36 1.392(7)
C35 C39 1.547(7)
C36 C37 1.397(6)
C37 C38 1.395(6)
C37 C43 1.530(6)
C39 C41 1.466(9)
C39 C40 1.502(8)
C39 C42 1.573(9)
C43 C44 1.524(7)
C43 C45 1.529(7)
C43 C46 1.533(7)
C47 C48 1.388(6)
C47 C52 1.398(6)
C48 C49 1.389(6)
C49 C50 1.385(6)
C49 C53 1.523(6)
C50 C51 1.410(6)
C51 C52 1.382(6)
C51 C57 1.548(6)
C53 C55 1.470(9)
C53 C56 1.495(9)
C53 C54 1.543(10)
C57 C58 1.524(7)
C57 C59 1.533(6)
C57 C60 1.539(7)
C61 C62 1.368(7)
C61 C66 1.382(8)
C62 C63 1.398(9)
C63 C64 1.354(12)
C63 C68 1.563(13)
C64 C65 1.367(11)
C65 C66 1.396(8)
C65 C71 1.510(11)
C67 C68 1.370(14)
C68 C69 1.447(15)
C68 C70 1.519(17)
C71 C72 1.411(14)
C71 C74 1.493(15)
C71 C73 1.599(15)
C75 N6 1.396(6)
C75 C94 1.396(7)
C75 C76 1.411(7)
C76 C77 1.385(7)
C76 Cl3 1.736(4)
C77 C78 1.409(6)
C77 C95 1.421(7)
C78 N6 1.382(6)
C78 C79 1.391(6)
C79 N10 1.393(6)
C79 C80 1.397(6)
C80 N7 1.367(6)
C80 C81 1.422(6)
C81 C82 1.368(6)
C81 C101 1.436(7)
C82 C83 1.419(6)
C82 Cl4 1.723(5)
C83 N7 1.391(6)
C83 C84 1.400(7)
C84 C85 1.382(7)
C84 C107 1.503(6)
C85 N8 1.395(6)
C85 C86 1.419(7)
C86 C87 1.325(7)
C87 C88 1.433(6)
C88 N8 1.371(6)
C88 C89 1.387(6)
C89 C90 1.379(6)
C89 C121 1.501(7)
C90 N9 1.377(6)
C90 C91 1.436(6)
C91 C92 1.334(7)
C92 C93 1.442(7)
C93 C94 1.379(7)
C93 N9 1.383(6)
C94 C135 1.497(6)
C95 C100 1.406(7)
C95 C96 1.411(7)
C96 C97 1.364(7)
C97 C98 1.380(7)
C98 C99 1.380(7)
C99 O2 1.361(6)
C99 C100 1.397(7)
C100 N10 1.407(6)
C101 C106 1.403(7)
C101 C102 1.415(6)
C102 C103 1.367(7)
C103 C104 1.377(7)
C104 C105 1.393(7)
C105 O2 1.369(6)
C105 C106 1.393(7)
C106 N10 1.422(6)
C107 C112 1.387(6)
C107 C108 1.391(7)
C108 C109 1.398(7)
C109 C110 1.400(8)
C109 C113 1.530(8)
C110 C111 1.362(8)
C111 C112 1.392(7)
C111 C117 1.548(7)
C113 C116 1.495(9)
C113 C114 1.514(10)
C113 C115 1.574(11)
C117 C120 1.512(8)
C117 C119 1.522(8)
C117 C118 1.526(9)
C121 C122 1.386(6)
C121 C126 1.405(6)
C122 C123 1.401(7)
C123 C124 1.385(6)
C123 C127 1.547(7)
C124 C125 1.395(6)
C125 C126 1.390(6)
C125 C131 1.533(6)
C127 C130 1.497(7)
C127 C128 1.524(7)
C127 C129 1.533(8)
C131 C133 1.491(8)
C131 C134 1.512(8)
C131 C132 1.524(8)
C135 C140 1.382(6)
C135 C136 1.410(6)
C136 C137 1.375(6)
C137 C138 1.397(7)
C137 C142 1.548(7)
C138 C139 1.392(7)
C139 C140 1.385(7)
C139 C145 1.549(7)
C141 C142 1.493(8)
C142 C144 1.504(8)
C142 C143 1.520(8)
C145 C147 1.488(8)
C145 C146 1.496(9)
C145 C148 1.575(8)
C150 Cl10 1.513(18)
C150 Cl8 1.68(2)
C150 Cl9 1.754(16)
N1 Ni1 1.969(4)
N2 Ni1 1.970(3)
N3 Ni1 1.948(3)
N4 Ni1 1.941(3)
N6 Ni2 1.957(4)
N7 Ni2 1.968(4)
N8 Ni2 1.945(4)
N9 Ni2 1.936(4)
C149 Cl5 1.57(5)
C149 Cl6 1.716(8)
C149 Cl7 1.95(4)
loop_
_geom_torsion_atom_site_label_1
_geom_torsion_atom_site_label_2
_geom_torsion_atom_site_label_3
_geom_torsion_atom_site_label_4
_geom_torsion
N1 C1 C2 C3 -1.6(5)
C20 C1 C2 C3 177.3(4)
N1 C1 C2 Cl1 178.4(3)
C20 C1 C2 Cl1 -2.7(7)
C1 C2 C3 C4 0.5(5)
Cl1 C2 C3 C4 -179.5(3)
C1 C2 C3 C21 -175.3(5)
Cl1 C2 C3 C21 4.7(7)
C2 C3 C4 N1 0.7(5)
C21 C3 C4 N1 177.3(4)
C2 C3 C4 C5 -176.7(4)
C21 C3 C4 C5 -0.1(6)
N1 C4 C5 N5 -175.6(4)
C3 C4 C5 N5 1.4(6)
N1 C4 C5 C6 1.2(6)
C3 C4 C5 C6 178.2(4)
C4 C5 C6 N2 -1.9(6)
N5 C5 C6 N2 175.0(4)
C4 C5 C6 C7 -177.4(4)
N5 C5 C6 C7 -0.5(6)
N2 C6 C7 C8 -0.8(5)
C5 C6 C7 C8 175.3(4)
N2 C6 C7 C27 -177.5(3)
C5 C6 C7 C27 -1.4(6)
C6 C7 C8 C9 -0.4(5)
C27 C7 C8 C9 175.6(4)
C6 C7 C8 Cl2 177.6(3)
C27 C7 C8 Cl2 -6.3(7)
C7 C8 C9 N2 1.4(5)
Cl2 C8 C9 N2 -176.6(3)
C7 C8 C9 C10 -179.1(4)
Cl2 C8 C9 C10 2.9(6)
N2 C9 C10 C11 11.5(6)
C8 C9 C10 C11 -168.0(4)
N2 C9 C10 C33 -161.7(4)
C8 C9 C10 C33 18.9(6)
C9 C10 C11 N3 -7.7(7)
C33 C10 C11 N3 165.8(4)
C9 C10 C11 C12 172.9(4)
C33 C10 C11 C12 -13.7(6)
C10 C11 C12 C13 -179.7(4)
N3 C11 C12 C13 0.8(5)
C11 C12 C13 C14 -2.3(5)
C12 C13 C14 C15 -169.0(4)
C12 C13 C14 N3 3.3(5)
N3 C14 C15 C16 -1.1(6)
C13 C14 C15 C16 169.8(4)
N3 C14 C15 C47 -173.9(4)
C13 C14 C15 C47 -2.9(6)
C14 C15 C16 N4 3.5(6)
C47 C15 C16 N4 176.3(4)
C14 C15 C16 C17 -174.0(4)
C47 C15 C16 C17 -1.2(6)
N4 C16 C17 C18 -0.9(5)
C15 C16 C17 C18 176.8(4)
C16 C17 C18 C19 0.5(5)
C17 C18 C19 C20 177.9(4)
C17 C18 C19 N4 0.0(5)
N4 C19 C20 C1 3.9(7)
C18 C19 C20 C1 -173.7(4)
N4 C19 C20 C61 -172.6(4)
C18 C19 C20 C61 9.9(6)
N1 C1 C20 C19 -8.8(7)
C2 C1 C20 C19 172.4(4)
N1 C1 C20 C61 167.5(4)
C2 C1 C20 C61 -11.3(7)
C2 C3 C21 C26 174.3(5)
C4 C3 C21 C26 -1.1(6)
C2 C3 C21 C22 -2.5(8)
C4 C3 C21 C22 -177.9(4)
C26 C21 C22 C23 0.2(6)
C3 C21 C22 C23 176.9(4)
C21 C22 C23 C24 0.2(7)
C22 C23 C24 C25 -0.8(7)
C23 C24 C25 O1 -178.6(4)
C23 C24 C25 C26 1.0(7)
C22 C21 C26 C25 0.1(6)
C3 C21 C26 C25 -176.9(4)
C22 C21 C26 N5 178.0(4)
C3 C21 C26 N5 1.0(6)
O1 C25 C26 C21 179.0(4)
C24 C25 C26 C21 -0.7(6)
O1 C25 C26 N5 1.0(6)
C24 C25 C26 N5 -178.6(4)
C8 C7 C27 C28 5.7(8)
C6 C7 C27 C28 -178.7(4)
C8 C7 C27 C32 -173.0(5)
C6 C7 C27 C32 2.5(6)
C32 C27 C28 C29 2.2(7)
C7 C27 C28 C29 -176.6(4)
C27 C28 C29 C30 -0.7(7)
C28 C29 C30 C31 -0.9(7)
C29 C30 C31 O1 -179.9(4)
C29 C30 C31 C32 0.8(7)
C28 C27 C32 N5 179.4(4)
C7 C27 C32 N5 -1.7(6)
C28 C27 C32 C31 -2.2(6)
C7 C27 C32 C31 176.7(4)
C30 C31 C32 C27 0.7(6)
O1 C31 C32 C27 -178.5(4)
C30 C31 C32 N5 179.1(4)
O1 C31 C32 N5 -0.1(6)
C11 C10 C33 C34 -94.5(5)
C9 C10 C33 C34 79.0(6)
C11 C10 C33 C38 81.5(6)
C9 C10 C33 C38 -105.0(5)
C38 C33 C34 C35 1.1(7)
C10 C33 C34 C35 177.2(4)
C33 C34 C35 C36 0.8(7)
C33 C34 C35 C39 -179.8(5)
C34 C35 C36 C37 -1.7(7)
C39 C35 C36 C37 178.9(5)
C35 C36 C37 C38 0.6(7)
C35 C36 C37 C43 -178.3(4)
C34 C33 C38 C37 -2.2(7)
C10 C33 C38 C37 -178.1(4)
C36 C37 C38 C33 1.4(7)
C43 C37 C38 C33 -179.8(4)
C34 C35 C39 C41 -110.0(7)
C36 C35 C39 C41 69.5(7)
C34 C35 C39 C40 124.4(6)
C36 C35 C39 C40 -56.1(7)
C34 C35 C39 C42 11.3(7)
C36 C35 C39 C42 -169.2(5)
C38 C37 C43 C44 120.6(5)
C36 C37 C43 C44 -60.5(6)
C38 C37 C43 C45 -119.3(5)
C36 C37 C43 C45 59.6(6)
C38 C37 C43 C46 0.9(7)
C36 C37 C43 C46 179.7(4)
C14 C15 C47 C48 -67.5(5)
C16 C15 C47 C48 119.6(4)
C14 C15 C47 C52 111.3(5)
C16 C15 C47 C52 -61.6(5)
C52 C47 C48 C49 0.0(6)
C15 C47 C48 C49 178.8(4)
C47 C48 C49 C50 1.2(7)
C47 C48 C49 C53 180.0(4)
C48 C49 C50 C51 -0.5(7)
C53 C49 C50 C51 -179.3(4)
C49 C50 C51 C52 -1.3(6)
C49 C50 C51 C57 177.4(4)
C50 C51 C52 C47 2.5(6)
C57 C51 C52 C47 -176.1(4)
C48 C47 C52 C51 -1.9(6)
C15 C47 C52 C51 179.3(4)
C50 C49 C53 C55 -15.6(9)
C48 C49 C53 C55 165.6(7)
C50 C49 C53 C56 -139.6(6)
C48 C49 C53 C56 41.7(7)
C50 C49 C53 C54 103.6(7)
C48 C49 C53 C54 -75.1(7)
C52 C51 C57 C58 -126.3(4)
C50 C51 C57 C58 55.1(5)
C52 C51 C57 C59 113.4(5)
C50 C51 C57 C59 -65.2(5)
C52 C51 C57 C60 -5.7(6)
C50 C51 C57 C60 175.7(4)
C19 C20 C61 C62 -87.9(6)
C1 C20 C61 C62 95.6(6)
C19 C20 C61 C66 90.0(5)
C1 C20 C61 C66 -86.5(6)
C66 C61 C62 C63 1.6(9)
C20 C61 C62 C63 179.5(6)
C61 C62 C63 C64 0.4(11)
C61 C62 C63 C68 178.4(7)
C62 C63 C64 C65 -2.0(12)
C68 C63 C64 C65 -180.0(8)
C63 C64 C65 C66 1.5(10)
C63 C64 C65 C71 -178.0(7)
C62 C61 C66 C65 -2.1(8)
C20 C61 C66 C65 179.9(5)
C64 C65 C66 C61 0.6(9)
C71 C65 C66 C61 -179.9(6)
C64 C63 C68 C67 93.5(13)
C62 C63 C68 C67 -84.5(12)
C64 C63 C68 C69 -127.2(12)
C62 C63 C68 C69 54.9(14)
C64 C63 C68 C70 -23.9(12)
C62 C63 C68 C70 158.1(8)
C64 C65 C71 C72 29.3(13)
C66 C65 C71 C72 -150.2(10)
C64 C65 C71 C74 -165.1(9)
C66 C65 C71 C74 15.4(12)
C64 C65 C71 C73 -66.4(10)
C66 C65 C71 C73 114.1(8)
N6 C75 C76 C77 2.1(5)
C94 C75 C76 C77 -177.9(4)
N6 C75 C76 Cl3 -177.0(3)
C94 C75 C76 Cl3 3.0(7)
C75 C76 C77 C78 -0.3(5)
Cl3 C76 C77 C78 178.8(3)
C75 C76 C77 C95 173.7(5)
Cl3 C76 C77 C95 -7.1(8)
C76 C77 C78 N6 -1.6(5)
C95 C77 C78 N6 -176.7(4)
C76 C77 C78 C79 174.8(4)
C95 C77 C78 C79 -0.3(6)
N6 C78 C79 N10 173.9(4)
C77 C78 C79 N10 -2.1(6)
N6 C78 C79 C80 -2.2(7)
C77 C78 C79 C80 -178.2(4)
C78 C79 C80 N7 1.0(7)
N10 C79 C80 N7 -175.0(4)
C78 C79 C80 C81 176.7(4)
N10 C79 C80 C81 0.7(6)
N7 C80 C81 C82 0.1(5)
C79 C80 C81 C82 -176.1(4)
N7 C80 C81 C101 177.2(4)
C79 C80 C81 C101 1.0(6)
C80 C81 C82 C83 1.1(5)
C101 C81 C82 C83 -175.3(5)
C80 C81 C82 Cl4 -177.3(3)
C101 C81 C82 Cl4 6.3(8)
C81 C82 C83 N7 -2.0(5)
Cl4 C82 C83 N7 176.4(3)
C81 C82 C83 C84 176.7(4)
Cl4 C82 C83 C84 -5.0(7)
N7 C83 C84 C85 -12.7(7)
C82 C83 C84 C85 168.8(4)
N7 C83 C84 C107 160.7(4)
C82 C83 C84 C107 -17.8(7)
C83 C84 C85 N8 6.5(7)
C107 C84 C85 N8 -167.3(4)
C83 C84 C85 C86 -171.9(4)
C107 C84 C85 C86 14.3(7)
C84 C85 C86 C87 178.2(4)
N8 C85 C86 C87 -0.5(6)
C85 C86 C87 C88 1.9(5)
C86 C87 C88 N8 -2.8(5)
C86 C87 C88 C89 169.8(4)
N8 C88 C89 C90 3.1(7)
C87 C88 C89 C90 -168.3(4)
N8 C88 C89 C121 176.6(4)
C87 C88 C89 C121 5.2(6)
C88 C89 C90 N9 -2.1(7)
C121 C89 C90 N9 -175.6(4)
C88 C89 C90 C91 172.7(4)
C121 C89 C90 C91 -0.8(6)
N9 C90 C91 C92 3.9(5)
C89 C90 C91 C92 -171.6(4)
C90 C91 C92 C93 -3.4(5)
C91 C92 C93 C94 -175.8(4)
C91 C92 C93 N9 1.9(5)
N9 C93 C94 C75 -7.1(7)
C92 C93 C94 C75 170.2(4)
N9 C93 C94 C135 167.9(4)
C92 C93 C94 C135 -14.9(6)
N6 C75 C94 C93 12.1(7)
C76 C75 C94 C93 -167.9(4)
N6 C75 C94 C135 -162.6(4)
C76 C75 C94 C135 17.4(7)
C76 C77 C95 C100 -170.9(5)
C78 C77 C95 C100 2.4(6)
C76 C77 C95 C96 5.8(8)
C78 C77 C95 C96 179.0(4)
C100 C95 C96 C97 0.2(7)
C77 C95 C96 C97 -176.4(4)
C95 C96 C97 C98 0.9(7)
C96 C97 C98 C99 -0.5(7)
C97 C98 C99 O2 178.3(4)
C97 C98 C99 C100 -0.9(7)
O2 C99 C100 C95 -177.2(4)
C98 C99 C100 C95 1.9(7)
O2 C99 C100 N10 0.3(6)
C98 C99 C100 N10 179.4(4)
C96 C95 C100 C99 -1.5(6)
C77 C95 C100 C99 175.3(4)
C96 C95 C100 N10 -179.0(4)
C77 C95 C100 N10 -2.1(6)
C82 C81 C101 C106 173.6(5)
C80 C81 C101 C106 -2.4(6)
C82 C81 C101 C102 -4.8(8)
C80 C81 C101 C102 179.2(4)
C106 C101 C102 C103 -3.2(7)
C81 C101 C102 C103 175.2(4)
C101 C102 C103 C104 1.7(7)
C102 C103 C104 C105 0.1(7)
C103 C104 C105 O2 179.8(4)
C103 C104 C105 C106 -0.3(7)
O2 C105 C106 C101 178.6(4)
C104 C105 C106 C101 -1.2(7)
O2 C105 C106 N10 0.8(6)
C104 C105 C106 N10 -179.1(4)
C102 C101 C106 C105 2.9(6)
C81 C101 C106 C105 -175.6(4)
C102 C101 C106 N10 -179.3(4)
C81 C101 C106 N10 2.2(6)
C85 C84 C107 C112 -89.7(6)
C83 C84 C107 C112 96.5(6)
C85 C84 C107 C108 86.3(5)
C83 C84 C107 C108 -87.5(6)
C112 C107 C108 C109 -0.6(8)
C84 C107 C108 C109 -176.8(5)
C107 C108 C109 C110 -1.4(8)
C107 C108 C109 C113 179.9(5)
C108 C109 C110 C111 2.9(9)
C113 C109 C110 C111 -178.4(6)
C109 C110 C111 C112 -2.3(9)
C109 C110 C111 C117 -179.0(5)
C108 C107 C112 C111 1.2(7)
C84 C107 C112 C111 177.1(5)
C110 C111 C112 C107 0.2(8)
C117 C111 C112 C107 177.0(5)
C108 C109 C113 C116 -139.1(6)
C110 C109 C113 C116 42.3(9)
C108 C109 C113 C114 -10.6(9)
C110 C109 C113 C114 170.8(7)
C108 C109 C113 C115 106.7(7)
C110 C109 C113 C115 -71.9(7)
C110 C111 C117 C120 -132.4(6)
C112 C111 C117 C120 50.9(7)
C110 C111 C117 C119 -13.2(8)
C112 C111 C117 C119 170.1(6)
C110 C111 C117 C118 105.5(6)
C112 C111 C117 C118 -71.2(6)
C90 C89 C121 C122 55.7(6)
C88 C89 C121 C122 -118.1(5)
C90 C89 C121 C126 -123.7(5)
C88 C89 C121 C126 62.6(6)
C126 C121 C122 C123 3.3(7)
C89 C121 C122 C123 -176.0(4)
C121 C122 C123 C124 -3.9(7)
C121 C122 C123 C127 174.6(5)
C122 C123 C124 C125 2.1(7)
C127 C123 C124 C125 -176.3(5)
C123 C124 C125 C126 0.2(7)
C123 C124 C125 C131 177.5(4)
C124 C125 C126 C121 -0.9(7)
C131 C125 C126 C121 -178.2(4)
C122 C121 C126 C125 -0.8(7)
C89 C121 C126 C125 178.5(4)
C124 C123 C127 C130 -6.5(7)
C122 C123 C127 C130 175.0(5)
C124 C123 C127 C128 -129.8(5)
C122 C123 C127 C128 51.8(7)
C124 C123 C127 C129 111.7(6)
C122 C123 C127 C129 -66.7(6)
C126 C125 C131 C133 -149.9(6)
C124 C125 C131 C133 32.8(8)
C126 C125 C131 C134 -27.4(7)
C124 C125 C131 C134 155.4(5)
C126 C125 C131 C132 91.8(6)
C124 C125 C131 C132 -85.5(6)
C93 C94 C135 C140 80.7(6)
C75 C94 C135 C140 -104.3(6)
C93 C94 C135 C136 -95.4(5)
C75 C94 C135 C136 79.5(6)
C140 C135 C136 C137 0.7(7)
C94 C135 C136 C137 177.0(4)
C135 C136 C137 C138 0.1(7)
C135 C136 C137 C142 -176.6(4)
C136 C137 C138 C139 -0.3(7)
C142 C137 C138 C139 176.4(5)
C137 C138 C139 C140 -0.4(8)
C137 C138 C139 C145 -179.6(5)
C136 C135 C140 C139 -1.4(7)
C94 C135 C140 C139 -177.5(5)
C138 C139 C140 C135 1.3(8)
C145 C139 C140 C135 -179.6(5)
C136 C137 C142 C141 86.4(7)
C138 C137 C142 C141 -90.2(7)
C136 C137 C142 C144 -151.1(6)
C138 C137 C142 C144 32.2(7)
C136 C137 C142 C143 -31.6(7)
C138 C137 C142 C143 151.7(5)
C140 C139 C145 C147 -64.4(7)
C138 C139 C145 C147 114.7(6)
C140 C139 C145 C146 61.9(7)
C138 C139 C145 C146 -118.9(6)
C140 C139 C145 C148 -179.2(5)
C138 C139 C145 C148 -0.1(7)
C5 C4 N1 C1 175.6(4)
C3 C4 N1 C1 -1.6(4)
C5 C4 N1 Ni1 -4.7(6)
C3 C4 N1 Ni1 178.1(3)
C20 C1 N1 C4 -177.0(4)
C2 C1 N1 C4 1.9(4)
C20 C1 N1 Ni1 3.2(6)
C2 C1 N1 Ni1 -177.8(3)
C5 C6 N2 C9 -174.2(4)
C7 C6 N2 C9 1.6(4)
C5 C6 N2 Ni1 6.0(6)
C7 C6 N2 Ni1 -178.2(3)
C10 C9 N2 C6 178.7(4)
C8 C9 N2 C6 -1.8(4)
C10 C9 N2 Ni1 -1.6(6)
C8 C9 N2 Ni1 177.9(3)
C15 C14 N3 C11 169.2(4)
C13 C14 N3 C11 -2.7(4)
C15 C14 N3 Ni1 -2.8(6)
C13 C14 N3 Ni1 -174.7(3)
C10 C11 N3 C14 -178.3(4)
C12 C11 N3 C14 1.2(4)
C10 C11 N3 Ni1 -6.1(6)
C12 C11 N3 Ni1 173.4(3)
C15 C16 N4 C19 -176.8(4)
C17 C16 N4 C19 0.9(4)
C15 C16 N4 Ni1 -1.8(6)
C17 C16 N4 Ni1 175.9(3)
C20 C19 N4 C16 -178.3(4)
C18 C19 N4 C16 -0.6(4)
C20 C19 N4 Ni1 6.5(6)
C18 C19 N4 Ni1 -175.7(3)
C4 C5 N5 C32 178.3(4)
C6 C5 N5 C32 1.4(5)
C4 C5 N5 C26 -1.4(5)
C6 C5 N5 C26 -178.4(3)
C27 C32 N5 C5 -0.2(6)
C31 C32 N5 C5 -178.6(4)
C27 C32 N5 C26 179.5(4)
C31 C32 N5 C26 1.2(5)
C21 C26 N5 C5 0.2(6)
C25 C26 N5 C5 178.1(4)
C21 C26 N5 C32 -179.5(4)
C25 C26 N5 C32 -1.6(5)
C79 C78 N6 C75 -173.3(4)
C77 C78 N6 C75 2.9(5)
C79 C78 N6 Ni2 7.3(6)
C77 C78 N6 Ni2 -176.5(3)
C94 C75 N6 C78 177.0(4)
C76 C75 N6 C78 -3.0(5)
C94 C75 N6 Ni2 -3.6(6)
C76 C75 N6 Ni2 176.4(3)
C79 C80 N7 C83 174.7(4)
C81 C80 N7 C83 -1.3(5)
C79 C80 N7 Ni2 -4.9(6)
C81 C80 N7 Ni2 179.1(3)
C84 C83 N7 C80 -176.7(4)
C82 C83 N7 C80 2.0(5)
C84 C83 N7 Ni2 2.9(6)
C82 C83 N7 Ni2 -178.4(3)
C89 C88 N8 C85 -170.0(4)
C87 C88 N8 C85 2.4(5)
C89 C88 N8 Ni2 0.5(6)
C87 C88 N8 Ni2 172.9(3)
C84 C85 N8 C88 -179.8(4)
C86 C85 N8 C88 -1.2(5)
C84 C85 N8 Ni2 9.5(7)
C86 C85 N8 Ni2 -172.0(3)
C89 C90 N9 C93 172.8(4)
C91 C90 N9 C93 -2.6(5)
C89 C90 N9 Ni2 -2.5(6)
C91 C90 N9 Ni2 -177.9(3)
C94 C93 N9 C90 178.0(4)
C92 C93 N9 C90 0.5(5)
C94 C93 N9 Ni2 -6.6(7)
C92 C93 N9 Ni2 175.9(3)
C78 C79 N10 C100 2.3(6)
C80 C79 N10 C100 178.6(4)
C78 C79 N10 C106 -177.1(4)
C80 C79 N10 C106 -0.9(6)
C99 C100 N10 C79 -177.7(4)
C95 C100 N10 C79 -0.2(6)
C99 C100 N10 C106 1.8(6)
C95 C100 N10 C106 179.3(4)
C105 C106 N10 C79 177.2(4)
C101 C106 N10 C79 -0.6(6)
C105 C106 N10 C100 -2.3(6)
C101 C106 N10 C100 179.9(4)
C24 C25 O1 C31 179.7(4)
C26 C25 O1 C31 0.1(6)
C30 C31 O1 C25 -179.8(4)
C32 C31 O1 C25 -0.6(6)
C98 C99 O2 C105 179.0(4)
C100 C99 O2 C105 -1.9(6)
C104 C105 O2 C99 -178.8(4)
C106 C105 O2 C99 1.3(6)
