#------------------------------------------------------------------------------
#$Date: 2017-05-06 00:41:04 +0300 (Sat, 06 May 2017) $
#$Revision: 196314 $
#$URL: file:///home/coder/svn-repositories/cod/cif/1/54/37/1543762.cif $
#------------------------------------------------------------------------------
#
# This file is available in the Crystallography Open Database (COD),
# http://www.crystallography.net/
#
# All data on this site have been placed in the public domain by the
# contributors.
#
data_1543762
loop_
_publ_author_name
'Fukui, Norihito'
'Cha, Wonhee'
'Shimizu, Daiki'
'Oh, Juwon'
'Furukawa, Ko'
'Yorimitsu, Hideki'
'Kim, Dongho'
'Osuka, Atsuhiro'
_publ_section_title
;
 Highly planar diarylamine-fused porphyrins and their remarkably stable
 radical cations.
;
_journal_issue                   1
_journal_name_full               'Chemical science'
_journal_page_first              189
_journal_page_last               199
_journal_paper_doi               10.1039/c6sc02721k
_journal_volume                  8
_journal_year                    2017
_chemical_formula_moiety
'(C74 H75 Cl2 N5 Ni), (Cl6 Sb), 0.5(C H2 Cl2)'
_chemical_formula_sum            'C74.5 H76 Cl9 N5 Ni Sb'
_chemical_formula_weight         1540.91
_chemical_name_systematic        '[9]+'
_space_group_crystal_system      monoclinic
_space_group_IT_number           14
_space_group_name_Hall           '-P 2yn'
_space_group_name_H-M_alt        'P 1 21/n 1'
_symmetry_space_group_name_Hall  '-P 2yn'
_symmetry_space_group_name_H-M   'P 1 21/n 1'
_atom_sites_solution_hydrogens   geom
_audit_creation_method           SHELXL-2014/7
_audit_update_record
;
2016-03-17 deposited with the CCDC.
2016-08-01 downloaded from the CCDC.
;
_cell_angle_alpha                90
_cell_angle_beta                 113.508(6)
_cell_angle_gamma                90
_cell_formula_units_Z            4
_cell_length_a                   27.888(11)
_cell_length_b                   9.758(3)
_cell_length_c                   29.846(11)
_cell_measurement_reflns_used    2489
_cell_measurement_temperature    93(2)
_cell_measurement_theta_max      67.9
_cell_measurement_theta_min      31.5
_cell_volume                     7448(5)
_computing_structure_refinement  'SHELXL-2014/7 (Sheldrick, 2014)'
_diffrn_ambient_temperature      93(2)
_diffrn_detector_area_resol_mean 5.8140
_diffrn_measured_fraction_theta_full 0.987
_diffrn_measured_fraction_theta_max 0.986
_diffrn_measurement_device_type  'Rigaku XtaLAB P200'
_diffrn_measurement_method       \w
_diffrn_radiation_monochromator  graphite
_diffrn_radiation_source         'fine-focus sealed tube'
_diffrn_radiation_type           CuK\a
_diffrn_radiation_wavelength     1.54187
_diffrn_reflns_av_R_equivalents  0.1205
_diffrn_reflns_av_unetI/netI     0.1036
_diffrn_reflns_Laue_measured_fraction_full 0.987
_diffrn_reflns_Laue_measured_fraction_max 0.986
_diffrn_reflns_limit_h_max       32
_diffrn_reflns_limit_h_min       -33
_diffrn_reflns_limit_k_max       11
_diffrn_reflns_limit_k_min       -11
_diffrn_reflns_limit_l_max       33
_diffrn_reflns_limit_l_min       -35
_diffrn_reflns_number            49623
_diffrn_reflns_point_group_measured_fraction_full 0.987
_diffrn_reflns_point_group_measured_fraction_max 0.986
_diffrn_reflns_theta_full        67.687
_diffrn_reflns_theta_max         68.247
_diffrn_reflns_theta_min         6.535
_exptl_absorpt_coefficient_mu    6.500
_exptl_absorpt_correction_T_max  1.000
_exptl_absorpt_correction_T_min  0.590
_exptl_absorpt_correction_type   multi-scan
_exptl_absorpt_process_details   'REQAB (Rigaku, 1998)'
_exptl_crystal_colour            Brown
_exptl_crystal_density_diffrn    1.374
_exptl_crystal_density_method    'not measured'
_exptl_crystal_description       Prism
_exptl_crystal_F_000             3160
_exptl_crystal_size_max          0.480
_exptl_crystal_size_mid          0.050
_exptl_crystal_size_min          0.010
_refine_diff_density_max         1.438
_refine_diff_density_min         -1.214
_refine_diff_density_rms         0.123
_refine_ls_extinction_method     none
_refine_ls_goodness_of_fit_ref   1.004
_refine_ls_hydrogen_treatment    constr
_refine_ls_matrix_type           full
_refine_ls_number_parameters     814
_refine_ls_number_reflns         13432
_refine_ls_number_restraints     43
_refine_ls_restrained_S_all      1.005
_refine_ls_R_factor_all          0.1312
_refine_ls_R_factor_gt           0.0826
_refine_ls_shift/su_max          0.001
_refine_ls_shift/su_mean         0.000
_refine_ls_structure_factor_coef Fsqd
_refine_ls_weighting_details
'w=1/[\s^2^(Fo^2^)+(0.1300P)^2^] where P=(Fo^2^+2Fc^2^)/3'
_refine_ls_weighting_scheme      calc
_refine_ls_wR_factor_gt          0.2130
_refine_ls_wR_factor_ref         0.2363
_reflns_Friedel_coverage         0.000
_reflns_number_gt                7487
_reflns_number_total             13432
_reflns_threshold_expression     'I > 2\s(I)'
_cod_data_source_file            c6sc02721k2.cif
_cod_data_source_block           50801NF
_cod_depositor_comments
;
The following automatic conversions were performed:

'_exptl_absorpt_correction_type' value 'Multi-scan' changed to
'multi-scan' according to
/usr/data/users/saulius/crontab/automatic-downloads/rss-feeds/RSC/lib/dictionaries/cif_core.dic
dictionary named 'cif_core.dic' version 2.4.2 from 2011-04-26.

Automatic conversion script
Id: cif_fix_values 4268 2015-11-12 08:31:59Z antanas 

 Adding full bibliography for 1543756--1543762.cif.

 Adding full bibliography for 1543756--1543762.cif.
;
_cod_original_formula_sum        'C74.50 H76 Cl9 N5 Ni Sb'
_cod_database_code               1543762
_shelx_shelxl_version_number     2014/7
_shelx_space_group_comment
;
The symmetry employed for this shelxl refinement is uniquely defined
by the following loop, which should always be used as a source of
symmetry information in preference to the above space-group names.
They are only intended as comments.
;
_shelx_estimated_absorpt_t_min   0.146
_shelx_estimated_absorpt_t_max   0.938
_shelx_res_file
;

    50801NF.res created by SHELXL-2014/7

TITL _150801fukui
REM  Yadorkari-X generated
CELL 1.54187 27.8880 9.7580 29.8460 90.0000 113.5080 90.0000
ZERR 4.0 0.0110 0.0030 0.0110 0.0000 0.0060 0.0000
LATT 1
SYMM 1/2-X, 1/2+Y, 1/2-Z
REM  SPGR P21/n monoclinic
SFAC C H N Cl Ni Sb
UNIT 298 304 20 36 4 4
SIZE 0.48 0.05 0.01
TEMP -180.0
L.S. 10
FMAP 2
PLAN -50
ACTA
CONF
LIST 4
MERG 2

SIMU 0.03 C60 C64 C71 C79
ISOR 0.03 C60 C64 C71 C79
SADI 0.03 C81 Cl11 C81 Cl12

WGHT    0.130000
FVAR       0.40865
SB1   6    0.074540    0.687509    0.322626    11.00000    0.07960    0.05645 =
         0.05752   -0.00628    0.04670   -0.01205
NI1   5    0.067512    0.192824    0.368929    11.00000    0.04610    0.05309 =
         0.03535    0.00298    0.02260    0.00206
CL1   4    0.002894    0.604186    0.337942    11.00000    0.06261    0.06380 =
         0.04578   -0.00012    0.02493   -0.01376
CL2   4    0.103265    0.806690    0.397870    11.00000    0.05499    0.07414 =
         0.06701   -0.02099    0.03254   -0.01496
CL3   4   -0.139700    0.413964    0.326212    11.00000    0.06237    0.10039 =
         0.04976    0.00615    0.02404    0.02623
CL4   4    0.124857    0.495647    0.363736    11.00000    0.07538    0.06574 =
         0.07738   -0.00812    0.04391   -0.00224
CL5   4    0.196223   -0.037717    0.557479    11.00000    0.06615    0.11747 =
         0.04110    0.01320    0.02365    0.03443
CL6   4    0.023411    0.877866    0.282671    11.00000    0.11071    0.06025 =
         0.06637    0.00555    0.04802   -0.00934
CL7   4    0.043889    0.566326    0.248112    11.00000    0.14066    0.07725 =
         0.05705   -0.01092    0.05664   -0.00977
CL8   4    0.146585    0.774276    0.309799    11.00000    0.12176    0.08337 =
         0.14585   -0.00137    0.10888   -0.01431
N1    3    0.008599    0.234552    0.498149    11.00000    0.04726    0.05434 =
         0.04255    0.00212    0.02538    0.00556
N2    3    0.035943    0.219822    0.299221    11.00000    0.04371    0.05904 =
         0.03757    0.00359    0.01946    0.00488
C1    1   -0.005706    0.271564    0.414857    11.00000    0.04197    0.04558 =
         0.04004    0.00557    0.02354    0.00517
N3    3    0.133381    0.149303    0.365348    11.00000    0.04437    0.06165 =
         0.04198    0.00505    0.02566    0.00439
N4    3    0.097086    0.145639    0.438484    11.00000    0.04497    0.05488 =
         0.03594   -0.00518    0.01991    0.00125
N5    3    0.002547    0.252142    0.373201    11.00000    0.04931    0.04410 =
         0.03769    0.00459    0.02291   -0.00051
C2    1   -0.043012    0.297210    0.336101    11.00000    0.05071    0.04844 =
         0.03858    0.00311    0.01763   -0.00658
C3    1    0.145088    0.083517    0.465819    11.00000    0.05837    0.04903 =
         0.04432   -0.00314    0.02845   -0.00263
C4    1    0.028567    0.058741    0.614659    11.00000    0.06313    0.04968 =
         0.04785    0.00443    0.03093    0.00100
AFIX  43
H1    2    0.010862    0.047076    0.635781    11.00000   -1.20000
AFIX   0
C5    1    0.145807    0.163795    0.325310    11.00000    0.05572    0.05864 =
         0.04483    0.00893    0.03176    0.01032
C6    1   -0.065676    0.374805    0.447551    11.00000    0.04661    0.05733 =
         0.05360    0.00902    0.02955    0.00380
C7    1   -0.030966    0.331566    0.493641    11.00000    0.05525    0.05440 =
         0.05072    0.00692    0.03470    0.00064
C8    1    0.101697    0.095299    0.515513    11.00000    0.05031    0.05713 =
         0.03323   -0.00341    0.02010    0.00141
C9    1   -0.103633    0.337804    0.248886    11.00000    0.05414    0.06215 =
         0.04316    0.00076    0.02376    0.00162
C10   1    0.220714    0.107056    0.386769    11.00000    0.04603    0.08013 =
         0.05057    0.00428    0.02414    0.00604
AFIX  43
H2    2    0.256145    0.084553    0.406089    11.00000   -1.20000
AFIX   0
C11   1    0.072547    0.152895    0.470022    11.00000    0.04493    0.04672 =
         0.03708    0.00105    0.02258    0.00113
C12   1    0.241599   -0.135401    0.478137    11.00000    0.05064    0.06218 =
         0.04551   -0.01019    0.02879   -0.00188
AFIX  43
H3    2    0.212076   -0.190129    0.459848    11.00000   -1.20000
AFIX   0
C13   1    0.179546    0.110512    0.402613    11.00000    0.05197    0.05674 =
         0.04365    0.00118    0.02394    0.00447
C14   1   -0.024644    0.233794    0.220316    11.00000    0.05182    0.06280 =
         0.03802    0.00648    0.01217    0.00151
AFIX  43
H4    2   -0.057367    0.245015    0.193507    11.00000   -1.20000
AFIX   0
C15   1    0.031190    0.151818    0.540772    11.00000    0.05646    0.05299 =
         0.03657    0.00418    0.02291   -0.00165
C16   1    0.058478    0.201208    0.266028    11.00000    0.06045    0.05880 =
         0.04140    0.00535    0.02760   -0.00036
C17   1    0.157224    0.071215    0.231867    11.00000    0.06592    0.08058 =
         0.04631    0.00667    0.03428    0.00494
AFIX  43
H5    2    0.163467   -0.004654    0.253410    11.00000   -1.20000
AFIX   0
C18   1    0.079609    0.088165    0.551790    11.00000    0.04925    0.05680 =
         0.03451    0.00122    0.01685    0.00061
C19   1   -0.077948    0.347545    0.356208    11.00000    0.05224    0.05055 =
         0.04713    0.00683    0.02226    0.01037
C20   1    0.200879    0.141112    0.339742    11.00000    0.05718    0.07553 =
         0.06027    0.01272    0.03557    0.00801
AFIX  43
H6    2    0.219662    0.149009    0.319403    11.00000   -1.20000
AFIX   0
C21   1    0.289140   -0.196756    0.503101    11.00000    0.05771    0.07066 =
         0.04247    0.00423    0.03033   -0.00387
C22   1    0.078180    0.006486    0.627819    11.00000    0.08022    0.05170 =
         0.03724    0.00217    0.02870   -0.00579
AFIX  43
H7    2    0.095670   -0.035635    0.658810    11.00000   -1.20000
AFIX   0
C23   1   -0.053987    0.333277    0.406115    11.00000    0.04849    0.05686 =
         0.04577    0.00007    0.02576   -0.00119
C24   1    0.146577    0.051968    0.512566    11.00000    0.05728    0.05729 =
         0.03774   -0.00035    0.01945    0.00804
C25   1   -0.106971    0.465862    0.443628    11.00000    0.05598    0.06925 =
         0.05772    0.00179    0.03035    0.00511
AFIX  43
H8    2   -0.131378    0.493730    0.412333    11.00000   -1.20000
AFIX   0
C26   1    0.004416    0.127652    0.571223    11.00000    0.06151    0.05398 =
         0.04362    0.00080    0.03130   -0.00223
AFIX  43
H9    2   -0.030501    0.159098    0.561722    11.00000   -1.20000
AFIX   0
C27   1    0.279869    0.087443    0.505625    11.00000    0.06256    0.06434 =
         0.04503   -0.00771    0.02590   -0.00127
AFIX  43
H10   2    0.275787    0.183792    0.507038    11.00000   -1.20000
AFIX   0
C28   1   -0.108032    0.471452    0.234070    11.00000    0.07066    0.05600 =
         0.04332   -0.00544    0.01941   -0.01218
AFIX  43
H11   2   -0.078009    0.528735    0.246043    11.00000   -1.20000
AFIX   0
C29   1    0.136133    0.293543    0.167821    11.00000    0.06444    0.07184 =
         0.05698    0.01292    0.03641    0.00535
C30   1   -0.146819    0.252722    0.230078    11.00000    0.06013    0.04938 =
         0.05645    0.00128    0.03119    0.00079
AFIX  43
H12   2   -0.143802    0.159457    0.239960    11.00000   -1.20000
AFIX   0
C31   1    0.019837    0.206823    0.217156    11.00000    0.06053    0.07685 =
         0.04182    0.00062    0.02788   -0.00173
AFIX  43
H13   2    0.025355    0.193562    0.188036    11.00000   -1.20000
AFIX   0
C32   1   -0.015846    0.243650    0.271024    11.00000    0.05985    0.04430 =
         0.05522    0.00367    0.02818   -0.00440
C33   1    0.236188    0.006347    0.479343    11.00000    0.05083    0.06749 =
         0.03868   -0.00152    0.02114    0.00376
C34   1   -0.111603    0.513167    0.484606    11.00000    0.05836    0.06619 =
         0.06751    0.00618    0.03910    0.00538
AFIX  43
H14   2   -0.140345    0.569957    0.481763    11.00000   -1.20000
AFIX   0
C35   1    0.329353    0.029124    0.529808    11.00000    0.05138    0.05994 =
         0.05492    0.00998    0.02611    0.00441
C36   1    0.101892    0.015803    0.595981    11.00000    0.04625    0.05875 =
         0.04413    0.00651    0.01875    0.00245
AFIX  43
H15   2    0.134658   -0.028168    0.603921    11.00000   -1.20000
AFIX   0
C37   1   -0.034173    0.393052    0.535298    11.00000    0.05726    0.05942 =
         0.05124    0.00728    0.03609    0.00201
AFIX  43
H16   2   -0.007969    0.374327    0.566780    11.00000   -1.20000
AFIX   0
C38   1   -0.155559    0.525823    0.201778    11.00000    0.07585    0.05541 =
         0.04949   -0.00680    0.00490   -0.00044
C39   1    0.130692    0.182810    0.237938    11.00000    0.05135    0.07747 =
         0.04606    0.01079    0.02832    0.00475
C40   1    0.119946    0.293988    0.206494    11.00000    0.05594    0.06583 =
         0.04954    0.00432    0.02898   -0.00338
AFIX  43
H17   2    0.101524    0.370672    0.211265    11.00000   -1.20000
AFIX   0
C41   1   -0.053383    0.288081    0.286466    11.00000    0.05693    0.04683 =
         0.04793   -0.00039    0.02881   -0.00069
C42   1    0.110638    0.183337    0.277685    11.00000    0.06634    0.05571 =
         0.04965    0.00802    0.03886    0.00568
C43   1    0.185309    0.070404    0.449847    11.00000    0.05590    0.05747 =
         0.04655    0.00046    0.02587    0.00043
C44   1    0.092378    0.526051    0.141890    11.00000    0.15179    0.12502 =
         0.13040    0.06568    0.09597    0.03995
AFIX  33
H22   2    0.061180    0.487354    0.144527    11.00000   -1.50000
H23   2    0.113987    0.571503    0.172627    11.00000   -1.50000
H24   2    0.081814    0.592896    0.115180    11.00000   -1.50000
AFIX   0
C45   1    0.025216    0.219608    0.460331    11.00000    0.04924    0.05579 =
         0.03188   -0.01013    0.02151   -0.00804
C46   1   -0.193541    0.300984    0.197613    11.00000    0.04910    0.06924 =
         0.06637   -0.00244    0.01264    0.00198
C47   1    0.332537   -0.111964    0.528736    11.00000    0.04907    0.05915 =
         0.04702    0.00578    0.01627    0.00201
AFIX  43
H18   2    0.365510   -0.154061    0.546077    11.00000   -1.20000
AFIX   0
C48   1   -0.074402    0.478792    0.530784    11.00000    0.07095    0.05823 =
         0.05850    0.00316    0.04327    0.00565
AFIX  43
H19   2   -0.077140    0.515313    0.559176    11.00000   -1.20000
AFIX   0
C49   1    0.206016   -0.054067    0.186352    11.00000    0.08585    0.08344 =
         0.06559    0.00778    0.05577    0.00863
C50   1    0.175361    0.067347    0.194186    11.00000    0.07064    0.09324 =
         0.05329    0.00197    0.03922    0.00142
C51   1    0.376337    0.121374    0.554488    11.00000    0.05268    0.08219 =
         0.07324    0.00282    0.01871   -0.00410
C52   1    0.086306    0.361667    0.080395    11.00000    0.14849    0.12295 =
         0.07809    0.01912    0.02873   -0.02401
AFIX  33
H25   2    0.054647    0.323077    0.082126    11.00000   -1.50000
H26   2    0.076786    0.438642    0.057398    11.00000   -1.50000
H27   2    0.103968    0.291010    0.069216    11.00000   -1.50000
AFIX   0
C53   1    0.383727    0.206998    0.514016    11.00000    0.08435    0.08243 =
         0.09575   -0.00195    0.05028   -0.02325
AFIX  33
H28   2    0.351816    0.259448    0.496085    11.00000   -1.50000
H29   2    0.413168    0.270154    0.528918    11.00000   -1.50000
H30   2    0.390874    0.145575    0.491433    11.00000   -1.50000
AFIX   0
C54   1    0.163280    0.182410    0.163211    11.00000    0.07799    0.08698 =
         0.05782    0.01326    0.04735    0.00194
AFIX  43
H20   2    0.174880    0.182497    0.137295    11.00000   -1.20000
AFIX   0
C55   1    0.275016   -0.399058    0.448095    11.00000    0.14059    0.05963 =
         0.09075   -0.01122    0.06881    0.00683
AFIX  33
H31   2    0.239572   -0.364801    0.429375    11.00000   -1.50000
H32   2    0.298836   -0.362076    0.434271    11.00000   -1.50000
H33   2    0.275052   -0.499367    0.446500    11.00000   -1.50000
AFIX   0
C56   1    0.293054   -0.353804    0.501237    11.00000    0.06846    0.06618 =
         0.05056    0.00330    0.02508    0.00915
C57   1   -0.138181    0.762066    0.236434    11.00000    0.10089    0.05098 =
         0.08812    0.00019    0.02480    0.01447
AFIX  33
H34   2   -0.104108    0.727419    0.259005    11.00000   -1.50000
H35   2   -0.134789    0.858342    0.228815    11.00000   -1.50000
H36   2   -0.163382    0.754487    0.251653    11.00000   -1.50000
AFIX   0
C58   1    0.169416    0.468513    0.127677    11.00000    0.12417    0.15662 =
         0.20109    0.08785    0.10506    0.00738
AFIX  33
H37   2    0.189377    0.394419    0.121017    11.00000   -1.50000
H38   2    0.158986    0.535264    0.100943    11.00000   -1.50000
H39   2    0.191159    0.513872    0.158390    11.00000   -1.50000
AFIX   0
C59   1    0.215983   -0.164369    0.225534    11.00000    0.08817    0.09892 =
         0.06095    0.00651    0.04915    0.02529
AFIX  33
H40   2    0.235434   -0.124424    0.257880    11.00000   -1.50000
H41   2    0.182488   -0.200186    0.223884    11.00000   -1.50000
H42   2    0.236405   -0.239101    0.219919    11.00000   -1.50000
AFIX   0
C60   1   -0.241637    0.206854    0.177379    11.00000    0.05522    0.08106 =
         0.13913   -0.02245    0.02897   -0.01231
C61   1    0.366493    0.217502    0.590462    11.00000    0.07441    0.10356 =
         0.05390   -0.00571    0.01429   -0.02854
AFIX  33
H43   2    0.334088    0.268835    0.573331    11.00000   -1.50000
H44   2    0.363304    0.163558    0.616834    11.00000   -1.50000
H45   2    0.395786    0.281656    0.604251    11.00000   -1.50000
AFIX   0
C62   1   -0.157383    0.677447    0.189198    11.00000    0.12211    0.05580 =
         0.05548   -0.00093   -0.00089    0.00181
C63   1    0.260046   -0.001668    0.191184    11.00000    0.07946    0.11025 =
         0.07694   -0.00006    0.05285    0.00598
AFIX  33
H46   2    0.279009    0.035553    0.224060    11.00000   -1.50000
H47   2    0.280018   -0.077616    0.185637    11.00000   -1.50000
H48   2    0.255440    0.070350    0.166924    11.00000   -1.50000
AFIX   0
C64   1   -0.292187    0.277539    0.166260    11.00000    0.06057    0.10354 =
         0.10554    0.02982    0.02895    0.01037
AFIX  33
H49   2   -0.291639    0.322165    0.195877    11.00000   -1.50000
H50   2   -0.297628    0.346672    0.140876    11.00000   -1.50000
H51   2   -0.320694    0.210484    0.154682    11.00000   -1.50000
AFIX   0
C65   1   -0.196862    0.436363    0.185235    11.00000    0.07917    0.06985 =
         0.06425   -0.00409    0.00091    0.01764
AFIX  43
H21   2   -0.229930    0.470810    0.163772    11.00000   -1.20000
AFIX   0
C66   1    0.175960   -0.112155    0.135745    11.00000    0.09810    0.08066 =
         0.07102    0.00769    0.05693    0.00829
AFIX  33
H52   2    0.170069   -0.039793    0.111347    11.00000   -1.50000
H53   2    0.196143   -0.186581    0.129594    11.00000   -1.50000
H54   2    0.142227   -0.147665    0.133559    11.00000   -1.50000
AFIX   0
C67   1    0.123438    0.412622    0.131621    11.00000    0.07455    0.07756 =
         0.05651    0.00838    0.03923   -0.00129
C68   1   -0.115347    0.707352    0.167148    11.00000    0.25283    0.08018 =
         0.10126    0.01759    0.08883   -0.01196
AFIX  33
H55   2   -0.080950    0.675484    0.190015    11.00000   -1.50000
H56   2   -0.125153    0.658981    0.135971    11.00000   -1.50000
H57   2   -0.113924    0.806097    0.161813    11.00000   -1.50000
AFIX   0
C69   1    0.255072   -0.419204    0.520485    11.00000    0.14322    0.07843 =
         0.12163    0.02754    0.09370    0.00652
AFIX  33
H58   2    0.265000   -0.393157    0.554735    11.00000   -1.50000
H59   2    0.219481   -0.387153    0.501027    11.00000   -1.50000
H60   2    0.256426   -0.519157    0.518012    11.00000   -1.50000
AFIX   0
C70   1    0.425889    0.043191    0.580843    11.00000    0.05685    0.09297 =
         0.19452    0.02496    0.01218   -0.00680
AFIX  33
H61   2    0.454833    0.107620    0.596033    11.00000   -1.50000
H62   2    0.422016   -0.014143    0.606153    11.00000   -1.50000
H63   2    0.433240   -0.015060    0.557587    11.00000   -1.50000
AFIX   0
C71   1   -0.238515    0.094450    0.214516    11.00000    0.06405    0.10234 =
         0.32032    0.09129    0.00180   -0.01943
AFIX  33
H64   2   -0.205684    0.043692    0.223374    11.00000   -1.50000
H65   2   -0.239781    0.136511    0.243841    11.00000   -1.50000
H66   2   -0.268088    0.031476    0.200012    11.00000   -1.50000
AFIX   0
C72   1   -0.207722    0.725398    0.154779    11.00000    0.23067    0.07063 =
         0.14442    0.02103   -0.09073   -0.01527
AFIX  33
H67   2   -0.205566    0.823425    0.148686    11.00000   -1.50000
H68   2   -0.217638    0.674789    0.124024    11.00000   -1.50000
H69   2   -0.234049    0.710449    0.168321    11.00000   -1.50000
AFIX   0
C73   1    0.348317   -0.404989    0.531973    11.00000    0.11625    0.06757 =
         0.11448   -0.00938    0.03283    0.01743
AFIX  33
H70   2    0.358780   -0.374377    0.565833    11.00000   -1.50000
H71   2    0.348902   -0.505342    0.531006    11.00000   -1.50000
H72   2    0.372687   -0.368051    0.518778    11.00000   -1.50000
AFIX   0
C79   1   -0.243578    0.140086    0.131804    11.00000    0.12208    0.20802 =
         0.25738   -0.16826    0.09340   -0.07427
AFIX  33
H73   2   -0.210439    0.092763    0.138453    11.00000   -1.50000
H74   2   -0.272318    0.073691    0.120390    11.00000   -1.50000
H75   2   -0.249253    0.209879    0.106584    11.00000   -1.50000
PART 2
AFIX   0
C81   1    0.989061    0.086101    0.936772    10.50000    0.12497
AFIX  23
H76   2    1.024103    0.127717    0.946148    10.50000   -1.20000
H77   2    0.964043    0.159614    0.935389    10.50000   -1.20000
AFIX   0
CL11  4    0.990682   -0.034002    0.978748    10.50000    0.54651
CL12  4    0.970075    0.008423    0.880467    10.50000    0.20229
PART 0

HKLF 4 1 1 0 0 0 1 0 0 0 1

REM  _150801fukui
REM R1 =  0.0826 for    7487 Fo > 4sig(Fo)  and  0.1312 for all   13432 data
REM    814 parameters refined using     43 restraints

END

WGHT      0.1447      0.0000

REM Highest difference peak  1.438,  deepest hole -1.214,  1-sigma level  0.123
Q1    1   1.0418  0.1224  0.8533  11.00000  0.05    1.44
Q2    1   0.9776  0.1244  0.8500  11.00000  0.05    1.38
Q3    1   0.1108  0.6950  0.3333  11.00000  0.05    1.26
Q4    1   0.0721  0.7816  0.3182  11.00000  0.05    1.19
Q5    1   0.0317  0.6928  0.3115  11.00000  0.05    1.05
Q6    1   1.0110  0.2210  0.8716  11.00000  0.05    0.95
Q7    1   0.1513  0.5461  0.1612  11.00000  0.05    0.92
Q8    1   0.0692  0.4213  0.1110  11.00000  0.05    0.88
Q9    1   0.0283  0.1904  0.3627  11.00000  0.05    0.78
Q10   1   0.1496  0.3720  0.0902  11.00000  0.05    0.75
Q11   1   0.0699  0.6007  0.3231  11.00000  0.05    0.74
Q12   1   0.1088  0.2110  0.3770  11.00000  0.05    0.61
Q13   1   0.0957  0.5695  0.3443  11.00000  0.05    0.61
Q14   1  -0.1285  0.3667  0.2996  11.00000  0.05    0.60
Q15   1   0.9985  0.0361  0.9636  11.00000  0.05    0.58
Q16   1   1.0223  0.0031  0.8889  11.00000  0.05    0.54
Q17   1   0.0828  0.5807  0.2579  11.00000  0.05    0.53
Q18   1   0.0534  0.8820  0.3092  11.00000  0.05    0.52
Q19   1   0.0880  0.5000  0.3570  11.00000  0.05    0.50
Q20   1   0.0088  0.7946  0.2818  11.00000  0.05    0.49
Q21   1   0.0681  0.2941  0.3711  11.00000  0.05    0.48
Q22   1  -0.0117  0.2016  0.1638  11.00000  0.05    0.46
Q23   1  -0.1645  0.6860  0.1549  11.00000  0.05    0.46
Q24   1   0.0416  0.3094  0.3074  11.00000  0.05    0.46
Q25   1   0.1352  0.5654  0.3522  11.00000  0.05    0.46
Q26   1   0.1494  0.6976  0.3801  11.00000  0.05    0.44
Q27   1   0.0022  0.6507  0.2649  11.00000  0.05    0.44
Q28   1   0.1368  0.6082  0.3766  11.00000  0.05    0.43
Q29   1   0.0913  0.1087  0.3577  11.00000  0.05    0.42
Q30   1   0.0133  0.6305  0.2547  11.00000  0.05    0.42
Q31   1  -0.0013  0.9280  0.2822  11.00000  0.05    0.42
Q32   1   0.0660  0.8937  0.2929  11.00000  0.05    0.41
Q33   1  -0.0377  0.6100  0.3260  11.00000  0.05    0.41
Q34   1  -0.0288  0.2345  0.4829  11.00000  0.05    0.41
Q35   1   0.0212  0.3832  0.3352  11.00000  0.05    0.40
Q36   1   0.1677  0.4853  0.3774  11.00000  0.05    0.39
Q37   1   0.1187  0.8231  0.2890  11.00000  0.05    0.38
Q38   1   0.0026  0.7031  0.3277  11.00000  0.05    0.38
Q39   1   0.1395  0.7498  0.3882  11.00000  0.05    0.38
Q40   1   0.2745 -0.3047  0.4394  11.00000  0.05    0.37
Q41   1   0.0186  0.5165  0.3232  11.00000  0.05    0.37
Q42   1   0.0677  0.8026  0.3862  11.00000  0.05    0.37
Q43   1  -0.1187  0.3209  0.3375  11.00000  0.05    0.37
Q44   1   0.0670  0.4819  0.3217  11.00000  0.05    0.37
Q45   1   1.0053 -0.2067  1.0019  11.00000  0.05    0.37
Q46   1   0.0996  0.8746  0.3371  11.00000  0.05    0.36
Q47   1   0.0287  0.9788  0.2766  11.00000  0.05    0.36
Q48   1   0.2380 -0.4040  0.4584  11.00000  0.05    0.36
Q49   1   0.2133  0.0069  0.1911  11.00000  0.05    0.36
Q50   1   0.2368 -0.0261  0.5675  11.00000  0.05    0.35
;
_shelx_res_checksum              26219
loop_
_space_group_symop_operation_xyz
'x, y, z'
'-x+1/2, y+1/2, -z+1/2'
'-x, -y, -z'
'x-1/2, -y-1/2, z-1/2'
loop_
_atom_site_label
_atom_site_type_symbol
_atom_site_fract_x
_atom_site_fract_y
_atom_site_fract_z
_atom_site_U_iso_or_equiv
_atom_site_adp_type
_atom_site_occupancy
_atom_site_site_symmetry_order
_atom_site_calc_flag
_atom_site_refinement_flags_posn
_atom_site_refinement_flags_adp
_atom_site_refinement_flags_occupancy
_atom_site_disorder_assembly
_atom_site_disorder_group
Sb1 Sb 0.07454(2) 0.68751(6) 0.32263(2) 0.0584(2) Uani 1 1 d . . . . .
Ni1 Ni 0.06751(4) 0.19282(12) 0.36893(4) 0.0428(3) Uani 1 1 d . . . . .
Cl1 Cl 0.00289(7) 0.6042(2) 0.33794(6) 0.0563(5) Uani 1 1 d . . . . .
Cl2 Cl 0.10326(7) 0.8067(2) 0.39787(7) 0.0628(5) Uani 1 1 d . . . . .
Cl3 Cl -0.13970(8) 0.4140(3) 0.32621(7) 0.0703(6) Uani 1 1 d . . . . .
Cl4 Cl 0.12486(9) 0.4956(2) 0.36374(8) 0.0686(6) Uani 1 1 d . . . . .
Cl5 Cl 0.19622(8) -0.0377(3) 0.55748(6) 0.0742(7) Uani 1 1 d . . . . .
Cl6 Cl 0.02341(10) 0.8779(2) 0.28267(8) 0.0751(6) Uani 1 1 d . . . . .
Cl7 Cl 0.04389(12) 0.5663(3) 0.24811(8) 0.0862(7) Uani 1 1 d . . . . .
Cl8 Cl 0.14659(12) 0.7743(3) 0.30980(12) 0.0994(9) Uani 1 1 d . . . . .
N1 N 0.0086(2) 0.2346(6) 0.4981(2) 0.0457(14) Uani 1 1 d . . . . .
N2 N 0.0359(2) 0.2198(6) 0.29922(19) 0.0457(14) Uani 1 1 d . . . . .
C1 C -0.0057(3) 0.2716(7) 0.4149(2) 0.0403(15) Uani 1 1 d . . . . .
N3 N 0.1334(2) 0.1493(6) 0.3653(2) 0.0467(14) Uani 1 1 d . . . . .
N4 N 0.0971(2) 0.1456(6) 0.43848(19) 0.0441(13) Uani 1 1 d . . . . .
N5 N 0.0025(2) 0.2521(6) 0.37320(19) 0.0419(13) Uani 1 1 d . . . . .
C2 C -0.0430(3) 0.2972(7) 0.3361(2) 0.0460(16) Uani 1 1 d . . . . .
C3 C 0.1451(3) 0.0835(8) 0.4658(2) 0.0481(17) Uani 1 1 d . . . . .
C4 C 0.0286(3) 0.0587(8) 0.6147(3) 0.0508(18) Uani 1 1 d . . . . .
H1 H 0.0109 0.0471 0.6358 0.061 Uiso 1 1 calc R U . . .
C5 C 0.1458(3) 0.1638(8) 0.3253(2) 0.0494(18) Uani 1 1 d . . . . .
C6 C -0.0657(3) 0.3748(8) 0.4476(3) 0.0495(17) Uani 1 1 d . . . . .
C7 C -0.0310(3) 0.3316(8) 0.4936(3) 0.0492(18) Uani 1 1 d . . . . .
C8 C 0.1017(3) 0.0953(8) 0.5155(2) 0.0458(17) Uani 1 1 d . . . . .
C9 C -0.1036(3) 0.3378(8) 0.2489(3) 0.0518(19) Uani 1 1 d . . . . .
C10 C 0.2207(3) 0.1071(9) 0.3868(3) 0.057(2) Uani 1 1 d . . . . .
H2 H 0.2561 0.0846 0.4061 0.069 Uiso 1 1 calc R U . . .
C11 C 0.0725(3) 0.1529(7) 0.4700(2) 0.0409(16) Uani 1 1 d . . . . .
C12 C 0.2416(3) -0.1354(8) 0.4781(2) 0.0497(18) Uani 1 1 d . . . . .
H3 H 0.2121 -0.1901 0.4598 0.060 Uiso 1 1 calc R U . . .
C13 C 0.1795(3) 0.1105(8) 0.4026(2) 0.0492(17) Uani 1 1 d . . . . .
C14 C -0.0246(3) 0.2338(8) 0.2203(2) 0.0527(18) Uani 1 1 d . . . . .
H4 H -0.0574 0.2450 0.1935 0.063 Uiso 1 1 calc R U . . .
C15 C 0.0312(3) 0.1518(7) 0.5408(2) 0.0473(17) Uani 1 1 d . . . . .
C16 C 0.0585(3) 0.2012(8) 0.2660(2) 0.0512(18) Uani 1 1 d . . . . .
C17 C 0.1572(3) 0.0712(10) 0.2319(3) 0.061(2) Uani 1 1 d . . . . .
H5 H 0.1635 -0.0047 0.2534 0.073 Uiso 1 1 calc R U . . .
C18 C 0.0796(3) 0.0882(8) 0.5518(2) 0.0468(17) Uani 1 1 d . . . . .
C19 C -0.0779(3) 0.3475(8) 0.3562(3) 0.0492(18) Uani 1 1 d . . . . .
C20 C 0.2009(3) 0.1411(9) 0.3397(3) 0.060(2) Uani 1 1 d . . . . .
H6 H 0.2197 0.1490 0.3194 0.073 Uiso 1 1 calc R U . . .
C21 C 0.2891(3) -0.1968(9) 0.5031(3) 0.0537(19) Uani 1 1 d . . . . .
C22 C 0.0782(3) 0.0065(8) 0.6278(2) 0.055(2) Uani 1 1 d . . . . .
H7 H 0.0957 -0.0356 0.6588 0.066 Uiso 1 1 calc R U . . .
C23 C -0.0540(3) 0.3333(8) 0.4061(2) 0.0482(17) Uani 1 1 d . . . . .
C24 C 0.1466(3) 0.0520(8) 0.5126(2) 0.0506(18) Uani 1 1 d . . . . .
C25 C -0.1070(3) 0.4659(9) 0.4436(3) 0.059(2) Uani 1 1 d . . . . .
H8 H -0.1314 0.4937 0.4123 0.070 Uiso 1 1 calc R U . . .
C26 C 0.0044(3) 0.1277(8) 0.5712(2) 0.0498(18) Uani 1 1 d . . . . .
H9 H -0.0305 0.1591 0.5617 0.060 Uiso 1 1 calc R U . . .
C27 C 0.2799(3) 0.0874(9) 0.5056(3) 0.0559(19) Uani 1 1 d . . . . .
H10 H 0.2758 0.1838 0.5070 0.067 Uiso 1 1 calc R U . . .
C28 C -0.1080(3) 0.4715(9) 0.2341(3) 0.058(2) Uani 1 1 d . . . . .
H11 H -0.0780 0.5287 0.2460 0.069 Uiso 1 1 calc R U . . .
C29 C 0.1361(3) 0.2935(9) 0.1678(3) 0.061(2) Uani 1 1 d . . . . .
C30 C -0.1468(3) 0.2527(8) 0.2301(3) 0.0528(18) Uani 1 1 d . . . . .
H12 H -0.1438 0.1595 0.2400 0.063 Uiso 1 1 calc R U . . .
C31 C 0.0198(3) 0.2068(9) 0.2172(3) 0.057(2) Uani 1 1 d . . . . .
H13 H 0.0254 0.1936 0.1880 0.069 Uiso 1 1 calc R U . . .
C32 C -0.0158(3) 0.2437(8) 0.2710(3) 0.0515(18) Uani 1 1 d . . . . .
C33 C 0.2362(3) 0.0063(9) 0.4793(2) 0.0513(18) Uani 1 1 d . . . . .
C34 C -0.1116(3) 0.5132(9) 0.4846(3) 0.060(2) Uani 1 1 d . . . . .
H14 H -0.1403 0.5700 0.4818 0.072 Uiso 1 1 calc R U . . .
C35 C 0.3294(3) 0.0291(9) 0.5298(3) 0.0539(19) Uani 1 1 d . . . . .
C36 C 0.1019(3) 0.0158(8) 0.5960(2) 0.0495(17) Uani 1 1 d . . . . .
H15 H 0.1347 -0.0282 0.6039 0.059 Uiso 1 1 calc R U . . .
C37 C -0.0342(3) 0.3931(8) 0.5353(3) 0.0514(18) Uani 1 1 d . . . . .
H16 H -0.0080 0.3743 0.5668 0.062 Uiso 1 1 calc R U . . .
C38 C -0.1556(4) 0.5258(9) 0.2018(3) 0.067(2) Uani 1 1 d . . . . .
C39 C 0.1307(3) 0.1828(9) 0.2379(3) 0.0555(19) Uani 1 1 d . . . . .
C40 C 0.1199(3) 0.2940(9) 0.2065(3) 0.0546(19) Uani 1 1 d . . . . .
H17 H 0.1015 0.3707 0.2113 0.066 Uiso 1 1 calc R U . . .
C41 C -0.0534(3) 0.2881(7) 0.2865(2) 0.0481(17) Uani 1 1 d . . . . .
C42 C 0.1106(3) 0.1833(8) 0.2777(3) 0.0523(18) Uani 1 1 d . . . . .
C43 C 0.1853(3) 0.0704(8) 0.4498(3) 0.0516(18) Uani 1 1 d . . . . .
C44 C 0.0924(5) 0.5261(14) 0.1419(5) 0.123(5) Uani 1 1 d . . . . .
H22 H 0.0612 0.4874 0.1445 0.185 Uiso 1 1 calc R U . . .
H23 H 0.1140 0.5715 0.1726 0.185 Uiso 1 1 calc R U . . .
H24 H 0.0818 0.5929 0.1152 0.185 Uiso 1 1 calc R U . . .
C45 C 0.0252(3) 0.2196(7) 0.4603(2) 0.0440(17) Uani 1 1 d . . . . .
C46 C -0.1935(3) 0.3010(9) 0.1976(3) 0.065(2) Uani 1 1 d . . . . .
C47 C 0.3325(3) -0.1120(8) 0.5287(3) 0.0527(18) Uani 1 1 d . . . . .
H18 H 0.3655 -0.1541 0.5461 0.063 Uiso 1 1 calc R U . . .
C48 C -0.0744(3) 0.4788(8) 0.5308(3) 0.057(2) Uani 1 1 d . . . . .
H19 H -0.0771 0.5153 0.5592 0.068 Uiso 1 1 calc R U . . .
C49 C 0.2060(4) -0.0541(10) 0.1864(3) 0.070(2) Uani 1 1 d . . . . .
C50 C 0.1754(3) 0.0673(10) 0.1942(3) 0.068(2) Uani 1 1 d . . . . .
C51 C 0.3763(3) 0.1214(10) 0.5545(3) 0.071(2) Uani 1 1 d . . . . .
C52 C 0.0863(6) 0.3617(14) 0.0804(4) 0.122(5) Uani 1 1 d . . . . .
H25 H 0.0546 0.3231 0.0821 0.183 Uiso 1 1 calc R U . . .
H26 H 0.0768 0.4386 0.0574 0.183 Uiso 1 1 calc R U . . .
H27 H 0.1040 0.2910 0.0692 0.183 Uiso 1 1 calc R U . . .
C53 C 0.3837(4) 0.2070(11) 0.5140(4) 0.083(3) Uani 1 1 d . . . . .
H28 H 0.3518 0.2594 0.4961 0.124 Uiso 1 1 calc R U . . .
H29 H 0.4132 0.2702 0.5289 0.124 Uiso 1 1 calc R U . . .
H30 H 0.3909 0.1456 0.4914 0.124 Uiso 1 1 calc R U . . .
C54 C 0.1633(3) 0.1824(10) 0.1632(3) 0.068(2) Uani 1 1 d . . . . .
H20 H 0.1749 0.1825 0.1373 0.081 Uiso 1 1 calc R U . . .
C55 C 0.2750(5) -0.3991(10) 0.4481(4) 0.090(3) Uani 1 1 d . . . . .
H31 H 0.2396 -0.3648 0.4294 0.135 Uiso 1 1 calc R U . . .
H32 H 0.2988 -0.3621 0.4343 0.135 Uiso 1 1 calc R U . . .
H33 H 0.2751 -0.4994 0.4465 0.135 Uiso 1 1 calc R U . . .
C56 C 0.2931(3) -0.3538(9) 0.5012(3) 0.061(2) Uani 1 1 d . . . . .
C57 C -0.1382(4) 0.7621(10) 0.2364(4) 0.084(3) Uani 1 1 d . . . . .
H34 H -0.1041 0.7274 0.2590 0.126 Uiso 1 1 calc R U . . .
H35 H -0.1348 0.8583 0.2288 0.126 Uiso 1 1 calc R U . . .
H36 H -0.1634 0.7545 0.2517 0.126 Uiso 1 1 calc R U . . .
C58 C 0.1694(5) 0.4685(16) 0.1277(6) 0.148(6) Uani 1 1 d . . . . .
H37 H 0.1894 0.3944 0.1210 0.222 Uiso 1 1 calc R U . . .
H38 H 0.1590 0.5353 0.1009 0.222 Uiso 1 1 calc R U . . .
H39 H 0.1912 0.5139 0.1584 0.222 Uiso 1 1 calc R U . . .
C59 C 0.2160(4) -0.1644(10) 0.2255(3) 0.077(3) Uani 1 1 d . . . . .
H40 H 0.2354 -0.1244 0.2579 0.115 Uiso 1 1 calc R U . . .
H41 H 0.1825 -0.2002 0.2239 0.115 Uiso 1 1 calc R U . . .
H42 H 0.2364 -0.2391 0.2199 0.115 Uiso 1 1 calc R U . . .
C60 C -0.2416(4) 0.2069(11) 0.1774(5) 0.095(3) Uani 1 1 d . U . . .
C61 C 0.3665(4) 0.2175(11) 0.5905(3) 0.081(3) Uani 1 1 d . . . . .
H43 H 0.3341 0.2688 0.5733 0.121 Uiso 1 1 calc R U . . .
H44 H 0.3633 0.1636 0.6168 0.121 Uiso 1 1 calc R U . . .
H45 H 0.3958 0.2817 0.6043 0.121 Uiso 1 1 calc R U . . .
C62 C -0.1574(5) 0.6774(10) 0.1892(3) 0.089(3) Uani 1 1 d . . . . .
C63 C 0.2600(4) -0.0017(11) 0.1912(3) 0.082(3) Uani 1 1 d . . . . .
H46 H 0.2790 0.0356 0.2241 0.123 Uiso 1 1 calc R U . . .
H47 H 0.2800 -0.0776 0.1856 0.123 Uiso 1 1 calc R U . . .
H48 H 0.2554 0.0704 0.1669 0.123 Uiso 1 1 calc R U . . .
C64 C -0.2922(4) 0.2775(12) 0.1663(4) 0.091(3) Uani 1 1 d . U . . .
H49 H -0.2916 0.3222 0.1959 0.137 Uiso 1 1 calc R U . . .
H50 H -0.2976 0.3467 0.1409 0.137 Uiso 1 1 calc R U . . .
H51 H -0.3207 0.2105 0.1547 0.137 Uiso 1 1 calc R U . . .
C65 C -0.1969(4) 0.4364(10) 0.1852(3) 0.080(3) Uani 1 1 d . . . . .
H21 H -0.2299 0.4708 0.1638 0.096 Uiso 1 1 calc R U . . .
C66 C 0.1760(4) -0.1122(10) 0.1357(3) 0.076(3) Uani 1 1 d . . . . .
H52 H 0.1701 -0.0398 0.1113 0.114 Uiso 1 1 calc R U . . .
H53 H 0.1961 -0.1866 0.1296 0.114 Uiso 1 1 calc R U . . .
H54 H 0.1422 -0.1477 0.1336 0.114 Uiso 1 1 calc R U . . .
C67 C 0.1234(3) 0.4126(10) 0.1316(3) 0.065(2) Uani 1 1 d . . . . .
C68 C -0.1153(7) 0.7074(13) 0.1671(5) 0.139(6) Uani 1 1 d . . . . .
H55 H -0.0809 0.6755 0.1900 0.209 Uiso 1 1 calc R U . . .
H56 H -0.1252 0.6590 0.1360 0.209 Uiso 1 1 calc R U . . .
H57 H -0.1139 0.8061 0.1618 0.209 Uiso 1 1 calc R U . . .
C69 C 0.2551(5) -0.4192(11) 0.5205(4) 0.102(4) Uani 1 1 d . . . . .
H58 H 0.2650 -0.3932 0.5547 0.152 Uiso 1 1 calc R U . . .
H59 H 0.2195 -0.3872 0.5010 0.152 Uiso 1 1 calc R U . . .
H60 H 0.2564 -0.5192 0.5180 0.152 Uiso 1 1 calc R U . . .
C70 C 0.4259(4) 0.0432(13) 0.5808(6) 0.127(5) Uani 1 1 d . . . . .
H61 H 0.4548 0.1076 0.5960 0.190 Uiso 1 1 calc R U . . .
H62 H 0.4220 -0.0141 0.6062 0.190 Uiso 1 1 calc R U . . .
H63 H 0.4332 -0.0151 0.5576 0.190 Uiso 1 1 calc R U . . .
C71 C -0.2385(5) 0.0945(15) 0.2145(8) 0.186(9) Uani 1 1 d . U . . .
H64 H -0.2057 0.0437 0.2234 0.279 Uiso 1 1 calc R U . . .
H65 H -0.2398 0.1365 0.2438 0.279 Uiso 1 1 calc R U . . .
H66 H -0.2681 0.0315 0.2000 0.279 Uiso 1 1 calc R U . . .
C72 C -0.2077(7) 0.7254(14) 0.1548(6) 0.201(11) Uani 1 1 d . . . . .
H67 H -0.2056 0.8234 0.1487 0.301 Uiso 1 1 calc R U . . .
H68 H -0.2176 0.6748 0.1240 0.301 Uiso 1 1 calc R U . . .
H69 H -0.2340 0.7104 0.1683 0.301 Uiso 1 1 calc R U . . .
C73 C 0.3483(5) -0.4050(11) 0.5320(4) 0.104(4) Uani 1 1 d . . . . .
H70 H 0.3588 -0.3744 0.5658 0.155 Uiso 1 1 calc R U . . .
H71 H 0.3489 -0.5053 0.5310 0.155 Uiso 1 1 calc R U . . .
H72 H 0.3727 -0.3681 0.5188 0.155 Uiso 1 1 calc R U . . .
C79 C -0.2436(6) 0.140(2) 0.1318(7) 0.190(9) Uani 1 1 d . U . . .
H73 H -0.2104 0.0928 0.1385 0.285 Uiso 1 1 calc R U . . .
H74 H -0.2723 0.0737 0.1204 0.285 Uiso 1 1 calc R U . . .
H75 H -0.2493 0.2099 0.1066 0.285 Uiso 1 1 calc R U . . .
C81 C 0.9891(12) 0.086(3) 0.9368(9) 0.125(9) Uiso 0.5 1 d D . P A 2
H76 H 1.0241 0.1277 0.9461 0.150 Uiso 0.5 1 calc R U P A 2
H77 H 0.9640 0.1596 0.9354 0.150 Uiso 0.5 1 calc R U P A 2
Cl11 Cl 0.9907(19) -0.034(5) 0.9787(13) 0.55(2) Uiso 0.5 1 d D . P A 2
Cl12 Cl 0.9701(5) 0.0084(13) 0.8805(5) 0.202(4) Uiso 0.5 1 d D . P A 2
loop_
_atom_site_aniso_label
_atom_site_aniso_U_11
_atom_site_aniso_U_22
_atom_site_aniso_U_33
_atom_site_aniso_U_23
_atom_site_aniso_U_13
_atom_site_aniso_U_12
Sb1 0.0796(4) 0.0564(3) 0.0575(3) -0.0063(2) 0.0467(3) -0.0121(3)
Ni1 0.0461(6) 0.0531(7) 0.0354(5) 0.0030(5) 0.0226(5) 0.0021(5)
Cl1 0.0626(11) 0.0638(12) 0.0458(9) -0.0001(8) 0.0249(8) -0.0138(9)
Cl2 0.0550(11) 0.0741(13) 0.0670(11) -0.0210(10) 0.0325(9) -0.0150(10)
Cl3 0.0624(12) 0.1004(17) 0.0498(10) 0.0061(10) 0.0240(9) 0.0262(11)
Cl4 0.0754(13) 0.0657(13) 0.0774(13) -0.0081(10) 0.0439(11) -0.0022(10)
Cl5 0.0662(13) 0.1175(19) 0.0411(9) 0.0132(11) 0.0236(9) 0.0344(12)
Cl6 0.1107(18) 0.0602(13) 0.0664(12) 0.0055(10) 0.0480(12) -0.0093(12)
Cl7 0.141(2) 0.0773(16) 0.0571(12) -0.0109(11) 0.0566(14) -0.0098(14)
Cl8 0.122(2) 0.0834(17) 0.146(2) -0.0014(16) 0.109(2) -0.0143(15)
N1 0.047(3) 0.054(4) 0.043(3) 0.002(3) 0.025(3) 0.006(3)
N2 0.044(3) 0.059(4) 0.038(3) 0.004(3) 0.019(3) 0.005(3)
C1 0.042(4) 0.046(4) 0.040(3) 0.006(3) 0.024(3) 0.005(3)
N3 0.044(3) 0.062(4) 0.042(3) 0.005(3) 0.026(3) 0.004(3)
N4 0.045(3) 0.055(4) 0.036(3) -0.005(3) 0.020(3) 0.001(3)
N5 0.049(3) 0.044(3) 0.038(3) 0.005(2) 0.023(3) -0.001(3)
C2 0.051(4) 0.048(4) 0.039(3) 0.003(3) 0.018(3) -0.007(3)
C3 0.058(5) 0.049(4) 0.044(4) -0.003(3) 0.028(3) -0.003(4)
C4 0.063(5) 0.050(5) 0.048(4) 0.004(3) 0.031(4) 0.001(4)
C5 0.056(5) 0.059(5) 0.045(4) 0.009(3) 0.032(3) 0.010(4)
C6 0.047(4) 0.057(5) 0.054(4) 0.009(4) 0.030(3) 0.004(4)
C7 0.055(4) 0.054(5) 0.051(4) 0.007(3) 0.035(4) 0.001(4)
C8 0.050(4) 0.057(5) 0.033(3) -0.003(3) 0.020(3) 0.001(3)
C9 0.054(5) 0.062(5) 0.043(4) 0.001(4) 0.024(3) 0.002(4)
C10 0.046(4) 0.080(6) 0.051(4) 0.004(4) 0.024(4) 0.006(4)
C11 0.045(4) 0.047(4) 0.037(3) 0.001(3) 0.023(3) 0.001(3)
C12 0.051(5) 0.062(5) 0.046(4) -0.010(4) 0.029(3) -0.002(4)
C13 0.052(4) 0.057(5) 0.044(4) 0.001(3) 0.024(3) 0.004(4)
C14 0.052(4) 0.063(5) 0.038(4) 0.006(3) 0.012(3) 0.002(4)
C15 0.056(5) 0.053(5) 0.037(3) 0.004(3) 0.023(3) -0.002(3)
C16 0.060(5) 0.059(5) 0.041(4) 0.005(3) 0.028(3) 0.000(4)
C17 0.066(5) 0.081(6) 0.046(4) 0.007(4) 0.034(4) 0.005(4)
C18 0.049(4) 0.057(5) 0.035(3) 0.001(3) 0.017(3) 0.001(3)
C19 0.052(4) 0.051(5) 0.047(4) 0.007(3) 0.022(3) 0.010(3)
C20 0.057(5) 0.076(6) 0.060(5) 0.013(4) 0.036(4) 0.008(4)
C21 0.058(5) 0.071(5) 0.042(4) 0.004(4) 0.030(4) -0.004(4)
C22 0.080(6) 0.052(5) 0.037(4) 0.002(3) 0.029(4) -0.006(4)
C23 0.048(4) 0.057(5) 0.046(4) 0.000(3) 0.026(3) -0.001(3)
C24 0.057(5) 0.057(5) 0.038(4) 0.000(3) 0.019(3) 0.008(4)
C25 0.056(5) 0.069(5) 0.058(4) 0.002(4) 0.030(4) 0.005(4)
C26 0.062(5) 0.054(5) 0.044(4) 0.001(3) 0.031(4) -0.002(4)
C27 0.063(5) 0.064(5) 0.045(4) -0.008(4) 0.026(4) -0.001(4)
C28 0.071(5) 0.056(5) 0.043(4) -0.005(4) 0.019(4) -0.012(4)
C29 0.064(5) 0.072(6) 0.057(4) 0.013(4) 0.036(4) 0.005(4)
C30 0.060(5) 0.049(4) 0.056(4) 0.001(4) 0.031(4) 0.001(4)
C31 0.061(5) 0.077(6) 0.042(4) 0.001(4) 0.028(4) -0.002(4)
C32 0.060(5) 0.044(4) 0.055(4) 0.004(3) 0.028(4) -0.004(4)
C33 0.051(4) 0.067(6) 0.039(4) -0.002(3) 0.021(3) 0.004(4)
C34 0.058(5) 0.066(5) 0.068(5) 0.006(4) 0.039(4) 0.005(4)
C35 0.051(5) 0.060(5) 0.055(4) 0.010(4) 0.026(4) 0.004(4)
C36 0.046(4) 0.059(5) 0.044(4) 0.007(3) 0.019(3) 0.002(3)
C37 0.057(5) 0.059(5) 0.051(4) 0.007(4) 0.036(4) 0.002(4)
C38 0.076(6) 0.055(5) 0.049(4) -0.007(4) 0.005(4) 0.000(5)
C39 0.051(4) 0.077(6) 0.046(4) 0.011(4) 0.028(3) 0.005(4)
C40 0.056(5) 0.066(5) 0.050(4) 0.004(4) 0.029(4) -0.003(4)
C41 0.057(4) 0.047(4) 0.048(4) 0.000(3) 0.029(4) -0.001(3)
C42 0.066(5) 0.056(5) 0.050(4) 0.008(4) 0.039(4) 0.006(4)
C43 0.056(5) 0.057(5) 0.047(4) 0.000(3) 0.026(3) 0.000(4)
C44 0.152(12) 0.125(11) 0.130(10) 0.066(9) 0.096(10) 0.040(9)
C45 0.049(4) 0.056(5) 0.032(3) -0.010(3) 0.022(3) -0.008(3)
C46 0.049(5) 0.069(6) 0.066(5) -0.002(4) 0.013(4) 0.002(4)
C47 0.049(4) 0.059(5) 0.047(4) 0.006(4) 0.016(3) 0.002(4)
C48 0.071(5) 0.058(5) 0.058(5) 0.003(4) 0.043(4) 0.006(4)
C49 0.086(6) 0.083(6) 0.066(5) 0.008(5) 0.056(5) 0.009(5)
C50 0.071(6) 0.093(7) 0.053(4) 0.002(5) 0.039(4) 0.001(5)
C51 0.053(5) 0.082(6) 0.073(6) 0.003(5) 0.019(4) -0.004(5)
C52 0.148(12) 0.123(10) 0.078(7) 0.019(7) 0.029(7) -0.024(9)
C53 0.084(7) 0.082(7) 0.096(7) -0.002(5) 0.050(6) -0.023(5)
C54 0.078(6) 0.087(7) 0.058(5) 0.013(5) 0.047(4) 0.002(5)
C55 0.141(10) 0.060(6) 0.091(7) -0.011(5) 0.069(7) 0.007(6)
C56 0.068(5) 0.066(6) 0.051(4) 0.003(4) 0.025(4) 0.009(4)
C57 0.101(7) 0.051(5) 0.088(7) 0.000(5) 0.025(6) 0.014(5)
C58 0.124(11) 0.157(13) 0.201(16) 0.088(12) 0.105(11) 0.007(10)
C59 0.088(7) 0.099(7) 0.061(5) 0.007(5) 0.049(5) 0.025(5)
C60 0.055(5) 0.081(7) 0.139(9) -0.022(7) 0.029(6) -0.012(5)
C61 0.074(6) 0.104(8) 0.054(5) -0.006(5) 0.014(4) -0.029(5)
C62 0.122(9) 0.056(6) 0.055(5) -0.001(4) -0.001(6) 0.002(6)
C63 0.079(6) 0.110(8) 0.077(6) 0.000(6) 0.053(5) 0.006(6)
C64 0.061(6) 0.104(8) 0.106(8) 0.030(6) 0.029(5) 0.010(5)
C65 0.079(7) 0.070(7) 0.064(5) -0.004(5) 0.001(5) 0.018(5)
C66 0.098(7) 0.081(6) 0.071(6) 0.008(5) 0.057(5) 0.008(5)
C67 0.075(6) 0.078(6) 0.057(5) 0.008(4) 0.039(4) -0.001(5)
C68 0.253(19) 0.080(9) 0.101(9) 0.018(7) 0.089(11) -0.012(10)
C69 0.143(10) 0.078(7) 0.122(9) 0.028(6) 0.094(8) 0.007(7)
C70 0.057(6) 0.093(9) 0.195(14) 0.025(9) 0.012(8) -0.007(6)
C71 0.064(7) 0.102(10) 0.32(2) 0.091(13) 0.002(10) -0.019(7)
C72 0.231(19) 0.071(9) 0.144(13) 0.021(8) -0.091(13) -0.015(10)
C73 0.116(9) 0.068(7) 0.114(9) -0.009(6) 0.033(7) 0.017(6)
C79 0.122(11) 0.208(16) 0.257(19) -0.168(16) 0.093(12) -0.074(11)
loop_
_atom_type_symbol
_atom_type_description
_atom_type_scat_dispersion_real
_atom_type_scat_dispersion_imag
_atom_type_scat_source
C C 0.0181 0.0091 'International Tables Vol C Tables 4.2.6.8 and 6.1.1.4'
H H 0.0000 0.0000 'International Tables Vol C Tables 4.2.6.8 and 6.1.1.4'
N N 0.0311 0.0180 'International Tables Vol C Tables 4.2.6.8 and 6.1.1.4'
Cl Cl 0.3639 0.7018 'International Tables Vol C Tables 4.2.6.8 and 6.1.1.4'
Ni Ni -3.0029 0.5091 'International Tables Vol C Tables 4.2.6.8 and 6.1.1.4'
Sb Sb -0.0562 5.8946 'International Tables Vol C Tables 4.2.6.8 and 6.1.1.4'
loop_
_geom_angle_atom_site_label_1
_geom_angle_atom_site_label_2
_geom_angle_atom_site_label_3
_geom_angle
_geom_angle_site_symmetry_1
Cl8 Sb1 Cl6 91.01(10) .
Cl8 Sb1 Cl7 92.23(10) .
Cl6 Sb1 Cl7 89.97(9) .
Cl8 Sb1 Cl1 178.14(9) .
Cl6 Sb1 Cl1 88.94(8) .
Cl7 Sb1 Cl1 89.63(8) .
Cl8 Sb1 Cl2 89.41(9) .
Cl6 Sb1 Cl2 90.02(8) .
Cl7 Sb1 Cl2 178.36(8) .
Cl1 Sb1 Cl2 88.73(7) .
Cl8 Sb1 Cl4 90.05(10) .
Cl6 Sb1 Cl4 178.81(7) .
Cl7 Sb1 Cl4 90.53(9) .
Cl1 Sb1 Cl4 89.99(8) .
Cl2 Sb1 Cl4 89.46(8) .
N2 Ni1 N3 90.3(2) .
N2 Ni1 N5 89.6(2) .
N3 Ni1 N5 175.4(3) .
N2 Ni1 N4 174.0(3) .
N3 Ni1 N4 90.0(2) .
N5 Ni1 N4 90.6(2) .
C45 N1 C7 119.5(6) .
C45 N1 C15 119.6(6) .
C7 N1 C15 120.9(5) .
C32 N2 C16 104.6(6) .
C32 N2 Ni1 127.0(4) .
C16 N2 Ni1 127.9(5) .
N5 C1 C45 125.3(6) .
N5 C1 C23 112.9(6) .
C45 C1 C23 121.2(6) .
C13 N3 C5 104.5(6) .
C13 N3 Ni1 128.3(4) .
C5 N3 Ni1 126.9(5) .
C11 N4 C3 104.3(5) .
C11 N4 Ni1 127.0(5) .
C3 N4 Ni1 128.4(4) .
C1 N5 C2 104.5(5) .
C1 N5 Ni1 126.7(5) .
C2 N5 Ni1 128.4(4) .
N5 C2 C41 124.4(6) .
N5 C2 C19 109.7(6) .
C41 C2 C19 125.8(7) .
C43 C3 N4 123.8(6) .
C43 C3 C24 127.5(7) .
N4 C3 C24 108.4(6) .
C26 C4 C22 120.6(7) .
N3 C5 C42 125.9(7) .
N3 C5 C20 109.4(6) .
C42 C5 C20 124.4(6) .
C7 C6 C25 119.4(7) .
C7 C6 C23 116.8(6) .
C25 C6 C23 123.5(7) .
C6 C7 C37 118.4(7) .
C6 C7 N1 120.2(6) .
C37 C7 N1 121.3(7) .
C24 C8 C11 104.9(5) .
C24 C8 C18 135.5(6) .
C11 C8 C18 119.5(6) .
C28 C9 C30 119.3(7) .
C28 C9 C41 119.5(7) .
C30 C9 C41 121.1(7) .
C20 C10 C13 107.3(7) .
N4 C11 C8 113.1(6) .
N4 C11 C45 125.0(6) .
C8 C11 C45 121.8(6) .
C21 C12 C33 120.7(7) .
N3 C13 C10 111.2(6) .
N3 C13 C43 125.5(6) .
C10 C13 C43 123.2(7) .
C31 C14 C32 108.7(7) .
C18 C15 C26 119.0(6) .
C18 C15 N1 120.2(6) .
C26 C15 N1 120.8(7) .
C42 C16 N2 125.3(6) .
C42 C16 C31 124.0(6) .
N2 C16 C31 110.7(6) .
C39 C17 C50 120.9(8) .
C15 C18 C36 117.9(6) .
C15 C18 C8 117.5(6) .
C36 C18 C8 124.5(6) .
C23 C19 C2 107.7(6) .
C23 C19 Cl3 123.7(5) .
C2 C19 Cl3 128.6(5) .
C10 C20 C5 107.4(6) .
C12 C21 C47 118.2(8) .
C12 C21 C56 118.8(7) .
C47 C21 C56 123.0(7) .
C36 C22 C4 119.3(7) .
C19 C23 C1 105.1(6) .
C19 C23 C6 135.6(7) .
C1 C23 C6 119.0(6) .
C8 C24 C3 109.4(6) .
C8 C24 Cl5 125.5(5) .
C3 C24 Cl5 125.0(6) .
C34 C25 C6 120.1(8) .
C4 C26 C15 120.3(7) .
C35 C27 C33 121.2(8) .
C9 C28 C38 121.6(8) .
C54 C29 C40 117.5(7) .
C54 C29 C67 121.0(7) .
C40 C29 C67 121.4(8) .
C46 C30 C9 120.8(8) .
C14 C31 C16 106.6(6) .
N2 C32 C41 127.3(7) .
N2 C32 C14 109.3(6) .
C41 C32 C14 122.9(7) .
C12 C33 C27 119.7(7) .
C12 C33 C43 119.5(7) .
C27 C33 C43 120.6(7) .
C25 C34 C48 120.4(8) .
C47 C35 C27 117.0(7) .
C47 C35 C51 123.5(7) .
C27 C35 C51 119.5(8) .
C22 C36 C18 122.3(7) .
C48 C37 C7 120.8(7) .
C65 C38 C28 115.9(8) .
C65 C38 C62 126.1(8) .
C28 C38 C62 118.0(8) .
C17 C39 C40 121.0(7) .
C17 C39 C42 120.0(7) .
C40 C39 C42 119.0(7) .
C39 C40 C29 120.2(8) .
C32 C41 C2 121.0(7) .
C32 C41 C9 117.8(6) .
C2 C41 C9 121.0(6) .
C16 C42 C5 121.8(6) .
C16 C42 C39 119.6(7) .
C5 C42 C39 118.5(7) .
C3 C43 C13 122.2(7) .
C3 C43 C33 123.4(6) .
C13 C43 C33 114.4(6) .
C1 C45 N1 118.7(6) .
C1 C45 C11 122.9(6) .
N1 C45 C11 118.4(6) .
C30 C46 C65 118.0(8) .
C30 C46 C60 120.7(9) .
C65 C46 C60 121.2(8) .
C35 C47 C21 123.2(7) .
C37 C48 C34 120.2(7) .
C66 C49 C59 111.0(8) .
C66 C49 C50 108.7(7) .
C59 C49 C50 111.7(6) .
C66 C49 C63 110.4(6) .
C59 C49 C63 106.8(8) .
C50 C49 C63 108.2(8) .
C17 C50 C54 115.8(8) .
C17 C50 C49 122.9(8) .
C54 C50 C49 121.2(7) .
C70 C51 C35 113.0(8) .
C70 C51 C61 109.3(9) .
C35 C51 C61 110.0(7) .
C70 C51 C53 107.6(9) .
C35 C51 C53 107.4(7) .
C61 C51 C53 109.5(8) .
C29 C54 C50 124.5(7) .
C55 C56 C73 111.4(8) .
C55 C56 C69 106.2(8) .
C73 C56 C69 108.7(8) .
C55 C56 C21 109.1(7) .
C73 C56 C21 111.9(8) .
C69 C56 C21 109.4(7) .
C64 C60 C79 108.3(11) .
C64 C60 C46 114.4(9) .
C79 C60 C46 109.2(10) .
C64 C60 C71 105.6(10) .
C79 C60 C71 108.5(13) .
C46 C60 C71 110.7(10) .
C72 C62 C38 114.6(10) .
C72 C62 C57 111.3(11) .
C38 C62 C57 109.4(8) .
C72 C62 C68 108.3(12) .
C38 C62 C68 108.9(9) .
C57 C62 C68 103.8(9) .
C46 C65 C38 124.2(8) .
C58 C67 C44 109.9(10) .
C58 C67 C29 112.5(9) .
C44 C67 C29 113.8(7) .
C58 C67 C52 107.9(10) .
C44 C67 C52 102.9(10) .
C29 C67 C52 109.2(8) .
Cl11 C81 Cl12 109(2) .
Cl11 Cl11 C81 104(5) 3_757
loop_
_geom_bond_atom_site_label_1
_geom_bond_atom_site_label_2
_geom_bond_distance
_geom_bond_site_symmetry_2
Sb1 Cl8 2.348(2) .
Sb1 Cl6 2.356(3) .
Sb1 Cl7 2.358(2) .
Sb1 Cl1 2.365(2) .
Sb1 Cl2 2.367(2) .
Sb1 Cl4 2.368(2) .
Ni1 N2 1.927(5) .
Ni1 N3 1.929(6) .
Ni1 N5 1.954(6) .
Ni1 N4 1.959(5) .
Cl3 C19 1.720(7) .
Cl5 C24 1.732(7) .
N1 C45 1.388(8) .
N1 C7 1.419(9) .
N1 C15 1.424(9) .
N2 C32 1.371(10) .
N2 C16 1.381(8) .
C1 N5 1.365(8) .
C1 C45 1.382(9) .
C1 C23 1.401(10) .
N3 C13 1.377(9) .
N3 C5 1.378(8) .
N4 C11 1.369(8) .
N4 C3 1.398(9) .
N5 C2 1.383(9) .
C2 C41 1.394(9) .
C2 C19 1.420(10) .
C3 C43 1.389(10) .
C3 C24 1.413(9) .
C4 C26 1.375(10) .
C4 C22 1.377(11) .
C5 C42 1.381(10) .
C5 C20 1.437(11) .
C6 C7 1.395(10) .
C6 C25 1.422(11) .
C6 C23 1.457(9) .
C7 C37 1.415(10) .
C8 C24 1.357(10) .
C8 C11 1.393(9) .
C8 C18 1.445(9) .
C9 C28 1.367(11) .
C9 C30 1.384(11) .
C9 C41 1.484(11) .
C10 C20 1.329(11) .
C10 C13 1.406(10) .
C11 C45 1.395(10) .
C12 C21 1.372(11) .
C12 C33 1.393(11) .
C13 C43 1.409(10) .
C14 C31 1.308(10) .
C14 C32 1.437(10) .
C15 C18 1.401(10) .
C15 C26 1.407(9) .
C16 C42 1.365(11) .
C16 C31 1.428(10) .
C17 C39 1.369(11) .
C17 C50 1.406(10) .
C18 C36 1.404(10) .
C19 C23 1.375(10) .
C21 C47 1.413(11) .
C21 C56 1.539(12) .
C22 C36 1.360(10) .
C25 C34 1.361(11) .
C27 C35 1.398(11) .
C27 C33 1.401(11) .
C28 C38 1.396(12) .
C29 C54 1.361(12) .
C29 C40 1.397(10) .
C29 C67 1.529(12) .
C30 C46 1.361(11) .
C32 C41 1.372(10) .
C33 C43 1.477(10) .
C34 C48 1.396(11) .
C35 C47 1.381(11) .
C35 C51 1.517(12) .
C37 C48 1.362(11) .
C38 C65 1.371(13) .
C38 C62 1.522(13) .
C39 C40 1.387(11) .
C39 C42 1.500(9) .
C44 C67 1.510(15) .
C46 C65 1.365(13) .
C46 C60 1.537(13) .
C49 C66 1.515(13) .
C49 C59 1.531(12) .
C49 C50 1.533(13) .
C49 C63 1.543(13) .
C50 C54 1.407(12) .
C51 C70 1.498(14) .
C51 C61 1.531(14) .
C51 C53 1.549(13) .
C52 C67 1.547(14) .
C55 C56 1.526(12) .
C56 C73 1.529(13) .
C56 C69 1.531(12) .
C57 C62 1.534(13) .
C58 C67 1.441(14) .
C60 C64 1.483(14) .
C60 C79 1.490(19) .
C60 C71 1.537(19) .
C62 C72 1.447(17) .
C62 C68 1.584(19) .
C81 Cl11 1.70(3) .
C81 Cl12 1.72(2) .
Cl11 Cl11 1.34(8) 3_757
loop_
_geom_torsion_atom_site_label_1
_geom_torsion_atom_site_label_2
_geom_torsion_atom_site_label_3
_geom_torsion_atom_site_label_4
_geom_torsion
_geom_torsion_site_symmetry_4
C45 C1 N5 C2 168.0(7) .
C23 C1 N5 C2 -2.7(8) .
C45 C1 N5 Ni1 -18.0(10) .
C23 C1 N5 Ni1 171.3(5) .
C1 N5 C2 C41 -175.6(7) .
Ni1 N5 C2 C41 10.5(10) .
C1 N5 C2 C19 1.7(8) .
Ni1 N5 C2 C19 -172.1(5) .
C11 N4 C3 C43 -172.1(7) .
Ni1 N4 C3 C43 14.3(11) .
C11 N4 C3 C24 1.8(8) .
Ni1 N4 C3 C24 -171.8(5) .
C13 N3 C5 C42 170.6(8) .
Ni1 N3 C5 C42 -15.2(11) .
C13 N3 C5 C20 -3.4(8) .
Ni1 N3 C5 C20 170.8(5) .
C25 C6 C7 C37 -7.7(11) .
C23 C6 C7 C37 166.5(7) .
C25 C6 C7 N1 176.3(7) .
C23 C6 C7 N1 -9.5(11) .
C45 N1 C7 C6 23.1(10) .
C15 N1 C7 C6 -156.5(7) .
C45 N1 C7 C37 -152.8(7) .
C15 N1 C7 C37 27.6(10) .
C3 N4 C11 C8 -1.7(8) .
Ni1 N4 C11 C8 172.0(5) .
C3 N4 C11 C45 173.5(7) .
Ni1 N4 C11 C45 -12.8(10) .
C24 C8 C11 N4 0.9(9) .
C18 C8 C11 N4 -176.5(6) .
C24 C8 C11 C45 -174.5(7) .
C18 C8 C11 C45 8.2(11) .
C5 N3 C13 C10 2.7(9) .
Ni1 N3 C13 C10 -171.4(6) .
C5 N3 C13 C43 -173.4(8) .
Ni1 N3 C13 C43 12.4(12) .
C20 C10 C13 N3 -1.0(10) .
C20 C10 C13 C43 175.3(8) .
C45 N1 C15 C18 19.7(10) .
C7 N1 C15 C18 -160.7(7) .
C45 N1 C15 C26 -157.4(7) .
C7 N1 C15 C26 22.1(10) .
C32 N2 C16 C42 175.5(8) .
Ni1 N2 C16 C42 -12.5(11) .
C32 N2 C16 C31 -2.9(8) .
Ni1 N2 C16 C31 169.1(5) .
C26 C15 C18 C36 -7.2(11) .
N1 C15 C18 C36 175.6(7) .
C26 C15 C18 C8 169.4(7) .
N1 C15 C18 C8 -7.8(10) .
C24 C8 C18 C15 177.9(8) .
C11 C8 C18 C15 -5.8(11) .
C24 C8 C18 C36 -5.7(14) .
C11 C8 C18 C36 170.6(7) .
N5 C2 C19 C23 -0.2(9) .
C41 C2 C19 C23 177.1(7) .
N5 C2 C19 Cl3 -179.5(6) .
C41 C2 C19 Cl3 -2.2(12) .
C13 C10 C20 C5 -1.2(10) .
N3 C5 C20 C10 3.0(10) .
C42 C5 C20 C10 -171.1(8) .
C33 C12 C21 C47 -1.8(10) .
C33 C12 C21 C56 179.2(6) .
C26 C4 C22 C36 -4.3(12) .
C2 C19 C23 C1 -1.4(8) .
Cl3 C19 C23 C1 178.0(6) .
C2 C19 C23 C6 173.1(8) .
Cl3 C19 C23 C6 -7.5(14) .
N5 C1 C23 C19 2.7(9) .
C45 C1 C23 C19 -168.5(7) .
N5 C1 C23 C6 -173.0(6) .
C45 C1 C23 C6 15.8(11) .
C7 C6 C23 C19 176.6(8) .
C25 C6 C23 C19 -9.5(14) .
C7 C6 C23 C1 -9.4(11) .
C25 C6 C23 C1 164.5(7) .
C11 C8 C24 C3 0.4(9) .
C18 C8 C24 C3 177.0(8) .
C11 C8 C24 Cl5 -175.8(6) .
C18 C8 C24 Cl5 0.8(14) .
C43 C3 C24 C8 172.3(8) .
N4 C3 C24 C8 -1.4(9) .
C43 C3 C24 Cl5 -11.5(12) .
N4 C3 C24 Cl5 174.8(5) .
C7 C6 C25 C34 1.8(12) .
C23 C6 C25 C34 -171.9(8) .
C22 C4 C26 C15 -3.3(11) .
C18 C15 C26 C4 9.1(11) .
N1 C15 C26 C4 -173.8(7) .
C30 C9 C28 C38 2.4(11) .
C41 C9 C28 C38 -174.8(7) .
C28 C9 C30 C46 -0.8(11) .
C41 C9 C30 C46 176.4(7) .
C32 C14 C31 C16 -1.0(9) .
C42 C16 C31 C14 -175.9(8) .
N2 C16 C31 C14 2.5(9) .
C16 N2 C32 C41 -169.6(8) .
Ni1 N2 C32 C41 18.3(11) .
C16 N2 C32 C14 2.3(8) .
Ni1 N2 C32 C14 -169.9(5) .
C31 C14 C32 N2 -0.8(9) .
C31 C14 C32 C41 171.5(8) .
C21 C12 C33 C27 1.1(10) .
C21 C12 C33 C43 176.5(6) .
C35 C27 C33 C12 1.6(10) .
C35 C27 C33 C43 -173.7(6) .
C6 C25 C34 C48 3.4(12) .
C33 C27 C35 C47 -3.4(10) .
C33 C27 C35 C51 175.2(7) .
C4 C22 C36 C18 6.0(12) .
C15 C18 C36 C22 -0.2(11) .
C8 C18 C36 C22 -176.6(7) .
C6 C7 C37 C48 8.6(11) .
N1 C7 C37 C48 -175.4(7) .
C9 C28 C38 C65 -1.4(12) .
C9 C28 C38 C62 177.1(8) .
C50 C17 C39 C40 1.4(13) .
C50 C17 C39 C42 178.6(8) .
C17 C39 C40 C29 0.1(12) .
C42 C39 C40 C29 -177.1(8) .
C54 C29 C40 C39 -1.3(13) .
C67 C29 C40 C39 178.1(8) .
N2 C32 C41 C2 -8.6(12) .
C14 C32 C41 C2 -179.4(7) .
N2 C32 C41 C9 166.0(7) .
C14 C32 C41 C9 -4.8(11) .
N5 C2 C41 C32 -6.2(11) .
C19 C2 C41 C32 176.9(7) .
N5 C2 C41 C9 179.4(7) .
C19 C2 C41 C9 2.5(11) .
C28 C9 C41 C32 -85.9(9) .
C30 C9 C41 C32 96.8(9) .
C28 C9 C41 C2 88.7(9) .
C30 C9 C41 C2 -88.5(9) .
N2 C16 C42 C5 8.9(13) .
C31 C16 C42 C5 -172.9(8) .
N2 C16 C42 C39 -171.9(7) .
C31 C16 C42 C39 6.3(12) .
N3 C5 C42 C16 5.3(13) .
C20 C5 C42 C16 178.4(8) .
N3 C5 C42 C39 -173.9(7) .
C20 C5 C42 C39 -0.8(12) .
C17 C39 C42 C16 -121.9(9) .
C40 C39 C42 C16 55.3(11) .
C17 C39 C42 C5 57.2(11) .
C40 C39 C42 C5 -125.5(8) .
N4 C3 C43 C13 -4.7(12) .
C24 C3 C43 C13 -177.5(8) .
N4 C3 C43 C33 179.1(7) .
C24 C3 C43 C33 6.3(13) .
N3 C13 C43 C3 -8.8(13) .
C10 C13 C43 C3 175.5(8) .
N3 C13 C43 C33 167.7(7) .
C10 C13 C43 C33 -8.0(12) .
C12 C33 C43 C3 85.3(9) .
C27 C33 C43 C3 -99.4(9) .
C12 C33 C43 C13 -91.2(9) .
C27 C33 C43 C13 84.1(9) .
N5 C1 C45 N1 -172.6(7) .
C23 C1 C45 N1 -2.6(10) .
N5 C1 C45 C11 7.5(11) .
C23 C1 C45 C11 177.5(7) .
C7 N1 C45 C1 -16.7(10) .
C15 N1 C45 C1 162.9(6) .
C7 N1 C45 C11 163.1(6) .
C15 N1 C45 C11 -17.3(10) .
N4 C11 C45 C1 8.5(11) .
C8 C11 C45 C1 -176.7(7) .
N4 C11 C45 N1 -171.3(6) .
C8 C11 C45 N1 3.5(10) .
C9 C30 C46 C65 -1.8(13) .
C9 C30 C46 C60 -179.1(8) .
C27 C35 C47 C21 2.6(11) .
C51 C35 C47 C21 -175.9(7) .
C12 C21 C47 C35 0.0(10) .
C56 C21 C47 C35 178.9(7) .
C7 C37 C48 C34 -3.5(12) .
C25 C34 C48 C37 -2.6(12) .
C39 C17 C50 C54 -1.6(13) .
C39 C17 C50 C49 179.0(8) .
C66 C49 C50 C17 120.3(9) .
C59 C49 C50 C17 -2.5(13) .
C63 C49 C50 C17 -119.8(9) .
C66 C49 C50 C54 -59.2(11) .
C59 C49 C50 C54 178.0(9) .
C63 C49 C50 C54 60.8(11) .
C47 C35 C51 C70 -4.4(13) .
C27 C35 C51 C70 177.1(9) .
C47 C35 C51 C61 -126.8(8) .
C27 C35 C51 C61 54.7(10) .
C47 C35 C51 C53 114.1(9) .
C27 C35 C51 C53 -64.4(10) .
C40 C29 C54 C50 1.1(14) .
C67 C29 C54 C50 -178.3(9) .
C17 C50 C54 C29 0.3(14) .
C49 C50 C54 C29 179.8(9) .
C12 C21 C56 C55 57.7(9) .
C47 C21 C56 C55 -121.2(8) .
C12 C21 C56 C73 -178.6(8) .
C47 C21 C56 C73 2.5(11) .
C12 C21 C56 C69 -58.0(9) .
C47 C21 C56 C69 123.1(8) .
C30 C46 C60 C64 148.0(10) .
C65 C46 C60 C64 -29.2(15) .
C30 C46 C60 C79 -90.5(14) .
C65 C46 C60 C79 92.3(14) .
C30 C46 C60 C71 28.9(15) .
C65 C46 C60 C71 -148.3(12) .
C65 C38 C62 C72 -2.8(18) .
C28 C38 C62 C72 178.8(13) .
C65 C38 C62 C57 122.9(11) .
C28 C38 C62 C57 -55.5(13) .
C65 C38 C62 C68 -124.4(12) .
C28 C38 C62 C68 57.3(11) .
C30 C46 C65 C38 2.9(15) .
C60 C46 C65 C38 -179.8(10) .
C28 C38 C65 C46 -1.4(14) .
C62 C38 C65 C46 -179.7(10) .
C54 C29 C67 C58 -55.1(14) .
C40 C29 C67 C58 125.5(11) .
C54 C29 C67 C44 179.1(10) .
C40 C29 C67 C44 -0.3(13) .
C54 C29 C67 C52 64.7(12) .
C40 C29 C67 C52 -114.7(10) .
Cl12 C81 Cl11 Cl11 176(4) 3_757
