#------------------------------------------------------------------------------
#$Date: 2017-10-07 05:07:13 +0300 (Sat, 07 Oct 2017) $
#$Revision: 201841 $
#$URL: file:///home/coder/svn-repositories/cod/cif/1/54/76/1547623.cif $
#------------------------------------------------------------------------------
#
# This file is available in the Crystallography Open Database (COD),
# http://www.crystallography.net/
#
# All data on this site have been placed in the public domain by the
# contributors.
#
data_1547623
loop_
_publ_author_name
'Osuka, Atsuhiro'
'Fujimoto, Keisuke'
_publ_section_title
;
 Effective stabilization of a planar phosphorus(III) center embedded in a
 porphyrin-based fused aromatic skeleton
;
_journal_name_full               'Chem. Sci.'
_journal_paper_doi               10.1039/C7SC03882H
_journal_year                    2017
_chemical_formula_moiety
'C82 H71 N6 Ni O5 P S2, C Cl2, 0.5(C H2 Cl2), 0.317(O), 1.68(C O), 0.59(C H3 O)'
_chemical_formula_sum            'C85.77 H73.77 Cl3 N6 Ni O7.59 P S2'
_chemical_formula_weight         1570.17
_space_group_crystal_system      monoclinic
_space_group_IT_number           14
_space_group_name_Hall           '-P 2ybc'
_space_group_name_H-M_alt        'P 1 21/c 1'
_symmetry_space_group_name_Hall  '-P 2ybc'
_symmetry_space_group_name_H-M   'P 1 21/c 1'
_atom_sites_solution_hydrogens   geom
_audit_creation_method           SHELXL-2014/7
_audit_update_record
;
2017-09-01 deposited with the CCDC.
2017-10-06 downloaded from the CCDC.
;
_cell_angle_alpha                90
_cell_angle_beta                 101.374(3)
_cell_angle_gamma                90
_cell_formula_units_Z            4
_cell_length_a                   15.0591(17)
_cell_length_b                   27.873(3)
_cell_length_c                   18.771(2)
_cell_measurement_reflns_used    4898
_cell_measurement_temperature    93(2)
_cell_measurement_theta_max      68.2
_cell_measurement_theta_min      31.2
_cell_volume                     7724.2(15)
_computing_structure_refinement  'SHELXL-2014/7 (Sheldrick, 2014)'
_diffrn_ambient_temperature      93(2)
_diffrn_detector_area_resol_mean 5.8140
_diffrn_measured_fraction_theta_full 0.968
_diffrn_measured_fraction_theta_max 0.967
_diffrn_measurement_device_type  'Rigaku XtaLAB P200'
_diffrn_measurement_method       \w
_diffrn_radiation_type           CuK\a
_diffrn_radiation_wavelength     1.54187
_diffrn_reflns_av_R_equivalents  0.0355
_diffrn_reflns_av_unetI/netI     0.0292
_diffrn_reflns_Laue_measured_fraction_full 0.968
_diffrn_reflns_Laue_measured_fraction_max 0.967
_diffrn_reflns_limit_h_max       17
_diffrn_reflns_limit_h_min       -18
_diffrn_reflns_limit_k_max       33
_diffrn_reflns_limit_k_min       -30
_diffrn_reflns_limit_l_max       21
_diffrn_reflns_limit_l_min       -22
_diffrn_reflns_number            50140
_diffrn_reflns_point_group_measured_fraction_full 0.968
_diffrn_reflns_point_group_measured_fraction_max 0.967
_diffrn_reflns_theta_full        67.687
_diffrn_reflns_theta_max         68.346
_diffrn_reflns_theta_min         6.772
_exptl_absorpt_coefficient_mu    2.507
_exptl_absorpt_correction_T_max  1.000
_exptl_absorpt_correction_T_min  0.736
_exptl_absorpt_correction_type   multi-scan
_exptl_absorpt_process_details   'REQAB (Rigaku, 1998)'
_exptl_crystal_colour            Green
_exptl_crystal_density_diffrn    1.350
_exptl_crystal_description       Prism
_exptl_crystal_F_000             3269
_exptl_crystal_size_max          0.300
_exptl_crystal_size_mid          0.260
_exptl_crystal_size_min          0.020
_refine_diff_density_max         1.673
_refine_diff_density_min         -1.535
_refine_diff_density_rms         0.118
_refine_ls_extinction_method     none
_refine_ls_goodness_of_fit_ref   1.067
_refine_ls_hydrogen_treatment    constr
_refine_ls_matrix_type           full
_refine_ls_number_parameters     1005
_refine_ls_number_reflns         13707
_refine_ls_number_restraints     77
_refine_ls_restrained_S_all      1.074
_refine_ls_R_factor_all          0.0941
_refine_ls_R_factor_gt           0.0809
_refine_ls_shift/su_max          0.013
_refine_ls_shift/su_mean         0.000
_refine_ls_structure_factor_coef Fsqd
_refine_ls_weighting_details
'w=1/[\s^2^(Fo^2^)+(0.1410P)^2^+19.1738P] where P=(Fo^2^+2Fc^2^)/3'
_refine_ls_weighting_scheme      calc
_refine_ls_wR_factor_gt          0.2261
_refine_ls_wR_factor_ref         0.2385
_reflns_Friedel_coverage         0.000
_reflns_number_gt                11240
_reflns_number_total             13707
_reflns_threshold_expression     'I > 2\s(I)'
_cod_data_source_file            c7sc03882h2.cif
_cod_data_source_block           1117kf
_cod_database_code               1547623
_shelx_shelxl_version_number     2014/7
_shelx_space_group_comment
;
The symmetry employed for this shelxl refinement is uniquely defined
by the following loop, which should always be used as a source of
symmetry information in preference to the above space-group names.
They are only intended as comments.
;
_shelx_estimated_absorpt_t_min   0.520
_shelx_estimated_absorpt_t_max   0.952
_shelx_res_file
;

    1117kf.res created by SHELXL-2014/7

TITL 1117kf
REM  Yadorkari-X generated
CELL 1.54187 15.0591 27.8730 18.7710 90.0000 101.3740 90.0000
ZERR 4.0 0.0017 0.0030 0.0020 0.0000 0.0030 0.0000
LATT 1
SYMM -X, 1/2+Y, 1/2-Z
REM  SPGR P21/c monoclinic
SFAC C H N O Ni P S Cl
UNIT 343.092 295.0984 24 30.366 4 4 8 12
SIZE 0.30 0.26 0.02
TEMP -180.0
L.S. 10
FMAP 2
PLAN -20
ACTA
CONF
LIST 4
BOND $H
MERG 2
OMIT    2    0    6
OMIT    0    1    3
OMIT   -3    3    4
OMIT   -2    3    2
OMIT   -3    9    3
OMIT    2    2    2
OMIT   -1    4    2
OMIT   -1    4    5
OMIT    2    8    1
OMIT    2    2    9
OMIT    3    6    4
OMIT    1    0    6
OMIT    2    7    2
OMIT   -2    0    2
OMIT    2    6    7
OMIT    0    4    1
OMIT    6    4    5
OMIT    0    1    6
OMIT   -2   10    4
OMIT    5    4    4
OMIT    0    0    4
OMIT    4   12    0
OMIT    3    2    2
OMIT    2    3    9
OMIT   -3    0    6
OMIT    1    2    2
OMIT   -3    3    2
OMIT   -4    2    1
OMIT    5    7    3
OMIT    4    3    3
OMIT    3    0    2
OMIT    1    6    5
OMIT    1    7    2
OMIT   -5    3    2
OMIT   -1    1    7
OMIT    6    1    2
OMIT    5    1    3
OMIT    6    2    0
OMIT   -2    5    1

SADI 0.02 C85 Cl3 C85 Cl4 C85 Cl5 C85 Cl6
SADI 0.02 C88 Cl8 C88 Cl9 C89 Cl10 C89 Cl11
SADI 0.02 C83 Cl1 C83 Cl2
DFIX 1.43 0.21 C84 O9 C90 O12 C91 O13
DFIX 0.01 C89 O11
SIMU 0.02 C84 O9
SIMU 0.02 C86 O10
SIMU 0.01 C89 O11
SIMU 0.01 C90 O12
SIMU 0.02 C83 Cl1 Cl2
ISOR 0.02 C84 O9
ISOR 0.02 C86 O10
ISOR 0.01 C89 O11
ISOR 0.01 C90 O12
ISOR 0.02 C83 Cl1 Cl2

WGHT    0.141000   19.173800
FVAR       1.03225   0.59110   0.63376
NI1   5    0.604122    0.600574    0.363749    11.00000    0.01981    0.01857 =
         0.02076   -0.00065   -0.00069   -0.00188
N1    3    0.632841    0.652778    0.433175    11.00000    0.02148    0.01979 =
         0.02097    0.00103   -0.00077   -0.00146
N2    3    0.721531    0.608607    0.338446    11.00000    0.02093    0.01940 =
         0.02114   -0.00055   -0.00248    0.00021
N3    3    0.574596    0.548818    0.294054    11.00000    0.02527    0.01985 =
         0.02096    0.00203   -0.00156   -0.00153
N4    3    0.487532    0.592002    0.391400    11.00000    0.02347    0.02036 =
         0.01910    0.00054   -0.00141   -0.00323
N5    3    0.607732    0.781498    0.604143    11.00000    0.02230    0.02264 =
         0.02566   -0.00298   -0.00037    0.00021
N6    3    0.287856    0.593694    0.563932    11.00000    0.02719    0.02828 =
         0.02935    0.00010    0.00170   -0.00617
O1    4    0.713371    0.810096    0.715277    11.00000    0.02955    0.03201 =
         0.03442   -0.00854   -0.00417   -0.00509
O2    4    0.742946    0.731897    0.661761    11.00000    0.02436    0.03714 =
         0.03097   -0.00555   -0.00168    0.00589
O3    4    0.351682    0.510990    0.552119    11.00000    0.02721    0.03392 =
         0.04177    0.01007    0.00165    0.00202
O4    4    0.250615    0.525530    0.637860    11.00000    0.03543    0.03538 =
         0.03581    0.00849    0.00191   -0.00319
O8    4    0.340575    0.729718    0.430733    11.00000    0.02546    0.02827 =
         0.03021    0.00159   -0.00407    0.00120
P1    6    0.404444    0.705078    0.490637    11.00000    0.01929    0.02155 =
         0.02504   -0.00058   -0.00063   -0.00077
S1    7    0.681189    0.765825    0.681728    11.00000    0.02271    0.02788 =
         0.02655   -0.00540   -0.00254    0.00030
S2    7    0.274014    0.533612    0.569194    11.00000    0.02639    0.02784 =
         0.03181    0.00584    0.00042   -0.00255
C1    1    0.573404    0.676631    0.467104    11.00000    0.02233    0.01965 =
         0.01923    0.00289   -0.00105   -0.00172
C2    1    0.618950    0.713314    0.516360    11.00000    0.02518    0.02040 =
         0.02005   -0.00079   -0.00064   -0.00150
C3    1    0.708094    0.711497    0.510636    11.00000    0.02054    0.02460 =
         0.02377   -0.00162   -0.00100   -0.00370
AFIX  43
H1    2    0.755960    0.730519    0.536819    11.00000   -1.20000
AFIX   0
C4    1    0.715562    0.675481    0.457691    11.00000    0.01890    0.02312 =
         0.02617    0.00169   -0.00143   -0.00085
C5    1    0.793684    0.667297    0.430786    11.00000    0.02166    0.02188 =
         0.02588    0.00162   -0.00087   -0.00002
C6    1    0.793768    0.636158    0.372960    11.00000    0.02210    0.02313 =
         0.02561    0.00384    0.00170    0.00128
C7    1    0.868681    0.632215    0.335928    11.00000    0.02144    0.02893 =
         0.03399   -0.00235    0.00226   -0.00004
AFIX  43
H2    2    0.926338    0.647017    0.349733    11.00000   -1.20000
AFIX   0
C8    1    0.841211    0.603418    0.277773    11.00000    0.02614    0.02613 =
         0.02963   -0.00071    0.00492    0.00293
AFIX  43
H3    2    0.875560    0.594624    0.242452    11.00000   -1.20000
AFIX   0
C9    1    0.750583    0.588693    0.279499    11.00000    0.02531    0.02279 =
         0.02278    0.00119    0.00055    0.00123
C10   1    0.702471    0.555797    0.230339    11.00000    0.02760    0.01947 =
         0.02004    0.00020   -0.00166    0.00196
C11   1    0.621141    0.535841    0.240372    11.00000    0.02692    0.02059 =
         0.02043    0.00016   -0.00287    0.00044
C12   1    0.575658    0.497299    0.197508    11.00000    0.03112    0.02501 =
         0.02249   -0.00413   -0.00178   -0.00176
AFIX  43
H4    2    0.593022    0.482912    0.156455    11.00000   -1.20000
AFIX   0
C13   1    0.503219    0.485249    0.226581    11.00000    0.03273    0.02190 =
         0.02518   -0.00335   -0.00280   -0.00471
AFIX  43
H5    2    0.461303    0.460138    0.210773    11.00000   -1.20000
AFIX   0
C14   1    0.501845    0.517526    0.285609    11.00000    0.02490    0.02118 =
         0.02389    0.00003   -0.00201   -0.00135
C15   1    0.432664    0.518468    0.325260    11.00000    0.02471    0.02073 =
         0.02505    0.00396   -0.00405   -0.00322
C16   1    0.428490    0.553665    0.376112    11.00000    0.02400    0.02253 =
         0.02548    0.00151   -0.00110   -0.00266
C17   1    0.357619    0.557583    0.417365    11.00000    0.02011    0.02787 =
         0.02706    0.00071   -0.00253   -0.00559
AFIX  43
H6    2    0.309421    0.535502    0.416763    11.00000   -1.20000
AFIX   0
C88   1    0.372003    0.598294    0.457057    11.00000    0.02069    0.02548 =
         0.02392    0.00164   -0.00344   -0.00133
C19   1    0.450200    0.620493    0.436037    11.00000    0.01997    0.02180 =
         0.02274    0.00151   -0.00398    0.00077
C20   1    0.483878    0.664936    0.462908    11.00000    0.02125    0.01995 =
         0.02144    0.00187   -0.00218    0.00019
C21   1    0.568317    0.743709    0.556871    11.00000    0.02558    0.01873 =
         0.02441   -0.00021    0.00140   -0.00374
C22   1    0.476269    0.746935    0.545181    11.00000    0.02506    0.02145 =
         0.02259   -0.00002   -0.00002   -0.00158
C23   1    0.452616    0.791135    0.578059    11.00000    0.02535    0.01969 =
         0.02850    0.00258    0.00306   -0.00080
C24   1    0.533573    0.811259    0.615316    11.00000    0.02375    0.02515 =
         0.02630    0.00056    0.00001    0.00229
C25   1    0.535311    0.853896    0.653173    11.00000    0.02851    0.02576 =
         0.03694   -0.00639    0.00131   -0.00189
AFIX  43
H7    2    0.590441    0.866799    0.679620    11.00000   -1.20000
AFIX   0
C26   1    0.453458    0.877042    0.650997    11.00000    0.03430    0.02521 =
         0.04232   -0.00703    0.00109    0.00233
AFIX  43
H8    2    0.452329    0.906087    0.677286    11.00000   -1.20000
AFIX   0
C27   1    0.372793    0.858711    0.611159    11.00000    0.02923    0.02631 =
         0.04044   -0.00186    0.00058    0.00527
AFIX  43
H9    2    0.318086    0.876042    0.609413    11.00000   -1.20000
AFIX   0
C28   1    0.370835    0.815755    0.574095    11.00000    0.02407    0.02731 =
         0.03246    0.00034   -0.00254    0.00184
AFIX  43
H10   2    0.315742    0.803352    0.546814    11.00000   -1.20000
AFIX   0
C29   1    0.336191    0.618403    0.517756    11.00000    0.01979    0.02537 =
         0.02792    0.00401   -0.00020   -0.00267
C30   1    0.349496    0.664864    0.542262    11.00000    0.02137    0.02919 =
         0.02510    0.00154   -0.00009   -0.00167
C31   1    0.307774    0.670795    0.604339    11.00000    0.02564    0.03017 =
         0.02703    0.00026   -0.00140    0.00023
C32   1    0.268288    0.626922    0.616233    11.00000    0.03226    0.03469 =
         0.02459    0.00064    0.00175   -0.00238
C33   1    0.219088    0.621386    0.671389    11.00000    0.05108    0.03604 =
         0.03891    0.00068    0.01399   -0.00943
AFIX  43
H11   2    0.191641    0.591595    0.678813    11.00000   -1.20000
AFIX   0
C34   1    0.211593    0.660255    0.714509    11.00000    0.06230    0.04800 =
         0.03747    0.00165    0.02228   -0.00385
AFIX  43
H12   2    0.177589    0.657327    0.751875    11.00000   -1.20000
AFIX   0
C35   1    0.252743    0.704132    0.704898    11.00000    0.05408    0.03758 =
         0.03567   -0.00794    0.01088   -0.00299
AFIX  43
H13   2    0.247302    0.730298    0.736185    11.00000   -1.20000
AFIX   0
C36   1    0.301373    0.709654    0.650035    11.00000    0.03754    0.03090 =
         0.02713    0.00013    0.00365   -0.00241
AFIX  43
H14   2    0.329847    0.739318    0.643602    11.00000   -1.20000
AFIX   0
C37   1    0.611195    0.736764    0.733184    11.00000    0.03075    0.02724 =
         0.02449   -0.00315   -0.00068    0.00177
C38   1    0.577552    0.761726    0.786080    11.00000    0.04371    0.03369 =
         0.03371   -0.01153    0.00631   -0.00542
AFIX  43
H15   2    0.592561    0.794511    0.795667    11.00000   -1.20000
AFIX   0
C39   1    0.521764    0.737853    0.824480    11.00000    0.04975    0.04292 =
         0.03663   -0.00912    0.01185    0.00119
AFIX  43
H16   2    0.497635    0.754783    0.860276    11.00000   -1.20000
AFIX   0
C40   1    0.499986    0.689727    0.812150    11.00000    0.04263    0.04091 =
         0.03534    0.00615    0.00643    0.00447
C41   1    0.533074    0.666263    0.758155    11.00000    0.05942    0.02433 =
         0.05238    0.00312    0.01779    0.00100
AFIX  43
H17   2    0.516866    0.633701    0.747778    11.00000   -1.20000
AFIX   0
C42   1    0.589017    0.688913    0.718958    11.00000    0.05263    0.02424 =
         0.03554   -0.00168    0.01016    0.00895
AFIX  43
H18   2    0.612162    0.672009    0.682620    11.00000   -1.20000
AFIX   0
C43   1    0.440149    0.664268    0.856918    11.00000    0.06786    0.05250 =
         0.05727    0.01047    0.02555   -0.00051
AFIX  33
H19   2    0.423591    0.686732    0.892290    11.00000   -1.50000
H20   2    0.385143    0.652619    0.824658    11.00000   -1.50000
H21   2    0.473216    0.637072    0.882607    11.00000   -1.50000
AFIX   0
C44   1    0.179914    0.522582    0.499210    11.00000    0.02627    0.02843 =
         0.03016    0.00205    0.00177   -0.00290
C45   1    0.103098    0.551240    0.492093    11.00000    0.03274    0.04051 =
         0.03706   -0.00876   -0.00096    0.00518
AFIX  43
H22   2    0.100819    0.577055    0.524729    11.00000   -1.20000
AFIX   0
C46   1    0.029950    0.541522    0.436623    11.00000    0.03347    0.04488 =
         0.04289   -0.00543   -0.00380    0.01296
AFIX  43
H23   2   -0.023087    0.560691    0.431569    11.00000   -1.20000
AFIX   0
C47   1    0.033110    0.504192    0.388380    11.00000    0.03272    0.03522 =
         0.03038    0.00112    0.00133   -0.00759
C48   1    0.109861    0.476438    0.396569    11.00000    0.03484    0.02813 =
         0.04189   -0.00860    0.01165   -0.00841
AFIX  43
H24   2    0.112449    0.451115    0.363166    11.00000   -1.20000
AFIX   0
C49   1    0.183894    0.484499    0.452574    11.00000    0.02542    0.02394 =
         0.05328   -0.00361    0.00631   -0.00224
AFIX  43
H25   2    0.235799    0.464405    0.458653    11.00000   -1.20000
AFIX   0
C50   1   -0.045204    0.493654    0.326481    11.00000    0.04403    0.04442 =
         0.04036   -0.00352   -0.00285   -0.00396
AFIX  33
H26   2   -0.094500    0.516359    0.327944    11.00000   -1.50000
H27   2   -0.025099    0.496915    0.280142    11.00000   -1.50000
H28   2   -0.066767    0.460860    0.331241    11.00000   -1.50000
AFIX   0
C51   1    0.877273    0.696536    0.459159    11.00000    0.01935    0.02538 =
         0.02930   -0.00374    0.00233   -0.00020
C52   1    0.940955    0.680330    0.518678    11.00000    0.02760    0.03148 =
         0.03313   -0.00054   -0.00180   -0.00217
C53   1    1.019518    0.707478    0.542352    11.00000    0.03594    0.04380 =
         0.06006    0.01042   -0.02232   -0.01003
AFIX  43
H29   2    1.063073    0.696684    0.582874    11.00000   -1.20000
AFIX   0
C54   1    1.034980    0.749588    0.508037    11.00000    0.03267    0.04159 =
         0.09173    0.01487   -0.02329   -0.01605
C55   1    0.969615    0.765401    0.449720    11.00000    0.03375    0.02737 =
         0.06074    0.00694   -0.00315   -0.00622
AFIX  43
H30   2    0.979307    0.794555    0.426169    11.00000   -1.20000
AFIX   0
C56   1    0.890775    0.739717    0.425132    11.00000    0.02460    0.02681 =
         0.03658   -0.00017    0.00060    0.00058
C57   1    0.926427    0.635068    0.557347    11.00000    0.03286    0.03815 =
         0.03625    0.00699   -0.00542   -0.00374
AFIX  33
H31   2    0.978013    0.629627    0.597357    11.00000   -1.50000
H32   2    0.870814    0.637790    0.576766    11.00000   -1.50000
H33   2    0.920917    0.608077    0.523301    11.00000   -1.50000
AFIX   0
C58   1    1.123193    0.777314    0.531447    11.00000    0.05450    0.06957 =
         0.14696    0.03719   -0.04841   -0.03677
AFIX  33
H34   2    1.122126    0.806041    0.501190    11.00000   -1.50000
H35   2    1.129816    0.786792    0.582500    11.00000   -1.50000
H36   2    1.174334    0.756929    0.525698    11.00000   -1.50000
AFIX   0
C59   1    0.822031    0.758410    0.361994    11.00000    0.03819    0.02675 =
         0.03792    0.00324   -0.00413   -0.00317
AFIX  33
H37   2    0.770631    0.736218    0.351492    11.00000   -1.50000
H38   2    0.800782    0.790033    0.374170    11.00000   -1.50000
H39   2    0.849904    0.761153    0.319197    11.00000   -1.50000
AFIX   0
C60   1    0.739198    0.542818    0.164738    11.00000    0.02375    0.02504 =
         0.02602   -0.00526   -0.00079   -0.00164
C61   1    0.770562    0.496423    0.154591    11.00000    0.02706    0.02514 =
         0.02403   -0.00135   -0.00156    0.00158
AFIX  43
H40   2    0.770675    0.472811    0.191106    11.00000   -1.20000
AFIX   0
C62   1    0.801451    0.484554    0.091864    11.00000    0.02541    0.03058 =
         0.02923   -0.00656   -0.00034   -0.00035
C63   1    0.800799    0.519674    0.039332    11.00000    0.03467    0.03429 =
         0.03048   -0.00539    0.00817    0.00149
AFIX  43
H41   2    0.820172    0.511555   -0.004335    11.00000   -1.20000
AFIX   0
C64   1    0.772529    0.566595    0.048698    11.00000    0.04579    0.03252 =
         0.03733    0.00234    0.01324    0.00191
C65   1    0.741895    0.577525    0.112188    11.00000    0.03894    0.02484 =
         0.03158   -0.00245    0.01036    0.00193
AFIX  43
H42   2    0.722543    0.609254    0.119614    11.00000   -1.20000
AFIX   0
C66   1    0.834915    0.432928    0.082134    11.00000    0.03989    0.03281 =
         0.03236   -0.00522    0.00160    0.00841
C67   1    0.757349    0.397681    0.084674    11.00000    0.05430    0.03224 =
         0.05210   -0.00808    0.00552    0.00229
AFIX  33
H43   2    0.737107    0.401297    0.130903    11.00000   -1.50000
H44   2    0.706772    0.404451    0.044388    11.00000   -1.50000
H45   2    0.778622    0.364781    0.080355    11.00000   -1.50000
AFIX   0
C68   1    0.914337    0.421095    0.144689    11.00000    0.04446    0.04077 =
         0.05612   -0.00708   -0.00661    0.01444
AFIX  33
H46   2    0.895160    0.425345    0.191237    11.00000   -1.50000
H47   2    0.933285    0.387778    0.140192    11.00000   -1.50000
H48   2    0.965189    0.442619    0.142508    11.00000   -1.50000
AFIX   0
C69   1    0.864581    0.426347    0.009827    11.00000    0.07268    0.03798 =
         0.05048   -0.01008    0.02034    0.00980
AFIX  33
H49   2    0.914210    0.448561    0.007002    11.00000   -1.50000
H50   2    0.885246    0.393284    0.005934    11.00000   -1.50000
H51   2    0.813395    0.432955   -0.030032    11.00000   -1.50000
AFIX   0
C70   1    0.773852    0.604144   -0.011009    11.00000    0.10191    0.03712 =
         0.05500    0.01125    0.04627    0.01628
C71   1    0.746969    0.653457    0.011271    11.00000    0.39167    0.03750 =
         0.12407    0.03460    0.18064    0.05706
AFIX  33
H52   2    0.687611    0.651631    0.025093    11.00000   -1.50000
H53   2    0.792126    0.664916    0.052691    11.00000   -1.50000
H54   2    0.743779    0.675726   -0.029557    11.00000   -1.50000
AFIX   0
C72   1    0.702724    0.588615   -0.080408    11.00000    0.08138    0.10236 =
         0.04983    0.03707    0.01933    0.03313
AFIX  33
H55   2    0.718416    0.556730   -0.096139    11.00000   -1.50000
H56   2    0.642141    0.587658   -0.068703    11.00000   -1.50000
H57   2    0.703365    0.611795   -0.119558    11.00000   -1.50000
AFIX   0
C73   1    0.865604    0.605092   -0.032972    11.00000    0.10445    0.05215 =
         0.06457   -0.00059    0.04487   -0.02378
AFIX  33
H58   2    0.880986    0.572746   -0.047040    11.00000   -1.50000
H59   2    0.863356    0.626977   -0.074152    11.00000   -1.50000
H60   2    0.911703    0.616167    0.008096    11.00000   -1.50000
AFIX   0
C74   1    0.357291    0.482014    0.309046    11.00000    0.02418    0.02164 =
         0.02570   -0.00362    0.00142   -0.00249
C75   1    0.359120    0.441153    0.351835    11.00000    0.02343    0.02334 =
         0.02925    0.00004    0.00024    0.00118
C76   1    0.288387    0.407734    0.335419    11.00000    0.02614    0.01803 =
         0.03398    0.00021    0.00475   -0.00061
AFIX  43
H61   2    0.288834    0.380347    0.365614    11.00000   -1.20000
AFIX   0
C77   1    0.218108    0.413594    0.276513    11.00000    0.02628    0.02431 =
         0.02975   -0.00712    0.00402   -0.00304
C78   1    0.216593    0.455086    0.234626    11.00000    0.02965    0.03083 =
         0.02686   -0.00417   -0.00532   -0.00158
AFIX  43
H62   2    0.167596    0.460086    0.194917    11.00000   -1.20000
AFIX   0
C79   1    0.285203    0.489391    0.249600    11.00000    0.02968    0.02337 =
         0.02904   -0.00063   -0.00209   -0.00226
C80   1    0.434130    0.432458    0.416531    11.00000    0.03197    0.03232 =
         0.03906    0.00983   -0.00436   -0.00430
AFIX  33
H63   2    0.423536    0.401986    0.439532    11.00000   -1.50000
H64   2    0.492260    0.431083    0.400604    11.00000   -1.50000
H65   2    0.435400    0.458646    0.451553    11.00000   -1.50000
AFIX   0
C81   1    0.143984    0.376608    0.257237    11.00000    0.03096    0.03174 =
         0.03891   -0.00928    0.00285   -0.00771
AFIX  33
H66   2    0.100674    0.387155    0.214051    11.00000   -1.50000
H67   2    0.170518    0.345842    0.247185    11.00000   -1.50000
H68   2    0.112657    0.372825    0.297965    11.00000   -1.50000
AFIX   0
C82   1    0.281664    0.533000    0.201698    11.00000    0.03699    0.03447 =
         0.04335    0.01012   -0.01316   -0.00593
AFIX  33
H69   2    0.334433    0.553366    0.219466    11.00000   -1.50000
H70   2    0.282137    0.522914    0.151761    11.00000   -1.50000
H71   2    0.226120    0.551087    0.202709    11.00000   -1.50000
PART -1
AFIX   0
CL1   8    0.474902    0.549800    0.994714    10.50000    0.10416    0.22259 =
         0.08675   -0.07028   -0.01981    0.06134
CL2   8    0.503967    0.447935    0.998670    10.50000    0.06055    0.05962 =
         0.06689   -0.00759   -0.00271   -0.01054
C83   1    0.443935    0.496737    1.011297    10.50000    0.06158    0.09812 =
         0.04301   -0.00808    0.00285   -0.02700
AFIX  23
H72   2    0.382374    0.492139    0.981791    10.50000   -1.20000
H73   2    0.437660    0.496358    1.062811    10.50000   -1.20000
PART 0
AFIX   0
O9    4    0.295932    0.667953    0.269035    11.00000    0.26689    0.09186 =
         0.06571   -0.00629    0.03004    0.08057
C84   1    0.251499    0.696017    0.305382    11.00000    0.09461    0.07941 =
         0.04768   -0.01010   -0.00418    0.00056
PART 1
C86   1    0.124929    0.665375    0.411396    21.00000    0.03629    0.09382 =
         0.04919    0.01670    0.00855    0.02122
AFIX 137
H81   2    0.159762    0.654462    0.458290    21.00000   -1.50000
H82   2    0.060445    0.666503    0.413470    21.00000   -1.50000
H83   2    0.145412    0.697470    0.400678    21.00000   -1.50000
AFIX   0
O10   4    0.138282    0.632881    0.355687    21.00000    0.05725    0.10925 =
         0.10188    0.01807    0.01638   -0.02799
CL4   8    0.120234    0.633420    0.156772    20.50000    0.07516    0.12153 =
         0.09066   -0.04696    0.03747   -0.03443
PART 2
CL5   8    0.107749    0.586477    0.281398   -21.00000    0.19159    0.15043 =
         0.14592    0.03048    0.08572   -0.01612
PART 3
CL6   8    0.001250    0.658151    0.167222    20.50000    0.08316    0.11314 =
         0.13352    0.00212    0.01340    0.00199
PART 0
CL3   8    0.009389    0.553427    0.151242    11.00000    0.12245    0.21711 =
         0.15162   -0.03730    0.03565   -0.02721
C85   1    0.054485    0.602193    0.198055    11.00000    0.18047    0.28311 =
         0.21093   -0.10650    0.01587   -0.05192
PART 1
O11   4    0.009471    0.776697    0.242518    30.50000    0.03409
PART 3
O13   4    0.038215    0.787567    0.283388    30.50000    0.03265
C91   1   -0.010079    0.751681    0.230377    30.50000    0.02877
PART 2
O12   4   -0.053791    0.710272    0.211520   -31.00000    0.05952
C90   1   -0.067503    0.703069    0.144452   -31.00000    0.06721
PART 0

HKLF 4 1 1 0 0 0 1 0 0 0 1

REM  1117kf
REM R1 =  0.0809 for   11240 Fo > 4sig(Fo)  and  0.0941 for all   13707 data
REM   1005 parameters refined using     77 restraints

END

WGHT      0.1430     19.3656

REM Highest difference peak  1.673,  deepest hole -1.535,  1-sigma level  0.118
Q1    1   0.0709  0.7872  0.3133  11.00000  0.05    1.67
Q2    1   0.1596  0.7204  0.3835  11.00000  0.05    1.60
Q3    1   0.2380  0.6708  0.2132  11.00000  0.05    1.56
Q4    1  -0.0315  0.7324  0.2345  11.00000  0.05    1.31
Q5    1   0.0365  0.7410  0.2304  11.00000  0.05    1.26
Q6    1  -0.0626  0.7076  0.1771  11.00000  0.05    1.19
Q7    1   0.0021  0.7628  0.2173  11.00000  0.05    1.18
Q8    1   0.0763  0.7187  0.2450  11.00000  0.05    1.16
Q9    1   0.0226  0.7914  0.2564  11.00000  0.05    1.05
Q10   1   0.5364  0.6032  0.3633  11.00000  0.05    0.90
Q11   1   0.0962  0.6550  0.3177  11.00000  0.05    0.90
Q12   1   0.1890  0.6821  0.3227  11.00000  0.05    0.84
Q13   1  -0.0863  0.7000  0.1193  11.00000  0.05    0.79
Q14   1   0.6763  0.6003  0.3646  11.00000  0.05    0.76
Q15   1  -0.0503  0.6980  0.2319  11.00000  0.05    0.74
Q16   1   0.0569  0.5681  0.2250  11.00000  0.05    0.68
Q17   1   0.0840  0.5916  0.2115  11.00000  0.05    0.67
Q18   1   0.3722  0.6886  0.5201  11.00000  0.05    0.58
Q19   1   0.4167  0.5262  1.0116  11.00000  0.05    0.53
Q20   1   0.3402  0.5308  0.5817  11.00000  0.05    0.52
;
_shelx_res_checksum              41476
loop_
_space_group_symop_operation_xyz
'x, y, z'
'-x, y+1/2, -z+1/2'
'-x, -y, -z'
'x, -y-1/2, z-1/2'
loop_
_atom_site_label
_atom_site_type_symbol
_atom_site_fract_x
_atom_site_fract_y
_atom_site_fract_z
_atom_site_U_iso_or_equiv
_atom_site_adp_type
_atom_site_occupancy
_atom_site_site_symmetry_order
_atom_site_calc_flag
_atom_site_refinement_flags_posn
_atom_site_refinement_flags_adp
_atom_site_refinement_flags_occupancy
_atom_site_disorder_assembly
_atom_site_disorder_group
Ni1 Ni 0.60412(4) 0.60057(2) 0.36375(3) 0.02036(19) Uani 1 1 d . . . . .
N1 N 0.6328(2) 0.65278(11) 0.43317(17) 0.0214(7) Uani 1 1 d . . . . .
N2 N 0.7215(2) 0.60861(11) 0.33845(17) 0.0214(7) Uani 1 1 d . . . . .
N3 N 0.5746(2) 0.54882(11) 0.29405(17) 0.0229(7) Uani 1 1 d . . . . .
N4 N 0.4875(2) 0.59200(11) 0.39140(17) 0.0217(7) Uani 1 1 d . . . . .
N5 N 0.6077(2) 0.78150(12) 0.60414(18) 0.0242(7) Uani 1 1 d . . . . .
N6 N 0.2879(2) 0.59369(13) 0.56393(19) 0.0288(8) Uani 1 1 d . . . . .
O1 O 0.7134(2) 0.81010(11) 0.71528(17) 0.0334(7) Uani 1 1 d . . . . .
O2 O 0.74295(19) 0.73190(11) 0.66176(16) 0.0318(7) Uani 1 1 d . . . . .
O3 O 0.35168(19) 0.51099(11) 0.55212(18) 0.0350(7) Uani 1 1 d . . . . .
O4 O 0.2506(2) 0.52553(11) 0.63786(17) 0.0362(7) Uani 1 1 d . . . . .
O8 O 0.34057(18) 0.72972(10) 0.43073(16) 0.0293(6) Uani 1 1 d . . . . .
P1 P 0.40444(6) 0.70508(4) 0.49064(5) 0.0226(2) Uani 1 1 d . . . . .
S1 S 0.68119(6) 0.76582(4) 0.68173(5) 0.0267(2) Uani 1 1 d . . . . .
S2 S 0.27401(7) 0.53361(4) 0.56919(6) 0.0294(2) Uani 1 1 d . . . . .
C1 C 0.5734(2) 0.67663(13) 0.4671(2) 0.0211(8) Uani 1 1 d . . . . .
C2 C 0.6189(3) 0.71331(14) 0.5164(2) 0.0226(8) Uani 1 1 d . . . . .
C3 C 0.7081(3) 0.71150(14) 0.5106(2) 0.0237(8) Uani 1 1 d . . . . .
H1 H 0.7560 0.7305 0.5368 0.028 Uiso 1 1 calc R U . . .
C4 C 0.7156(2) 0.67548(14) 0.4577(2) 0.0235(8) Uani 1 1 d . . . . .
C5 C 0.7937(3) 0.66730(14) 0.4308(2) 0.0239(8) Uani 1 1 d . . . . .
C6 C 0.7938(3) 0.63616(14) 0.3730(2) 0.0240(8) Uani 1 1 d . . . . .
C7 C 0.8687(3) 0.63222(15) 0.3359(2) 0.0286(9) Uani 1 1 d . . . . .
H2 H 0.9263 0.6470 0.3497 0.034 Uiso 1 1 calc R U . . .
C8 C 0.8412(3) 0.60342(15) 0.2778(2) 0.0274(9) Uani 1 1 d . . . . .
H3 H 0.8756 0.5946 0.2425 0.033 Uiso 1 1 calc R U . . .
C9 C 0.7506(3) 0.58869(14) 0.2795(2) 0.0242(8) Uani 1 1 d . . . . .
C10 C 0.7025(3) 0.55580(14) 0.2303(2) 0.0232(8) Uani 1 1 d . . . . .
C11 C 0.6211(3) 0.53584(14) 0.2404(2) 0.0237(8) Uani 1 1 d . . . . .
C12 C 0.5757(3) 0.49730(15) 0.1975(2) 0.0272(9) Uani 1 1 d . . . . .
H4 H 0.5930 0.4829 0.1565 0.033 Uiso 1 1 calc R U . . .
C13 C 0.5032(3) 0.48525(15) 0.2266(2) 0.0278(9) Uani 1 1 d . . . . .
H5 H 0.4613 0.4601 0.2108 0.033 Uiso 1 1 calc R U . . .
C14 C 0.5018(3) 0.51753(14) 0.2856(2) 0.0243(8) Uani 1 1 d . . . . .
C15 C 0.4327(3) 0.51847(14) 0.3253(2) 0.0247(8) Uani 1 1 d . . . . .
C16 C 0.4285(3) 0.55367(14) 0.3761(2) 0.0248(8) Uani 1 1 d . . . . .
C17 C 0.3576(3) 0.55758(15) 0.4174(2) 0.0260(8) Uani 1 1 d . . . . .
H6 H 0.3094 0.5355 0.4168 0.031 Uiso 1 1 calc R U . . .
C88 C 0.3720(3) 0.59829(14) 0.4571(2) 0.0244(8) Uani 1 1 d . . . . .
C19 C 0.4502(2) 0.62049(14) 0.4360(2) 0.0226(8) Uani 1 1 d . . . . .
C20 C 0.4839(2) 0.66494(14) 0.4629(2) 0.0218(8) Uani 1 1 d . . . . .
C21 C 0.5683(3) 0.74371(14) 0.5569(2) 0.0234(8) Uani 1 1 d . . . . .
C22 C 0.4763(3) 0.74693(14) 0.5452(2) 0.0237(8) Uani 1 1 d . . . . .
C23 C 0.4526(3) 0.79113(14) 0.5781(2) 0.0248(8) Uani 1 1 d . . . . .
C24 C 0.5336(3) 0.81126(15) 0.6153(2) 0.0257(8) Uani 1 1 d . . . . .
C25 C 0.5353(3) 0.85390(15) 0.6532(2) 0.0311(9) Uani 1 1 d . . . . .
H7 H 0.5904 0.8668 0.6796 0.037 Uiso 1 1 calc R U . . .
C26 C 0.4535(3) 0.87704(16) 0.6510(3) 0.0348(10) Uani 1 1 d . . . . .
H8 H 0.4523 0.9061 0.6773 0.042 Uiso 1 1 calc R U . . .
C27 C 0.3728(3) 0.85871(16) 0.6112(3) 0.0329(10) Uani 1 1 d . . . . .
H9 H 0.3181 0.8760 0.6094 0.039 Uiso 1 1 calc R U . . .
C28 C 0.3708(3) 0.81575(15) 0.5741(2) 0.0291(9) Uani 1 1 d . . . . .
H10 H 0.3157 0.8034 0.5468 0.035 Uiso 1 1 calc R U . . .
C29 C 0.3362(3) 0.61840(14) 0.5178(2) 0.0250(8) Uani 1 1 d . . . . .
C30 C 0.3495(3) 0.66486(15) 0.5423(2) 0.0259(8) Uani 1 1 d . . . . .
C31 C 0.3078(3) 0.67079(16) 0.6043(2) 0.0285(9) Uani 1 1 d . . . . .
C32 C 0.2683(3) 0.62692(16) 0.6162(2) 0.0310(9) Uani 1 1 d . . . . .
C33 C 0.2191(4) 0.62139(18) 0.6714(3) 0.0413(11) Uani 1 1 d . . . . .
H11 H 0.1916 0.5916 0.6788 0.050 Uiso 1 1 calc R U . . .
C34 C 0.2116(4) 0.6603(2) 0.7145(3) 0.0476(13) Uani 1 1 d . . . . .
H12 H 0.1776 0.6573 0.7519 0.057 Uiso 1 1 calc R U . . .
C35 C 0.2527(4) 0.70413(18) 0.7049(3) 0.0422(11) Uani 1 1 d . . . . .
H13 H 0.2473 0.7303 0.7362 0.051 Uiso 1 1 calc R U . . .
C36 C 0.3014(3) 0.70965(16) 0.6500(2) 0.0322(9) Uani 1 1 d . . . . .
H14 H 0.3298 0.7393 0.6436 0.039 Uiso 1 1 calc R U . . .
C37 C 0.6112(3) 0.73676(15) 0.7332(2) 0.0283(9) Uani 1 1 d . . . . .
C38 C 0.5776(3) 0.76173(17) 0.7861(3) 0.0372(10) Uani 1 1 d . . . . .
H15 H 0.5926 0.7945 0.7957 0.045 Uiso 1 1 calc R U . . .
C39 C 0.5218(4) 0.73785(19) 0.8245(3) 0.0426(11) Uani 1 1 d . . . . .
H16 H 0.4976 0.7548 0.8603 0.051 Uiso 1 1 calc R U . . .
C40 C 0.5000(3) 0.68973(18) 0.8122(3) 0.0398(11) Uani 1 1 d . . . . .
C41 C 0.5331(4) 0.66626(17) 0.7582(3) 0.0444(12) Uani 1 1 d . . . . .
H17 H 0.5169 0.6337 0.7478 0.053 Uiso 1 1 calc R U . . .
C42 C 0.5890(3) 0.68891(16) 0.7190(3) 0.0373(10) Uani 1 1 d . . . . .
H18 H 0.6122 0.6720 0.6826 0.045 Uiso 1 1 calc R U . . .
C43 C 0.4401(4) 0.6643(2) 0.8569(3) 0.0574(15) Uani 1 1 d . . . . .
H19 H 0.4236 0.6867 0.8923 0.086 Uiso 1 1 calc R U . . .
H20 H 0.3851 0.6526 0.8247 0.086 Uiso 1 1 calc R U . . .
H21 H 0.4732 0.6371 0.8826 0.086 Uiso 1 1 calc R U . . .
C44 C 0.1799(3) 0.52258(15) 0.4992(2) 0.0288(9) Uani 1 1 d . . . . .
C45 C 0.1031(3) 0.55124(18) 0.4921(3) 0.0378(10) Uani 1 1 d . . . . .
H22 H 0.1008 0.5771 0.5247 0.045 Uiso 1 1 calc R U . . .
C46 C 0.0300(3) 0.54152(19) 0.4366(3) 0.0420(11) Uani 1 1 d . . . . .
H23 H -0.0231 0.5607 0.4316 0.050 Uiso 1 1 calc R U . . .
C47 C 0.0331(3) 0.50419(16) 0.3884(2) 0.0334(10) Uani 1 1 d . . . . .
C48 C 0.1099(3) 0.47644(16) 0.3966(3) 0.0344(10) Uani 1 1 d . . . . .
H24 H 0.1124 0.4511 0.3632 0.041 Uiso 1 1 calc R U . . .
C49 C 0.1839(3) 0.48450(16) 0.4526(3) 0.0344(10) Uani 1 1 d . . . . .
H25 H 0.2358 0.4644 0.4587 0.041 Uiso 1 1 calc R U . . .
C50 C -0.0452(4) 0.49365(19) 0.3265(3) 0.0445(12) Uani 1 1 d . . . . .
H26 H -0.0945 0.5164 0.3279 0.067 Uiso 1 1 calc R U . . .
H27 H -0.0251 0.4969 0.2801 0.067 Uiso 1 1 calc R U . . .
H28 H -0.0668 0.4609 0.3312 0.067 Uiso 1 1 calc R U . . .
C51 C 0.8773(3) 0.69654(15) 0.4592(2) 0.0250(8) Uani 1 1 d . . . . .
C52 C 0.9410(3) 0.68033(16) 0.5187(2) 0.0318(9) Uani 1 1 d . . . . .
C53 C 1.0195(3) 0.70748(19) 0.5424(3) 0.0509(14) Uani 1 1 d . . . . .
H29 H 1.0631 0.6967 0.5829 0.061 Uiso 1 1 calc R U . . .
C54 C 1.0350(4) 0.7496(2) 0.5080(4) 0.0602(17) Uani 1 1 d . . . . .
C55 C 0.9696(3) 0.76540(17) 0.4497(3) 0.0423(12) Uani 1 1 d . . . . .
H30 H 0.9793 0.7946 0.4262 0.051 Uiso 1 1 calc R U . . .
C56 C 0.8908(3) 0.73972(15) 0.4251(2) 0.0301(9) Uani 1 1 d . . . . .
C57 C 0.9264(3) 0.63507(17) 0.5573(3) 0.0374(10) Uani 1 1 d . . . . .
H31 H 0.9780 0.6296 0.5974 0.056 Uiso 1 1 calc R U . . .
H32 H 0.8708 0.6378 0.5768 0.056 Uiso 1 1 calc R U . . .
H33 H 0.9209 0.6081 0.5233 0.056 Uiso 1 1 calc R U . . .
C58 C 1.1232(5) 0.7773(3) 0.5314(6) 0.100(3) Uani 1 1 d . . . . .
H34 H 1.1221 0.8060 0.5012 0.150 Uiso 1 1 calc R U . . .
H35 H 1.1298 0.7868 0.5825 0.150 Uiso 1 1 calc R U . . .
H36 H 1.1743 0.7569 0.5257 0.150 Uiso 1 1 calc R U . . .
C59 C 0.8220(3) 0.75841(16) 0.3620(3) 0.0359(10) Uani 1 1 d . . . . .
H37 H 0.7706 0.7362 0.3515 0.054 Uiso 1 1 calc R U . . .
H38 H 0.8008 0.7900 0.3742 0.054 Uiso 1 1 calc R U . . .
H39 H 0.8499 0.7612 0.3192 0.054 Uiso 1 1 calc R U . . .
C60 C 0.7392(3) 0.54282(15) 0.1647(2) 0.0257(8) Uani 1 1 d . . . . .
C61 C 0.7706(3) 0.49642(15) 0.1546(2) 0.0263(8) Uani 1 1 d . . . . .
H40 H 0.7707 0.4728 0.1911 0.032 Uiso 1 1 calc R U . . .
C62 C 0.8015(3) 0.48455(16) 0.0919(2) 0.0292(9) Uani 1 1 d . . . . .
C63 C 0.8008(3) 0.51967(16) 0.0393(2) 0.0329(9) Uani 1 1 d . . . . .
H41 H 0.8202 0.5116 -0.0043 0.039 Uiso 1 1 calc R U . . .
C64 C 0.7725(3) 0.56660(17) 0.0487(3) 0.0379(10) Uani 1 1 d . . . . .
C65 C 0.7419(3) 0.57753(16) 0.1122(2) 0.0313(9) Uani 1 1 d . . . . .
H42 H 0.7225 0.6093 0.1196 0.038 Uiso 1 1 calc R U . . .
C66 C 0.8349(3) 0.43293(17) 0.0821(3) 0.0358(10) Uani 1 1 d . . . . .
C67 C 0.7573(4) 0.39768(18) 0.0847(3) 0.0469(12) Uani 1 1 d . . . . .
H43 H 0.7371 0.4013 0.1309 0.070 Uiso 1 1 calc R U . . .
H44 H 0.7068 0.4045 0.0444 0.070 Uiso 1 1 calc R U . . .
H45 H 0.7786 0.3648 0.0804 0.070 Uiso 1 1 calc R U . . .
C68 C 0.9143(4) 0.4211(2) 0.1447(3) 0.0494(13) Uani 1 1 d . . . . .
H46 H 0.8952 0.4253 0.1912 0.074 Uiso 1 1 calc R U . . .
H47 H 0.9333 0.3878 0.1402 0.074 Uiso 1 1 calc R U . . .
H48 H 0.9652 0.4426 0.1425 0.074 Uiso 1 1 calc R U . . .
C69 C 0.8646(4) 0.4263(2) 0.0098(3) 0.0526(14) Uani 1 1 d . . . . .
H49 H 0.9142 0.4486 0.0070 0.079 Uiso 1 1 calc R U . . .
H50 H 0.8852 0.3933 0.0059 0.079 Uiso 1 1 calc R U . . .
H51 H 0.8134 0.4330 -0.0300 0.079 Uiso 1 1 calc R U . . .
C70 C 0.7739(5) 0.6041(2) -0.0110(3) 0.0605(17) Uani 1 1 d . . . . .
C71 C 0.7470(12) 0.6535(3) 0.0113(6) 0.167(7) Uani 1 1 d . . . . .
H52 H 0.6876 0.6516 0.0251 0.250 Uiso 1 1 calc R U . . .
H53 H 0.7921 0.6649 0.0527 0.250 Uiso 1 1 calc R U . . .
H54 H 0.7438 0.6757 -0.0296 0.250 Uiso 1 1 calc R U . . .
C72 C 0.7027(5) 0.5886(3) -0.0804(4) 0.077(2) Uani 1 1 d . . . . .
H55 H 0.7184 0.5567 -0.0961 0.115 Uiso 1 1 calc R U . . .
H56 H 0.6421 0.5877 -0.0687 0.115 Uiso 1 1 calc R U . . .
H57 H 0.7034 0.6118 -0.1196 0.115 Uiso 1 1 calc R U . . .
C73 C 0.8656(5) 0.6051(2) -0.0330(4) 0.0699(19) Uani 1 1 d . . . . .
H58 H 0.8810 0.5727 -0.0470 0.105 Uiso 1 1 calc R U . . .
H59 H 0.8634 0.6270 -0.0742 0.105 Uiso 1 1 calc R U . . .
H60 H 0.9117 0.6162 0.0081 0.105 Uiso 1 1 calc R U . . .
C74 C 0.3573(3) 0.48201(14) 0.3090(2) 0.0243(8) Uani 1 1 d . . . . .
C75 C 0.3591(3) 0.44115(14) 0.3518(2) 0.0260(8) Uani 1 1 d . . . . .
C76 C 0.2884(3) 0.40773(14) 0.3354(2) 0.0262(8) Uani 1 1 d . . . . .
H61 H 0.2888 0.3803 0.3656 0.031 Uiso 1 1 calc R U . . .
C77 C 0.2181(3) 0.41359(15) 0.2765(2) 0.0270(8) Uani 1 1 d . . . . .
C78 C 0.2166(3) 0.45509(16) 0.2346(2) 0.0306(9) Uani 1 1 d . . . . .
H62 H 0.1676 0.4601 0.1949 0.037 Uiso 1 1 calc R U . . .
C79 C 0.2852(3) 0.48939(15) 0.2496(2) 0.0284(9) Uani 1 1 d . . . . .
C80 C 0.4341(3) 0.43246(17) 0.4165(3) 0.0360(10) Uani 1 1 d . . . . .
H63 H 0.4235 0.4020 0.4395 0.054 Uiso 1 1 calc R U . . .
H64 H 0.4923 0.4311 0.4006 0.054 Uiso 1 1 calc R U . . .
H65 H 0.4354 0.4586 0.4516 0.054 Uiso 1 1 calc R U . . .
C81 C 0.1440(3) 0.37661(16) 0.2572(3) 0.0344(10) Uani 1 1 d . . . . .
H66 H 0.1007 0.3872 0.2141 0.052 Uiso 1 1 calc R U . . .
H67 H 0.1705 0.3458 0.2472 0.052 Uiso 1 1 calc R U . . .
H68 H 0.1127 0.3728 0.2980 0.052 Uiso 1 1 calc R U . . .
C82 C 0.2817(3) 0.53300(17) 0.2017(3) 0.0412(11) Uani 1 1 d . . . . .
H69 H 0.3344 0.5534 0.2195 0.062 Uiso 1 1 calc R U . . .
H70 H 0.2821 0.5229 0.1518 0.062 Uiso 1 1 calc R U . . .
H71 H 0.2261 0.5511 0.2027 0.062 Uiso 1 1 calc R U . . .
Cl1 Cl 0.4749(7) 0.5498(4) 0.9947(6) 0.143(5) Uani 0.5 1 d D U P A -1
Cl2 Cl 0.5040(5) 0.4479(2) 0.9987(4) 0.0644(14) Uani 0.5 1 d D U P A -1
C83 C 0.4439(9) 0.4967(4) 1.0113(7) 0.069(4) Uani 0.5 1 d D U P A -1
H72 H 0.3824 0.4921 0.9818 0.082 Uiso 0.5 1 calc R U P A -1
H73 H 0.4377 0.4964 1.0628 0.082 Uiso 0.5 1 calc R U P A -1
O9 O 0.2959(7) 0.6680(2) 0.2690(3) 0.142(3) Uani 1 1 d D U . . .
C84 C 0.2515(6) 0.6960(3) 0.3054(4) 0.076(2) Uani 1 1 d D U . . .
C86 C 0.1249(6) 0.6654(5) 0.4114(6) 0.060(3) Uani 0.591(7) 1 d . U P B 1
H81 H 0.1598 0.6545 0.4583 0.090 Uiso 0.591(7) 1 calc R U P B 1
H82 H 0.0604 0.6665 0.4135 0.090 Uiso 0.591(7) 1 calc R U P B 1
H83 H 0.1454 0.6975 0.4007 0.090 Uiso 0.591(7) 1 calc R U P B 1
O10 O 0.1383(6) 0.6329(4) 0.3557(6) 0.089(3) Uani 0.591(7) 1 d . U P B 1
Cl4 Cl 0.1202(5) 0.6334(3) 0.1568(4) 0.093(3) Uani 0.296(4) 1 d D . P B 1
Cl5 Cl 0.1077(8) 0.5865(4) 0.2814(6) 0.155(4) Uani 0.409(7) 1 d D . P B 2
Cl6 Cl 0.0012(6) 0.6582(4) 0.1672(6) 0.111(3) Uani 0.296(4) 1 d D . P B 3
Cl3 Cl 0.0094(2) 0.55343(18) 0.1512(2) 0.1625(15) Uani 1 1 d D . . . .
C85 C 0.0545(10) 0.6022(4) 0.1981(7) 0.228(10) Uani 1 1 d D . . . .
O11 O 0.0095(7) 0.7767(4) 0.2425(6) 0.034(2) Uiso 0.317(5) 1 d . . P C 1
O13 O 0.0382(7) 0.7876(3) 0.2834(6) 0.033(2) Uiso 0.317(5) 1 d D . P C 3
C91 C -0.0101(9) 0.7517(6) 0.2304(7) 0.029(3) Uiso 0.317(5) 1 d D . P C 3
O12 O -0.0538(8) 0.7103(4) 0.2115(6) 0.060(4) Uiso 0.366(10) 1 d D U P C 2
C90 C -0.0675(13) 0.7031(7) 0.1445(11) 0.067(5) Uiso 0.366(10) 1 d D U P C 2
loop_
_atom_site_aniso_label
_atom_site_aniso_U_11
_atom_site_aniso_U_22
_atom_site_aniso_U_33
_atom_site_aniso_U_23
_atom_site_aniso_U_13
_atom_site_aniso_U_12
Ni1 0.0198(3) 0.0186(3) 0.0208(4) -0.0006(2) -0.0007(3) -0.0019(2)
N1 0.0215(15) 0.0198(16) 0.0210(17) 0.0010(12) -0.0008(12) -0.0015(12)
N2 0.0209(15) 0.0194(16) 0.0211(17) -0.0005(12) -0.0025(12) 0.0002(12)
N3 0.0253(16) 0.0198(16) 0.0210(17) 0.0020(12) -0.0016(13) -0.0015(13)
N4 0.0235(15) 0.0204(16) 0.0191(16) 0.0005(12) -0.0014(12) -0.0032(13)
N5 0.0223(16) 0.0226(17) 0.0257(18) -0.0030(13) -0.0004(13) 0.0002(13)
N6 0.0272(17) 0.0283(19) 0.0293(19) 0.0001(14) 0.0017(14) -0.0062(14)
O1 0.0295(15) 0.0320(16) 0.0344(17) -0.0085(13) -0.0042(12) -0.0051(12)
O2 0.0244(14) 0.0371(17) 0.0310(16) -0.0056(13) -0.0017(12) 0.0059(12)
O3 0.0272(15) 0.0339(17) 0.0418(18) 0.0101(13) 0.0017(13) 0.0020(12)
O4 0.0354(16) 0.0354(17) 0.0358(18) 0.0085(13) 0.0019(13) -0.0032(13)
O8 0.0255(14) 0.0283(15) 0.0302(16) 0.0016(12) -0.0041(11) 0.0012(12)
P1 0.0193(4) 0.0215(5) 0.0250(5) -0.0006(4) -0.0006(4) -0.0008(4)
S1 0.0227(5) 0.0279(5) 0.0266(5) -0.0054(4) -0.0025(4) 0.0003(4)
S2 0.0264(5) 0.0278(5) 0.0318(6) 0.0058(4) 0.0004(4) -0.0026(4)
C1 0.0223(18) 0.0196(19) 0.0192(19) 0.0029(14) -0.0010(14) -0.0017(14)
C2 0.0252(19) 0.0204(19) 0.0200(19) -0.0008(14) -0.0006(15) -0.0015(15)
C3 0.0205(18) 0.025(2) 0.024(2) -0.0016(15) -0.0010(15) -0.0037(15)
C4 0.0189(17) 0.023(2) 0.026(2) 0.0017(15) -0.0014(15) -0.0008(15)
C5 0.0217(18) 0.0219(19) 0.026(2) 0.0016(15) -0.0009(15) 0.0000(15)
C6 0.0221(18) 0.023(2) 0.026(2) 0.0038(15) 0.0017(15) 0.0013(15)
C7 0.0214(18) 0.029(2) 0.034(2) -0.0024(17) 0.0023(16) 0.0000(16)
C8 0.026(2) 0.026(2) 0.030(2) -0.0007(16) 0.0049(16) 0.0029(16)
C9 0.0253(19) 0.023(2) 0.023(2) 0.0012(15) 0.0005(15) 0.0012(15)
C10 0.0276(19) 0.0195(19) 0.020(2) 0.0002(14) -0.0017(15) 0.0020(15)
C11 0.0269(19) 0.0206(19) 0.020(2) 0.0002(14) -0.0029(15) 0.0004(15)
C12 0.031(2) 0.025(2) 0.022(2) -0.0041(15) -0.0018(16) -0.0018(16)
C13 0.033(2) 0.022(2) 0.025(2) -0.0034(16) -0.0028(16) -0.0047(16)
C14 0.0249(19) 0.0212(19) 0.024(2) 0.0000(15) -0.0020(15) -0.0014(15)
C15 0.0247(19) 0.0207(19) 0.025(2) 0.0040(15) -0.0040(15) -0.0032(15)
C16 0.0240(19) 0.023(2) 0.025(2) 0.0015(15) -0.0011(15) -0.0027(15)
C17 0.0201(18) 0.028(2) 0.027(2) 0.0007(16) -0.0025(15) -0.0056(15)
C88 0.0207(18) 0.025(2) 0.024(2) 0.0016(15) -0.0034(15) -0.0013(15)
C19 0.0200(17) 0.0218(19) 0.023(2) 0.0015(15) -0.0040(14) 0.0008(15)
C20 0.0212(17) 0.0199(19) 0.0214(19) 0.0019(14) -0.0022(14) 0.0002(15)
C21 0.0256(19) 0.0187(19) 0.024(2) -0.0002(15) 0.0014(15) -0.0037(15)
C22 0.0251(19) 0.0214(19) 0.023(2) 0.0000(15) 0.0000(15) -0.0016(15)
C23 0.0254(19) 0.0197(19) 0.028(2) 0.0026(15) 0.0031(16) -0.0008(15)
C24 0.0237(19) 0.025(2) 0.026(2) 0.0006(16) 0.0000(16) 0.0023(16)
C25 0.029(2) 0.026(2) 0.037(2) -0.0064(17) 0.0013(18) -0.0019(17)
C26 0.034(2) 0.025(2) 0.042(3) -0.0070(18) 0.0011(19) 0.0023(18)
C27 0.029(2) 0.026(2) 0.040(3) -0.0019(18) 0.0006(18) 0.0053(17)
C28 0.0241(19) 0.027(2) 0.032(2) 0.0003(17) -0.0025(17) 0.0018(16)
C29 0.0198(18) 0.025(2) 0.028(2) 0.0040(16) -0.0002(15) -0.0027(15)
C30 0.0214(18) 0.029(2) 0.025(2) 0.0015(16) -0.0001(15) -0.0017(16)
C31 0.0256(19) 0.030(2) 0.027(2) 0.0003(17) -0.0014(16) 0.0002(16)
C32 0.032(2) 0.035(2) 0.025(2) 0.0006(17) 0.0017(17) -0.0024(18)
C33 0.051(3) 0.036(3) 0.039(3) 0.001(2) 0.014(2) -0.009(2)
C34 0.062(3) 0.048(3) 0.037(3) 0.002(2) 0.022(2) -0.004(3)
C35 0.054(3) 0.038(3) 0.036(3) -0.008(2) 0.011(2) -0.003(2)
C36 0.038(2) 0.031(2) 0.027(2) 0.0001(17) 0.0036(18) -0.0024(18)
C37 0.031(2) 0.027(2) 0.024(2) -0.0032(16) -0.0007(16) 0.0018(17)
C38 0.044(3) 0.034(2) 0.034(3) -0.0115(19) 0.006(2) -0.005(2)
C39 0.050(3) 0.043(3) 0.037(3) -0.009(2) 0.012(2) 0.001(2)
C40 0.043(3) 0.041(3) 0.035(3) 0.006(2) 0.006(2) 0.004(2)
C41 0.059(3) 0.024(2) 0.052(3) 0.003(2) 0.018(3) 0.001(2)
C42 0.053(3) 0.024(2) 0.036(3) -0.0017(18) 0.010(2) 0.009(2)
C43 0.068(4) 0.052(3) 0.057(4) 0.010(3) 0.026(3) -0.001(3)
C44 0.026(2) 0.028(2) 0.030(2) 0.0021(17) 0.0018(17) -0.0029(16)
C45 0.033(2) 0.041(3) 0.037(3) -0.009(2) -0.0010(19) 0.005(2)
C46 0.033(2) 0.045(3) 0.043(3) -0.005(2) -0.004(2) 0.013(2)
C47 0.033(2) 0.035(2) 0.030(2) 0.0011(18) 0.0013(18) -0.0076(18)
C48 0.035(2) 0.028(2) 0.042(3) -0.0086(19) 0.0117(19) -0.0084(18)
C49 0.025(2) 0.024(2) 0.053(3) -0.0036(19) 0.0063(19) -0.0022(17)
C50 0.044(3) 0.044(3) 0.040(3) -0.004(2) -0.003(2) -0.004(2)
C51 0.0193(18) 0.025(2) 0.029(2) -0.0037(16) 0.0023(16) -0.0002(15)
C52 0.028(2) 0.031(2) 0.033(2) -0.0005(18) -0.0018(17) -0.0022(17)
C53 0.036(3) 0.044(3) 0.060(4) 0.010(2) -0.022(2) -0.010(2)
C54 0.033(3) 0.042(3) 0.092(5) 0.015(3) -0.023(3) -0.016(2)
C55 0.034(2) 0.027(2) 0.061(3) 0.007(2) -0.003(2) -0.0062(19)
C56 0.025(2) 0.027(2) 0.037(2) -0.0002(17) 0.0006(17) 0.0006(16)
C57 0.033(2) 0.038(3) 0.036(3) 0.007(2) -0.0054(19) -0.0037(19)
C58 0.054(4) 0.070(5) 0.147(8) 0.037(5) -0.048(5) -0.037(4)
C59 0.038(2) 0.027(2) 0.038(3) 0.0032(18) -0.0041(19) -0.0032(18)
C60 0.0237(19) 0.025(2) 0.026(2) -0.0053(16) -0.0008(15) -0.0016(16)
C61 0.0271(19) 0.025(2) 0.024(2) -0.0014(16) -0.0016(16) 0.0016(16)
C62 0.025(2) 0.031(2) 0.029(2) -0.0066(17) -0.0003(16) -0.0004(17)
C63 0.035(2) 0.034(2) 0.030(2) -0.0054(18) 0.0082(18) 0.0015(18)
C64 0.046(3) 0.033(2) 0.037(3) 0.0023(19) 0.013(2) 0.002(2)
C65 0.039(2) 0.025(2) 0.032(2) -0.0025(17) 0.0104(18) 0.0019(18)
C66 0.040(2) 0.033(2) 0.032(2) -0.0052(18) 0.0016(19) 0.0084(19)
C67 0.054(3) 0.032(3) 0.052(3) -0.008(2) 0.006(2) 0.002(2)
C68 0.044(3) 0.041(3) 0.056(3) -0.007(2) -0.007(2) 0.014(2)
C69 0.073(4) 0.038(3) 0.050(3) -0.010(2) 0.020(3) 0.010(3)
C70 0.102(5) 0.037(3) 0.055(4) 0.011(2) 0.046(4) 0.016(3)
C71 0.39(2) 0.038(4) 0.124(8) 0.035(4) 0.181(12) 0.057(7)
C72 0.081(5) 0.102(6) 0.050(4) 0.037(4) 0.019(3) 0.033(4)
C73 0.104(5) 0.052(4) 0.065(4) -0.001(3) 0.045(4) -0.024(4)
C74 0.0242(19) 0.0216(19) 0.026(2) -0.0036(15) 0.0014(16) -0.0025(15)
C75 0.0234(19) 0.023(2) 0.029(2) 0.0000(16) 0.0002(16) 0.0012(15)
C76 0.0261(19) 0.0180(19) 0.034(2) 0.0002(16) 0.0047(17) -0.0006(15)
C77 0.0263(19) 0.024(2) 0.030(2) -0.0071(16) 0.0040(16) -0.0030(16)
C78 0.030(2) 0.031(2) 0.027(2) -0.0042(17) -0.0053(17) -0.0016(17)
C79 0.030(2) 0.023(2) 0.029(2) -0.0006(16) -0.0021(17) -0.0023(16)
C80 0.032(2) 0.032(2) 0.039(3) 0.0098(19) -0.0044(19) -0.0043(18)
C81 0.031(2) 0.032(2) 0.039(3) -0.0093(19) 0.0028(18) -0.0077(18)
C82 0.037(2) 0.034(3) 0.043(3) 0.010(2) -0.013(2) -0.006(2)
Cl1 0.104(6) 0.223(10) 0.087(5) -0.070(5) -0.020(4) 0.061(6)
Cl2 0.061(3) 0.060(2) 0.067(3) -0.0076(18) -0.003(2) -0.0105(19)
C83 0.062(7) 0.098(9) 0.043(6) -0.008(6) 0.003(5) -0.027(7)
O9 0.267(9) 0.092(4) 0.066(4) -0.006(3) 0.030(5) 0.081(5)
C84 0.095(5) 0.079(5) 0.048(4) -0.010(3) -0.004(3) 0.001(4)
C86 0.036(5) 0.094(8) 0.049(6) 0.017(5) 0.009(4) 0.021(5)
O10 0.057(5) 0.109(7) 0.102(7) 0.018(6) 0.016(4) -0.028(5)
Cl4 0.075(4) 0.122(6) 0.091(5) -0.047(4) 0.037(3) -0.034(4)
Cl5 0.192(9) 0.150(7) 0.146(8) 0.030(6) 0.086(7) -0.016(6)
Cl6 0.083(5) 0.113(7) 0.134(7) 0.002(5) 0.013(5) 0.002(4)
Cl3 0.122(2) 0.217(4) 0.152(3) -0.037(3) 0.036(2) -0.027(3)
C85 0.180(18) 0.28(3) 0.21(2) -0.11(2) 0.016(15) -0.052(17)
loop_
_atom_type_symbol
_atom_type_description
_atom_type_scat_dispersion_real
_atom_type_scat_dispersion_imag
_atom_type_scat_source
C C 0.0181 0.0091 'International Tables Vol C Tables 4.2.6.8 and 6.1.1.4'
H H 0.0000 0.0000 'International Tables Vol C Tables 4.2.6.8 and 6.1.1.4'
N N 0.0311 0.0180 'International Tables Vol C Tables 4.2.6.8 and 6.1.1.4'
O O 0.0492 0.0322 'International Tables Vol C Tables 4.2.6.8 and 6.1.1.4'
Ni Ni -3.0029 0.5091 'International Tables Vol C Tables 4.2.6.8 and 6.1.1.4'
P P 0.2955 0.4335 'International Tables Vol C Tables 4.2.6.8 and 6.1.1.4'
S S 0.3331 0.5567 'International Tables Vol C Tables 4.2.6.8 and 6.1.1.4'
Cl Cl 0.3639 0.7018 'International Tables Vol C Tables 4.2.6.8 and 6.1.1.4'
loop_
_geom_angle_atom_site_label_1
_geom_angle_atom_site_label_2
_geom_angle_atom_site_label_3
_geom_angle
N2 Ni1 N3 91.12(14)
N2 Ni1 N4 178.67(14)
N3 Ni1 N4 89.41(14)
N2 Ni1 N1 89.12(13)
N3 Ni1 N1 179.51(14)
N4 Ni1 N1 90.36(13)
C1 N1 C4 104.5(3)
C1 N1 Ni1 126.6(3)
C4 N1 Ni1 128.9(3)
C9 N2 C6 104.7(3)
C9 N2 Ni1 126.8(3)
C6 N2 Ni1 128.5(3)
C11 N3 C14 104.8(3)
C11 N3 Ni1 127.1(3)
C14 N3 Ni1 128.1(3)
C19 N4 C16 104.7(3)
C19 N4 Ni1 126.9(3)
C16 N4 Ni1 128.2(3)
C21 N5 C24 106.0(3)
C21 N5 S1 117.5(3)
C24 N5 S1 114.5(3)
C29 N6 C32 107.9(3)
C29 N6 S2 126.9(3)
C32 N6 S2 124.0(3)
O8 P1 C22 111.15(18)
O8 P1 C30 113.44(18)
C22 P1 C30 113.23(19)
O8 P1 C20 115.88(18)
C22 P1 C20 102.29(18)
C30 P1 C20 99.97(19)
O1 S1 O2 120.46(18)
O1 S1 N5 105.22(18)
O2 S1 N5 107.00(17)
O1 S1 C37 110.1(2)
O2 S1 C37 109.3(2)
N5 S1 C37 103.23(18)
O4 S2 O3 119.83(19)
O4 S2 N6 105.39(19)
O3 S2 N6 108.04(18)
O4 S2 C44 110.04(19)
O3 S2 C44 109.4(2)
N6 S2 C44 102.69(19)
N1 C1 C20 125.6(4)
N1 C1 C2 111.5(3)
C20 C1 C2 122.5(4)
C3 C2 C21 133.4(4)
C3 C2 C1 105.7(3)
C21 C2 C1 120.8(3)
C2 C3 C4 107.0(3)
C2 C3 H1 126.5
C4 C3 H1 126.5
C5 C4 N1 124.9(4)
C5 C4 C3 123.8(4)
N1 C4 C3 111.1(3)
C4 C5 C6 121.2(4)
C4 C5 C51 119.5(4)
C6 C5 C51 119.0(3)
N2 C6 C5 126.2(4)
N2 C6 C7 110.5(3)
C5 C6 C7 123.1(4)
C8 C7 C6 106.9(4)
C8 C7 H2 126.6
C6 C7 H2 126.6
C7 C8 C9 107.0(4)
C7 C8 H3 126.5
C9 C8 H3 126.5
N2 C9 C10 125.9(4)
N2 C9 C8 110.9(3)
C10 C9 C8 123.1(4)
C11 C10 C9 121.9(4)
C11 C10 C60 119.7(3)
C9 C10 C60 118.4(4)
N3 C11 C10 125.4(3)
N3 C11 C12 110.5(3)
C10 C11 C12 124.0(4)
C13 C12 C11 107.1(4)
C13 C12 H4 126.5
C11 C12 H4 126.5
C12 C13 C14 107.0(4)
C12 C13 H5 126.5
C14 C13 H5 126.5
N3 C14 C15 125.8(4)
N3 C14 C13 110.7(3)
C15 C14 C13 123.5(4)
C16 C15 C14 121.6(4)
C16 C15 C74 118.9(4)
C14 C15 C74 119.4(4)
C15 C16 N4 125.3(4)
C15 C16 C17 124.4(4)
N4 C16 C17 110.1(3)
C88 C17 C16 107.7(3)
C88 C17 H6 126.1
C16 C17 H6 126.1
C17 C88 C19 105.0(4)
C17 C88 C29 135.0(4)
C19 C88 C29 119.4(3)
N4 C19 C20 125.4(4)
N4 C19 C88 112.1(3)
C20 C19 C88 122.5(4)
C1 C20 C19 120.9(4)
C1 C20 P1 122.7(3)
C19 C20 P1 116.4(3)
C22 C21 N5 109.6(3)
C22 C21 C2 125.2(4)
N5 C21 C2 124.0(3)
C21 C22 C23 108.3(3)
C21 C22 P1 122.3(3)
C23 C22 P1 129.1(3)
C24 C23 C28 120.1(4)
C24 C23 C22 106.9(3)
C28 C23 C22 132.9(4)
C25 C24 C23 121.9(4)
C25 C24 N5 129.3(4)
C23 C24 N5 108.7(3)
C24 C25 C26 117.3(4)
C24 C25 H7 121.3
C26 C25 H7 121.3
C25 C26 C27 121.5(4)
C25 C26 H8 119.3
C27 C26 H8 119.3
C28 C27 C26 121.2(4)
C28 C27 H9 119.4
C26 C27 H9 119.4
C27 C28 C23 117.8(4)
C27 C28 H10 121.1
C23 C28 H10 121.1
C30 C29 N6 108.2(4)
C30 C29 C88 124.7(4)
N6 C29 C88 127.1(4)
C29 C30 C31 108.7(4)
C29 C30 P1 117.5(3)
C31 C30 P1 133.6(3)
C36 C31 C32 119.8(4)
C36 C31 C30 132.9(4)
C32 C31 C30 107.3(4)
C33 C32 C31 121.4(4)
C33 C32 N6 130.8(4)
C31 C32 N6 107.9(4)
C34 C33 C32 117.9(5)
C34 C33 H11 121.0
C32 C33 H11 121.0
C33 C34 C35 121.7(5)
C33 C34 H12 119.2
C35 C34 H12 119.2
C36 C35 C34 120.4(5)
C36 C35 H13 119.8
C34 C35 H13 119.8
C35 C36 C31 118.8(4)
C35 C36 H14 120.6
C31 C36 H14 120.6
C42 C37 C38 120.8(4)
C42 C37 S1 118.9(3)
C38 C37 S1 120.3(3)
C39 C38 C37 118.5(4)
C39 C38 H15 120.7
C37 C38 H15 120.7
C38 C39 C40 121.7(4)
C38 C39 H16 119.1
C40 C39 H16 119.1
C41 C40 C39 118.2(5)
C41 C40 C43 121.5(5)
C39 C40 C43 120.2(5)
C42 C41 C40 121.6(5)
C42 C41 H17 119.2
C40 C41 H17 119.2
C41 C42 C37 119.2(4)
C41 C42 H18 120.4
C37 C42 H18 120.4
C40 C43 H19 109.5
C40 C43 H20 109.5
H19 C43 H20 109.5
C40 C43 H21 109.5
H19 C43 H21 109.5
H20 C43 H21 109.5
C49 C44 C45 121.2(4)
C49 C44 S2 118.5(3)
C45 C44 S2 120.3(3)
C46 C45 C44 118.9(4)
C46 C45 H22 120.6
C44 C45 H22 120.6
C45 C46 C47 120.9(4)
C45 C46 H23 119.6
C47 C46 H23 119.6
C48 C47 C46 119.1(4)
C48 C47 C50 119.2(4)
C46 C47 C50 121.7(4)
C47 C48 C49 121.6(4)
C47 C48 H24 119.2
C49 C48 H24 119.2
C44 C49 C48 118.2(4)
C44 C49 H25 120.9
C48 C49 H25 120.9
C47 C50 H26 109.5
C47 C50 H27 109.5
H26 C50 H27 109.5
C47 C50 H28 109.5
H26 C50 H28 109.5
H27 C50 H28 109.5
C52 C51 C56 120.4(4)
C52 C51 C5 120.1(4)
C56 C51 C5 119.5(4)
C51 C52 C53 118.9(4)
C51 C52 C57 121.3(4)
C53 C52 C57 119.9(4)
C54 C53 C52 121.4(5)
C54 C53 H29 119.3
C52 C53 H29 119.3
C53 C54 C55 118.6(4)
C53 C54 C58 120.9(5)
C55 C54 C58 120.5(5)
C56 C55 C54 121.7(5)
C56 C55 H30 119.2
C54 C55 H30 119.2
C55 C56 C51 119.1(4)
C55 C56 C59 119.7(4)
C51 C56 C59 121.3(4)
C52 C57 H31 109.5
C52 C57 H32 109.5
H31 C57 H32 109.5
C52 C57 H33 109.5
H31 C57 H33 109.5
H32 C57 H33 109.5
C54 C58 H34 109.5
C54 C58 H35 109.5
H34 C58 H35 109.5
C54 C58 H36 109.5
H34 C58 H36 109.5
H35 C58 H36 109.5
C56 C59 H37 109.5
C56 C59 H38 109.5
H37 C59 H38 109.5
C56 C59 H39 109.5
H37 C59 H39 109.5
H38 C59 H39 109.5
C65 C60 C61 119.2(4)
C65 C60 C10 119.1(4)
C61 C60 C10 121.7(4)
C62 C61 C60 120.9(4)
C62 C61 H40 119.6
C60 C61 H40 119.6
C63 C62 C61 118.5(4)
C63 C62 C66 121.9(4)
C61 C62 C66 119.5(4)
C62 C63 C64 122.0(4)
C62 C63 H41 119.0
C64 C63 H41 119.0
C65 C64 C63 118.2(4)
C65 C64 C70 121.9(4)
C63 C64 C70 119.9(4)
C60 C65 C64 121.1(4)
C60 C65 H42 119.5
C64 C65 H42 119.5
C69 C66 C67 108.0(4)
C69 C66 C68 109.5(4)
C67 C66 C68 108.7(4)
C69 C66 C62 112.2(4)
C67 C66 C62 108.9(4)
C68 C66 C62 109.4(4)
C66 C67 H43 109.5
C66 C67 H44 109.5
H43 C67 H44 109.5
C66 C67 H45 109.5
H43 C67 H45 109.5
H44 C67 H45 109.5
C66 C68 H46 109.5
C66 C68 H47 109.5
H46 C68 H47 109.5
C66 C68 H48 109.5
H46 C68 H48 109.5
H47 C68 H48 109.5
C66 C69 H49 109.5
C66 C69 H50 109.5
H49 C69 H50 109.5
C66 C69 H51 109.5
H49 C69 H51 109.5
H50 C69 H51 109.5
C71 C70 C73 111.5(7)
C71 C70 C64 112.0(5)
C73 C70 C64 110.7(5)
C71 C70 C72 107.6(8)
C73 C70 C72 106.7(5)
C64 C70 C72 108.2(5)
C70 C71 H52 109.5
C70 C71 H53 109.5
H52 C71 H53 109.5
C70 C71 H54 109.5
H52 C71 H54 109.5
H53 C71 H54 109.5
C70 C72 H55 109.5
C70 C72 H56 109.5
H55 C72 H56 109.5
C70 C72 H57 109.5
H55 C72 H57 109.5
H56 C72 H57 109.5
C70 C73 H58 109.5
C70 C73 H59 109.5
H58 C73 H59 109.5
C70 C73 H60 109.5
H58 C73 H60 109.5
H59 C73 H60 109.5
C75 C74 C79 120.1(4)
C75 C74 C15 120.4(3)
C79 C74 C15 119.5(4)
C74 C75 C76 119.3(4)
C74 C75 C80 121.6(4)
C76 C75 C80 119.1(4)
C77 C76 C75 121.7(4)
C77 C76 H61 119.1
C75 C76 H61 119.1
C76 C77 C78 118.3(4)
C76 C77 C81 121.6(4)
C78 C77 C81 120.1(4)
C79 C78 C77 121.7(4)
C79 C78 H62 119.2
C77 C78 H62 119.2
C78 C79 C74 118.9(4)
C78 C79 C82 119.7(4)
C74 C79 C82 121.4(4)
C75 C80 H63 109.5
C75 C80 H64 109.5
H63 C80 H64 109.5
C75 C80 H65 109.5
H63 C80 H65 109.5
H64 C80 H65 109.5
C77 C81 H66 109.5
C77 C81 H67 109.5
H66 C81 H67 109.5
C77 C81 H68 109.5
H66 C81 H68 109.5
H67 C81 H68 109.5
C79 C82 H69 109.5
C79 C82 H70 109.5
H69 C82 H70 109.5
C79 C82 H71 109.5
H69 C82 H71 109.5
H70 C82 H71 109.5
Cl1 C83 Cl2 122.5(10)
Cl1 C83 H72 106.7
Cl2 C83 H72 106.7
Cl1 C83 H73 106.7
Cl2 C83 H73 106.7
H72 C83 H73 106.6
O10 C86 H81 109.5
O10 C86 H82 109.5
H81 C86 H82 109.5
O10 C86 H83 109.5
H81 C86 H83 109.5
H82 C86 H83 109.5
Cl4 C85 Cl3 113.8(9)
Cl5 C85 Cl3 110.3(8)
Cl3 C85 Cl6 115.1(8)
loop_
_geom_bond_atom_site_label_1
_geom_bond_atom_site_label_2
_geom_bond_distance
Ni1 N2 1.932(3)
Ni1 N3 1.939(3)
Ni1 N4 1.941(3)
Ni1 N1 1.944(3)
N1 C1 1.369(5)
N1 C4 1.392(5)
N2 C9 1.384(5)
N2 C6 1.384(5)
N3 C11 1.384(5)
N3 C14 1.385(5)
N4 C19 1.354(5)
N4 C16 1.383(5)
N5 C21 1.429(5)
N5 C24 1.439(5)
N5 S1 1.703(3)
N6 C29 1.416(5)
N6 C32 1.422(6)
N6 S2 1.693(4)
O1 S1 1.426(3)
O2 S1 1.427(3)
O3 S2 1.420(3)
O4 S2 1.420(3)
O8 P1 1.495(3)
P1 C22 1.773(4)
P1 C30 1.788(4)
P1 C20 1.789(4)
S1 C37 1.761(4)
S2 C44 1.759(4)
C1 C20 1.374(5)
C1 C2 1.456(5)
C2 C3 1.369(6)
C2 C21 1.451(6)
C3 C4 1.433(6)
C3 H1 0.9500
C4 C5 1.388(6)
C5 C6 1.390(6)
C5 C51 1.506(5)
C6 C7 1.441(6)
C7 C8 1.352(6)
C7 H2 0.9500
C8 C9 1.432(6)
C8 H3 0.9500
C9 C10 1.398(6)
C10 C11 1.391(6)
C10 C60 1.491(6)
C11 C12 1.433(5)
C12 C13 1.355(6)
C12 H4 0.9500
C13 C14 1.431(6)
C13 H5 0.9500
C14 C15 1.395(6)
C15 C16 1.379(6)
C15 C74 1.509(5)
C16 C17 1.441(6)
C17 C88 1.351(6)
C17 H6 0.9500
C88 C19 1.452(5)
C88 C29 1.465(6)
C19 C20 1.395(5)
C21 C22 1.363(6)
C22 C23 1.453(6)
C23 C24 1.398(6)
C23 C28 1.399(6)
C24 C25 1.382(6)
C25 C26 1.385(6)
C25 H7 0.9500
C26 C27 1.392(6)
C26 H8 0.9500
C27 C28 1.382(6)
C27 H9 0.9500
C28 H10 0.9500
C29 C30 1.376(6)
C30 C31 1.438(6)
C31 C36 1.397(6)
C31 C32 1.397(6)
C32 C33 1.395(7)
C33 C34 1.370(7)
C33 H11 0.9500
C34 C35 1.399(7)
C34 H12 0.9500
C35 C36 1.385(7)
C35 H13 0.9500
C36 H14 0.9500
C37 C42 1.388(6)
C37 C38 1.387(6)
C38 C39 1.381(7)
C38 H15 0.9500
C39 C40 1.389(7)
C39 H16 0.9500
C40 C41 1.379(7)
C40 C43 1.523(7)
C41 C42 1.376(7)
C41 H17 0.9500
C42 H18 0.9500
C43 H19 0.9800
C43 H20 0.9800
C43 H21 0.9800
C44 C49 1.385(6)
C44 C45 1.390(6)
C45 C46 1.385(7)
C45 H22 0.9500
C46 C47 1.386(7)
C46 H23 0.9500
C47 C48 1.374(7)
C47 C50 1.512(6)
C48 C49 1.392(7)
C48 H24 0.9500
C49 H25 0.9500
C50 H26 0.9800
C50 H27 0.9800
C50 H28 0.9800
C51 C52 1.396(6)
C51 C56 1.396(6)
C52 C53 1.401(6)
C52 C57 1.493(6)
C53 C54 1.381(8)
C53 H29 0.9500
C54 C55 1.392(7)
C54 C58 1.525(7)
C55 C56 1.385(6)
C55 H30 0.9500
C56 C59 1.505(6)
C57 H31 0.9800
C57 H32 0.9800
C57 H33 0.9800
C58 H34 0.9800
C58 H35 0.9800
C58 H36 0.9800
C59 H37 0.9800
C59 H38 0.9800
C59 H39 0.9800
C60 C65 1.388(6)
C60 C61 1.403(6)
C61 C62 1.389(6)
C61 H40 0.9500
C62 C63 1.388(6)
C62 C66 1.547(6)
C63 C64 1.397(7)
C63 H41 0.9500
C64 C65 1.394(6)
C64 C70 1.536(7)
C65 H42 0.9500
C66 C69 1.521(7)
C66 C67 1.534(7)
C66 C68 1.538(7)
C67 H43 0.9800
C67 H44 0.9800
C67 H45 0.9800
C68 H46 0.9800
C68 H47 0.9800
C68 H48 0.9800
C69 H49 0.9800
C69 H50 0.9800
C69 H51 0.9800
C70 C71 1.515(9)
C70 C73 1.518(9)
C70 C72 1.575(11)
C71 H52 0.9800
C71 H53 0.9800
C71 H54 0.9800
C72 H55 0.9800
C72 H56 0.9800
C72 H57 0.9800
C73 H58 0.9800
C73 H59 0.9800
C73 H60 0.9800
C74 C75 1.391(6)
C74 C79 1.410(6)
C75 C76 1.403(6)
C75 C80 1.506(6)
C76 C77 1.381(6)
C76 H61 0.9500
C77 C78 1.396(6)
C77 C81 1.510(6)
C78 C79 1.395(6)
C78 H62 0.9500
C79 C82 1.507(6)
C80 H63 0.9800
C80 H64 0.9800
C80 H65 0.9800
C81 H66 0.9800
C81 H67 0.9800
C81 H68 0.9800
C82 H69 0.9800
C82 H70 0.9800
C82 H71 0.9800
Cl1 C83 1.600(13)
Cl2 C83 1.676(12)
C83 H72 0.9900
C83 H73 0.9900
O9 C84 1.306(10)
C86 O10 1.427(15)
C86 H81 0.9800
C86 H82 0.9800
C86 H83 0.9800
Cl4 C85 1.625(13)
Cl5 C85 1.670(11)
Cl6 C85 1.796(12)
Cl3 C85 1.687(11)
O13 C91 1.495(17)
O12 C90 1.25(2)
loop_
_geom_torsion_atom_site_label_1
_geom_torsion_atom_site_label_2
_geom_torsion_atom_site_label_3
_geom_torsion_atom_site_label_4
_geom_torsion
C21 N5 S1 O1 176.6(3)
C24 N5 S1 O1 -57.9(3)
C21 N5 S1 O2 47.4(3)
C24 N5 S1 O2 172.8(3)
C21 N5 S1 C37 -67.9(3)
C24 N5 S1 C37 57.5(3)
C29 N6 S2 O4 159.8(3)
C32 N6 S2 O4 -6.4(4)
C29 N6 S2 O3 30.6(4)
C32 N6 S2 O3 -135.7(3)
C29 N6 S2 C44 -85.0(4)
C32 N6 S2 C44 108.8(4)
C4 N1 C1 C20 -175.8(4)
Ni1 N1 C1 C20 6.2(5)
C4 N1 C1 C2 -2.8(4)
Ni1 N1 C1 C2 179.3(2)
N1 C1 C2 C3 0.8(4)
C20 C1 C2 C3 174.1(4)
N1 C1 C2 C21 178.6(3)
C20 C1 C2 C21 -8.0(6)
C21 C2 C3 C4 -175.9(4)
C1 C2 C3 C4 1.5(4)
C1 N1 C4 C5 -171.5(4)
Ni1 N1 C4 C5 6.3(6)
C1 N1 C4 C3 3.8(4)
Ni1 N1 C4 C3 -178.4(3)
C2 C3 C4 C5 172.0(4)
C2 C3 C4 N1 -3.4(5)
N1 C4 C5 C6 3.0(6)
C3 C4 C5 C6 -171.7(4)
N1 C4 C5 C51 176.3(4)
C3 C4 C5 C51 1.6(6)
C9 N2 C6 C5 172.6(4)
Ni1 N2 C6 C5 -5.6(6)
C9 N2 C6 C7 -1.4(4)
Ni1 N2 C6 C7 -179.7(3)
C4 C5 C6 N2 -3.4(6)
C51 C5 C6 N2 -176.8(4)
C4 C5 C6 C7 170.0(4)
C51 C5 C6 C7 -3.4(6)
N2 C6 C7 C8 1.7(5)
C5 C6 C7 C8 -172.6(4)
C6 C7 C8 C9 -1.2(5)
C6 N2 C9 C10 176.2(4)
Ni1 N2 C9 C10 -5.5(6)
C6 N2 C9 C8 0.6(4)
Ni1 N2 C9 C8 178.9(3)
C7 C8 C9 N2 0.4(5)
C7 C8 C9 C10 -175.3(4)
N2 C9 C10 C11 -6.3(6)
C8 C9 C10 C11 168.8(4)
N2 C9 C10 C60 172.4(4)
C8 C9 C10 C60 -12.5(6)
C14 N3 C11 C10 -176.2(4)
Ni1 N3 C11 C10 5.1(6)
C14 N3 C11 C12 1.5(4)
Ni1 N3 C11 C12 -177.1(3)
C9 C10 C11 N3 6.5(6)
C60 C10 C11 N3 -172.3(4)
C9 C10 C11 C12 -171.0(4)
C60 C10 C11 C12 10.3(6)
N3 C11 C12 C13 -2.4(5)
C10 C11 C12 C13 175.4(4)
C11 C12 C13 C14 2.2(5)
C11 N3 C14 C15 -176.3(4)
Ni1 N3 C14 C15 2.3(6)
C11 N3 C14 C13 -0.1(4)
Ni1 N3 C14 C13 178.5(3)
C12 C13 C14 N3 -1.4(5)
C12 C13 C14 C15 174.9(4)
N3 C14 C15 C16 3.3(6)
C13 C14 C15 C16 -172.4(4)
N3 C14 C15 C74 179.4(4)
C13 C14 C15 C74 3.7(6)
C14 C15 C16 N4 2.8(6)
C74 C15 C16 N4 -173.3(4)
C14 C15 C16 C17 178.1(4)
C74 C15 C16 C17 1.9(6)
C19 N4 C16 C15 171.3(4)
Ni1 N4 C16 C15 -14.4(6)
C19 N4 C16 C17 -4.6(4)
Ni1 N4 C16 C17 169.8(3)
C15 C16 C17 C88 -175.1(4)
N4 C16 C17 C88 0.8(5)
C16 C17 C88 C19 3.1(4)
C16 C17 C88 C29 -167.1(4)
C16 N4 C19 C20 -176.6(4)
Ni1 N4 C19 C20 8.9(6)
C16 N4 C19 C88 6.7(4)
Ni1 N4 C19 C88 -167.8(3)
C17 C88 C19 N4 -6.3(4)
C29 C88 C19 N4 165.7(3)
C17 C88 C19 C20 176.8(4)
C29 C88 C19 C20 -11.1(6)
N1 C1 C20 C19 14.7(6)
C2 C1 C20 C19 -157.7(4)
N1 C1 C20 P1 -165.0(3)
C2 C1 C20 P1 22.6(5)
N4 C19 C20 C1 -22.7(6)
C88 C19 C20 C1 153.7(4)
N4 C19 C20 P1 157.0(3)
C88 C19 C20 P1 -26.6(5)
O8 P1 C20 C1 103.5(3)
C22 P1 C20 C1 -17.6(4)
C30 P1 C20 C1 -134.2(3)
O8 P1 C20 C19 -76.2(3)
C22 P1 C20 C19 162.7(3)
C30 P1 C20 C19 46.1(3)
C24 N5 C21 C22 -5.5(4)
S1 N5 C21 C22 124.1(3)
C24 N5 C21 C2 162.8(4)
S1 N5 C21 C2 -67.6(5)
C3 C2 C21 C22 165.9(4)
C1 C2 C21 C22 -11.2(6)
C3 C2 C21 N5 -0.6(7)
C1 C2 C21 N5 -177.7(3)
N5 C21 C22 C23 6.9(5)
C2 C21 C22 C23 -161.2(4)
N5 C21 C22 P1 -178.6(3)
C2 C21 C22 P1 13.3(6)
O8 P1 C22 C21 -124.1(3)
C30 P1 C22 C21 106.9(4)
C20 P1 C22 C21 0.2(4)
O8 P1 C22 C23 49.2(4)
C30 P1 C22 C23 -79.8(4)
C20 P1 C22 C23 173.5(4)
C21 C22 C23 C24 -5.6(5)
P1 C22 C23 C24 -179.7(3)
C21 C22 C23 C28 169.3(4)
P1 C22 C23 C28 -4.7(7)
C28 C23 C24 C25 4.4(6)
C22 C23 C24 C25 -179.9(4)
C28 C23 C24 N5 -173.6(4)
C22 C23 C24 N5 2.2(4)
C21 N5 C24 C25 -175.9(4)
S1 N5 C24 C25 52.8(5)
C21 N5 C24 C23 1.9(4)
S1 N5 C24 C23 -129.4(3)
C23 C24 C25 C26 -2.0(7)
N5 C24 C25 C26 175.5(4)
C24 C25 C26 C27 -1.3(7)
C25 C26 C27 C28 2.2(7)
C26 C27 C28 C23 0.2(7)
C24 C23 C28 C27 -3.4(6)
C22 C23 C28 C27 -177.8(4)
C32 N6 C29 C30 2.4(4)
S2 N6 C29 C30 -165.7(3)
C32 N6 C29 C88 178.6(4)
S2 N6 C29 C88 10.6(6)
C17 C88 C29 C30 -168.3(4)
C19 C88 C29 C30 22.5(6)
C17 C88 C29 N6 16.0(7)
C19 C88 C29 N6 -153.1(4)
N6 C29 C30 C31 -1.1(4)
C88 C29 C30 C31 -177.5(4)
N6 C29 C30 P1 -177.0(3)
C88 C29 C30 P1 6.7(5)
O8 P1 C30 C29 87.7(3)
C22 P1 C30 C29 -144.4(3)
C20 P1 C30 C29 -36.3(3)
O8 P1 C30 C31 -86.8(4)
C22 P1 C30 C31 41.1(5)
C20 P1 C30 C31 149.2(4)
C29 C30 C31 C36 179.3(4)
P1 C30 C31 C36 -5.8(7)
C29 C30 C31 C32 -0.5(5)
P1 C30 C31 C32 174.3(3)
C36 C31 C32 C33 2.6(7)
C30 C31 C32 C33 -177.5(4)
C36 C31 C32 N6 -177.9(4)
C30 C31 C32 N6 2.0(5)
C29 N6 C32 C33 176.8(5)
S2 N6 C32 C33 -14.8(7)
C29 N6 C32 C31 -2.7(5)
S2 N6 C32 C31 165.8(3)
C31 C32 C33 C34 -0.9(7)
N6 C32 C33 C34 179.7(5)
C32 C33 C34 C35 -0.9(8)
C33 C34 C35 C36 1.1(9)
C34 C35 C36 C31 0.5(7)
C32 C31 C36 C35 -2.3(7)
C30 C31 C36 C35 177.8(5)
O1 S1 C37 C42 -166.2(3)
O2 S1 C37 C42 -31.7(4)
N5 S1 C37 C42 81.9(4)
O1 S1 C37 C38 15.0(4)
O2 S1 C37 C38 149.5(4)
N5 S1 C37 C38 -96.9(4)
C42 C37 C38 C39 0.2(7)
S1 C37 C38 C39 179.0(4)
C37 C38 C39 C40 1.0(8)
C38 C39 C40 C41 -2.3(8)
C38 C39 C40 C43 178.4(5)
C39 C40 C41 C42 2.4(8)
C43 C40 C41 C42 -178.3(5)
C40 C41 C42 C37 -1.3(8)
C38 C37 C42 C41 -0.1(7)
S1 C37 C42 C41 -178.9(4)
O4 S2 C44 C49 -114.2(4)
O3 S2 C44 C49 19.4(4)
N6 S2 C44 C49 134.0(4)
O4 S2 C44 C45 64.8(4)
O3 S2 C44 C45 -161.6(4)
N6 S2 C44 C45 -47.0(4)
C49 C44 C45 C46 -0.7(7)
S2 C44 C45 C46 -179.7(4)
C44 C45 C46 C47 -0.6(8)
C45 C46 C47 C48 0.6(8)
C45 C46 C47 C50 -178.7(5)
C46 C47 C48 C49 0.8(7)
C50 C47 C48 C49 -179.9(4)
C45 C44 C49 C48 2.0(7)
S2 C44 C49 C48 -178.9(3)
C47 C48 C49 C44 -2.1(7)
C4 C5 C51 C52 91.0(5)
C6 C5 C51 C52 -95.6(5)
C4 C5 C51 C56 -89.5(5)
C6 C5 C51 C56 84.0(5)
C56 C51 C52 C53 -1.6(7)
C5 C51 C52 C53 177.9(5)
C56 C51 C52 C57 178.0(4)
C5 C51 C52 C57 -2.5(6)
C51 C52 C53 C54 -0.1(9)
C57 C52 C53 C54 -179.8(6)
C52 C53 C54 C55 1.3(10)
C52 C53 C54 C58 -176.4(7)
C53 C54 C55 C56 -0.8(10)
C58 C54 C55 C56 176.9(7)
C54 C55 C56 C51 -0.9(8)
C54 C55 C56 C59 179.8(5)
C52 C51 C56 C55 2.1(7)
C5 C51 C56 C55 -177.4(4)
C52 C51 C56 C59 -178.6(4)
C5 C51 C56 C59 1.9(6)
C11 C10 C60 C65 112.0(4)
C9 C10 C60 C65 -66.8(5)
C11 C10 C60 C61 -67.6(5)
C9 C10 C60 C61 113.6(4)
C65 C60 C61 C62 -2.0(6)
C10 C60 C61 C62 177.6(4)
C60 C61 C62 C63 0.1(6)
C60 C61 C62 C66 -179.5(4)
C61 C62 C63 C64 1.8(6)
C66 C62 C63 C64 -178.5(4)
C62 C63 C64 C65 -1.8(7)
C62 C63 C64 C70 179.5(5)
C61 C60 C65 C64 2.0(6)
C10 C60 C65 C64 -177.6(4)
C63 C64 C65 C60 -0.2(7)
C70 C64 C65 C60 178.5(5)
C63 C62 C66 C69 -0.6(6)
C61 C62 C66 C69 179.0(4)
C63 C62 C66 C67 -120.2(5)
C61 C62 C66 C67 59.5(5)
C63 C62 C66 C68 121.1(5)
C61 C62 C66 C68 -59.2(5)
C65 C64 C70 C71 5.3(11)
C63 C64 C70 C71 -176.1(8)
C65 C64 C70 C73 130.3(5)
C63 C64 C70 C73 -51.1(7)
C65 C64 C70 C72 -113.1(6)
C63 C64 C70 C72 65.5(7)
C16 C15 C74 C75 -85.2(5)
C14 C15 C74 C75 98.6(5)
C16 C15 C74 C79 95.5(5)
C14 C15 C74 C79 -80.8(5)
C79 C74 C75 C76 -0.4(6)
C15 C74 C75 C76 -179.7(4)
C79 C74 C75 C80 -178.9(4)
C15 C74 C75 C80 1.7(6)
C74 C75 C76 C77 1.9(6)
C80 C75 C76 C77 -179.5(4)
C75 C76 C77 C78 -2.7(6)
C75 C76 C77 C81 177.6(4)
C76 C77 C78 C79 2.1(6)
C81 C77 C78 C79 -178.2(4)
C77 C78 C79 C74 -0.6(6)
C77 C78 C79 C82 178.5(4)
C75 C74 C79 C78 -0.2(6)
C15 C74 C79 C78 179.1(4)
C75 C74 C79 C82 -179.4(4)
C15 C74 C79 C82 0.0(6)
