#------------------------------------------------------------------------------
#$Date: 2017-10-07 05:07:13 +0300 (Sat, 07 Oct 2017) $
#$Revision: 201841 $
#$URL: file:///home/coder/svn-repositories/cod/cif/1/54/76/1547620.cif $
#------------------------------------------------------------------------------
#
# This file is available in the Crystallography Open Database (COD),
# http://www.crystallography.net/
#
# All data on this site have been placed in the public domain by the
# contributors.
#
data_1547620
loop_
_publ_author_name
'Osuka, Atsuhiro'
'Fujimoto, Keisuke'
_publ_section_title
;
 Effective stabilization of a planar phosphorus(III) center embedded in a
 porphyrin-based fused aromatic skeleton
;
_journal_name_full               'Chem. Sci.'
_journal_paper_doi               10.1039/C7SC03882H
_journal_year                    2017
_chemical_formula_moiety         'C68 H57 N4 Ni O P S2, 3.641(C Cl4)'
_chemical_formula_sum            'C71.65 H57 Cl14.59 N4 Ni O P S2'
_chemical_formula_weight         1660.94
_space_group_crystal_system      triclinic
_space_group_IT_number           2
_space_group_name_Hall           '-P 1'
_space_group_name_H-M_alt        'P -1'
_symmetry_space_group_name_Hall  '-P 1'
_symmetry_space_group_name_H-M   'P -1'
_atom_sites_solution_hydrogens   geom
_audit_creation_method           SHELXL-2014/7
_audit_update_record
;
2017-09-01 deposited with the CCDC.
2017-10-06 downloaded from the CCDC.
;
_cell_angle_alpha                96.635(3)
_cell_angle_beta                 103.033(7)
_cell_angle_gamma                104.706(2)
_cell_formula_units_Z            2
_cell_length_a                   14.070(3)
_cell_length_b                   15.707(3)
_cell_length_c                   18.170(3)
_cell_measurement_reflns_used    3219
_cell_measurement_temperature    93(2)
_cell_measurement_theta_max      68.2
_cell_measurement_theta_min      25.2
_cell_volume                     3719.8(12)
_computing_structure_refinement  'SHELXL-2014/7 (Sheldrick, 2014)'
_diffrn_ambient_temperature      93(2)
_diffrn_detector_area_resol_mean 5.8140
_diffrn_measured_fraction_theta_full 0.970
_diffrn_measured_fraction_theta_max 0.966
_diffrn_measurement_device_type  'Rigaku XtaLAB P200'
_diffrn_measurement_method       \w
_diffrn_radiation_type           CuK\a
_diffrn_radiation_wavelength     1.54187
_diffrn_reflns_av_R_equivalents  0.0669
_diffrn_reflns_av_unetI/netI     0.0552
_diffrn_reflns_Laue_measured_fraction_full 0.970
_diffrn_reflns_Laue_measured_fraction_max 0.966
_diffrn_reflns_limit_h_max       16
_diffrn_reflns_limit_h_min       -16
_diffrn_reflns_limit_k_max       18
_diffrn_reflns_limit_k_min       -18
_diffrn_reflns_limit_l_max       18
_diffrn_reflns_limit_l_min       -21
_diffrn_reflns_number            48771
_diffrn_reflns_point_group_measured_fraction_full 0.970
_diffrn_reflns_point_group_measured_fraction_max 0.966
_diffrn_reflns_theta_full        67.687
_diffrn_reflns_theta_max         68.491
_diffrn_reflns_theta_min         6.538
_exptl_absorpt_coefficient_mu    6.295
_exptl_absorpt_correction_T_max  1.000
_exptl_absorpt_correction_T_min  0.639
_exptl_absorpt_correction_type   multi-scan
_exptl_absorpt_process_details   'REQAB (Rigaku, 1998)'
_exptl_crystal_colour            Red
_exptl_crystal_density_diffrn    1.483
_exptl_crystal_description       Prism
_exptl_crystal_F_000             1692
_exptl_crystal_size_max          0.280
_exptl_crystal_size_mid          0.140
_exptl_crystal_size_min          0.010
_refine_diff_density_max         2.162
_refine_diff_density_min         -1.393
_refine_diff_density_rms         0.111
_refine_ls_extinction_method     none
_refine_ls_goodness_of_fit_ref   1.050
_refine_ls_hydrogen_treatment    constr
_refine_ls_matrix_type           full
_refine_ls_number_parameters     965
_refine_ls_number_reflns         13223
_refine_ls_number_restraints     150
_refine_ls_restrained_S_all      1.097
_refine_ls_R_factor_all          0.0847
_refine_ls_R_factor_gt           0.0674
_refine_ls_shift/su_max          0.002
_refine_ls_shift/su_mean         0.000
_refine_ls_structure_factor_coef Fsqd
_refine_ls_weighting_details
'w=1/[\s^2^(Fo^2^)+(0.1315P)^2^+2.7840P] where P=(Fo^2^+2Fc^2^)/3'
_refine_ls_weighting_scheme      calc
_refine_ls_wR_factor_gt          0.1875
_refine_ls_wR_factor_ref         0.1989
_reflns_Friedel_coverage         0.000
_reflns_number_gt                9994
_reflns_number_total             13223
_reflns_threshold_expression     'I > 2\s(I)'
_cod_data_source_file            c7sc03882h2.cif
_cod_data_source_block           1028kf
_cod_database_code               1547620
_shelx_shelxl_version_number     2014/7
_shelx_space_group_comment
;
The symmetry employed for this shelxl refinement is uniquely defined
by the following loop, which should always be used as a source of
symmetry information in preference to the above space-group names.
They are only intended as comments.
;
_shelx_estimated_absorpt_t_min   0.272
_shelx_estimated_absorpt_t_max   0.940
_shelx_res_file
;

    1028kf.res created by SHELXL-2014/7

TITL 1028kf
REM  Yadorkari-X generated
CELL 1.54187 14.0700 15.7070 18.1700 96.6350 103.0330 104.7060
ZERR 2.0 0.0030 0.0030 0.0030 0.0030 0.0070 0.0020
LATT 1
REM  SPGR P-1 triclinic
SFAC C H N O Ni P S Cl
UNIT 143.2944 114 8 2 2 2 4 29.1772
SIZE 0.28 0.14 0.01
TEMP -180.0
L.S. 10
FMAP 2
PLAN -20
ACTA
CONF
LIST 4
BOND $H
MERG 2
OMIT    2    3    1
OMIT    2    2    1
OMIT    2    2    2
OMIT    1    0    2
OMIT    3    0    2
OMIT    2    4    3
OMIT   -1    0    7
OMIT    3    1    1
OMIT    1    3    1
OMIT   -2    2    0
OMIT   -5    2    1
OMIT   -5    3    1
OMIT   -3   -6    4
OMIT    0    3    5
OMIT    3   -3    2
OMIT    1   -3    2

SADI 0.02 C73 Cl17 C73 Cl18 C73 Cl19 C73 Cl20
SADI 0.02 Cl17 Cl18 Cl17 Cl19 Cl17 Cl20 Cl18 Cl19 Cl18 Cl20 Cl19 Cl20
SADI 0.03 C74 Cl21 C74 Cl22 C74 Cl23 C74 Cl24
SADI 0.03 Cl21 Cl22 Cl21 Cl23 Cl21 Cl24 Cl22 Cl23 Cl22 Cl24 Cl23 Cl24
SIMU 0.01 C73 Cl17 Cl18 Cl19 Cl20
ISOR 0.01 C73 Cl17 Cl18 Cl19 Cl20
SIMU 0.02 C74 Cl21 Cl22 Cl23 Cl24
ISOR 0.02 C74 Cl21 Cl22 Cl23 Cl24

WGHT    0.131500    2.784000
FVAR       0.88043   0.64144
NI1   5    0.614577    0.478451    0.778509    11.00000    0.01647    0.01632 =
         0.02108    0.00931    0.00851    0.00608
P1    6    0.833673    0.275515    0.726473    11.00000    0.02074    0.01643 =
         0.02528    0.00969    0.01135    0.00663
N1    3    0.626914    0.366482    0.807007    11.00000    0.01703    0.01961 =
         0.02207    0.00916    0.00846    0.00592
N2    3    0.482801    0.453573    0.800452    11.00000    0.02072    0.01801 =
         0.01804    0.00787    0.00548    0.00705
N3    3    0.603201    0.591264    0.751465    11.00000    0.01763    0.02093 =
         0.02284    0.00907    0.00944    0.00718
N4    3    0.747022    0.503393    0.757449    11.00000    0.02102    0.01440 =
         0.02355    0.00775    0.00885    0.00659
O1    4    0.768965    0.208253    0.657375    11.00000    0.02885    0.02275 =
         0.02609    0.00461    0.01037    0.00609
S1    7    0.792900    0.141823    0.914429    11.00000    0.02914    0.02343 =
         0.03052    0.01612    0.01529    0.01179
S2    7    1.072883    0.484972    0.687532    11.00000    0.01907    0.01935 =
         0.03039    0.01026    0.01244    0.00660
C1    1    0.773613    0.355600    0.758615    11.00000    0.01680    0.01983 =
         0.02199    0.00837    0.00845    0.00717
C2    1    0.699344    0.326159    0.796099    11.00000    0.01985    0.01573 =
         0.01990    0.00328    0.00624    0.00548
C3    1    0.696850    0.251588    0.836233    11.00000    0.02286    0.01631 =
         0.02370    0.00615    0.00885    0.00535
C4    1    0.620415    0.246712    0.871403    11.00000    0.02427    0.01698 =
         0.02838    0.01162    0.01136    0.00533
AFIX  43
H1    2    0.601134    0.205686    0.903656    11.00000   -1.20000
AFIX   0
C5    1    0.574403    0.315289    0.850559    11.00000    0.02244    0.01783 =
         0.02162    0.00866    0.00712    0.00487
C6    1    0.485012    0.324544    0.866016    11.00000    0.02284    0.01858 =
         0.01973    0.00691    0.01042    0.00239
C7    1    0.440496    0.387884    0.837544    11.00000    0.01869    0.02272 =
         0.01678    0.00493    0.00626    0.00448
C8    1    0.339772    0.390428    0.840904    11.00000    0.01915    0.02438 =
         0.02797    0.01083    0.01220    0.00553
AFIX  43
H2    2    0.295602    0.352503    0.863907    11.00000   -1.20000
AFIX   0
C9    1    0.320483    0.457340    0.804916    11.00000    0.01515    0.02664 =
         0.02343    0.00709    0.00713    0.00697
AFIX  43
H3    2    0.259567    0.474737    0.797202    11.00000   -1.20000
AFIX   0
C10   1    0.409167    0.497203    0.780534    11.00000    0.01811    0.02238 =
         0.01601    0.00367    0.00494    0.00513
C11   1    0.423293    0.574756    0.749344    11.00000    0.01972    0.02589 =
         0.01824    0.00754    0.00617    0.01028
C12   1    0.517609    0.620082    0.739952    11.00000    0.02283    0.01948 =
         0.02003    0.00727    0.00821    0.01003
C13   1    0.540188    0.709204    0.722806    11.00000    0.02430    0.02584 =
         0.02691    0.01230    0.00985    0.01311
AFIX  43
H4    2    0.493823    0.743769    0.712807    11.00000   -1.20000
AFIX   0
C14   1    0.638936    0.734140    0.723623    11.00000    0.02870    0.02231 =
         0.03031    0.01432    0.01082    0.01139
AFIX  43
H5    2    0.675877    0.789815    0.714604    11.00000   -1.20000
AFIX   0
C15   1    0.678401    0.660486    0.740776    11.00000    0.02332    0.01740 =
         0.02407    0.00900    0.01021    0.00709
C16   1    0.777608    0.659900    0.741383    11.00000    0.02027    0.01978 =
         0.01977    0.00757    0.00793    0.00578
C17   1    0.808017    0.584055    0.747969    11.00000    0.01884    0.01753 =
         0.02088    0.00838    0.00735    0.00455
C18   1    0.902419    0.573228    0.735451    11.00000    0.01843    0.01888 =
         0.02686    0.01059    0.01017    0.00521
AFIX  43
H6    2    0.958108    0.619033    0.730319    11.00000   -1.20000
AFIX   0
C19   1    0.896471    0.484892    0.732398    11.00000    0.01751    0.02204 =
         0.01996    0.01048    0.00745    0.00629
C20   1    0.799710    0.442670    0.747131    11.00000    0.02047    0.01974 =
         0.01838    0.00617    0.00718    0.00797
C21   1    0.778735    0.209823    0.845507    11.00000    0.02625    0.01667 =
         0.02566    0.01025    0.00974    0.00621
C22   1    0.856473    0.223581    0.810311    11.00000    0.02540    0.01641 =
         0.02730    0.00852    0.01121    0.00566
C23   1    0.934495    0.183368    0.841762    11.00000    0.02645    0.01813 =
         0.02828    0.00916    0.00852    0.00844
C24   1    0.908412    0.135003    0.898868    11.00000    0.02875    0.01889 =
         0.02690    0.00846    0.00964    0.00697
C25   1    0.973142    0.093226    0.940176    11.00000    0.03627    0.02629 =
         0.03181    0.01632    0.01409    0.01340
AFIX  43
H7    2    0.953509    0.059944    0.977496    11.00000   -1.20000
AFIX   0
C26   1    1.067318    0.101556    0.925308    11.00000    0.03550    0.03965 =
         0.03905    0.02112    0.00933    0.02191
AFIX  43
H8    2    1.113005    0.073813    0.952948    11.00000   -1.20000
AFIX   0
C27   1    1.095566    0.150164    0.870287    11.00000    0.02930    0.04278 =
         0.03804    0.01748    0.01501    0.01802
AFIX  43
H9    2    1.160848    0.155933    0.861655    11.00000   -1.20000
AFIX   0
C28   1    1.030512    0.190078    0.828101    11.00000    0.02590    0.02752 =
         0.03068    0.01335    0.01263    0.00924
AFIX  43
H10   2    1.050399    0.221911    0.790047    11.00000   -1.20000
AFIX   0
C29   1    0.964148    0.434424    0.714455    11.00000    0.01873    0.02188 =
         0.02040    0.00935    0.00919    0.00764
C30   1    0.945572    0.342938    0.707528    11.00000    0.02051    0.01871 =
         0.02204    0.01012    0.00887    0.00796
C31   1    1.015812    0.310609    0.673181    11.00000    0.02164    0.02499 =
         0.02178    0.01242    0.01027    0.00919
C32   1    1.092056    0.381763    0.660989    11.00000    0.02268    0.02179 =
         0.01911    0.00899    0.00843    0.00898
C33   1    1.169753    0.366410    0.630315    11.00000    0.02248    0.02788 =
         0.02687    0.01197    0.01159    0.00913
AFIX  43
H11   2    1.221609    0.414941    0.623975    11.00000   -1.20000
AFIX   0
C34   1    1.169644    0.278872    0.609305    11.00000    0.02897    0.03256 =
         0.02759    0.01075    0.01447    0.01321
AFIX  43
H12   2    1.222597    0.266953    0.589140    11.00000   -1.20000
AFIX   0
C35   1    1.091391    0.207287    0.617660    11.00000    0.03662    0.02549 =
         0.03043    0.00946    0.01532    0.01613
AFIX  43
H13   2    1.091354    0.147536    0.601578    11.00000   -1.20000
AFIX   0
C36   1    1.014959    0.222087    0.648641    11.00000    0.02869    0.02203 =
         0.02997    0.01258    0.01404    0.00903
AFIX  43
H14   2    0.962319    0.173109    0.653374    11.00000   -1.20000
AFIX   0
C37   1    0.434555    0.261526    0.911473    11.00000    0.02188    0.02273 =
         0.03714    0.01664    0.01537    0.01117
C38   1    0.380603    0.172615    0.876152    11.00000    0.02830    0.02181 =
         0.05585    0.01225    0.02171    0.00960
C39   1    0.343733    0.113097    0.921841    11.00000    0.03011    0.02687 =
         0.08302    0.02586    0.02783    0.01144
AFIX  43
H15   2    0.308361    0.052550    0.898607    11.00000   -1.20000
AFIX   0
C40   1    0.357165    0.139655    1.000119    11.00000    0.03626    0.04752 =
         0.07981    0.04784    0.03522    0.02587
C41   1    0.405834    0.228908    1.032133    11.00000    0.03937    0.05871 =
         0.04731    0.03778    0.02643    0.02904
AFIX  43
H16   2    0.412682    0.248851    1.084969    11.00000   -1.20000
AFIX   0
C42   1    0.445291    0.290718    0.989015    11.00000    0.02544    0.03729 =
         0.03172    0.01927    0.01451    0.01568
C43   1    0.360568    0.141490    0.790372    11.00000    0.04337    0.03252 =
         0.06280   -0.01013    0.02289   -0.00178
AFIX  33
H17   2    0.391587    0.191392    0.767524    11.00000   -1.50000
H18   2    0.390271    0.092402    0.781498    11.00000   -1.50000
H19   2    0.286909    0.120579    0.766704    11.00000   -1.50000
AFIX   0
C44   1    0.320001    0.071753    1.047068    11.00000    0.05973    0.07641 =
         0.11041    0.07427    0.05155    0.03775
AFIX  33
H20   2    0.335301    0.101253    1.100679    11.00000   -1.50000
H21   2    0.246227    0.044949    1.026738    11.00000   -1.50000
H22   2    0.354287    0.024860    1.044346    11.00000   -1.50000
AFIX   0
C45   1    0.499507    0.386260    1.026870    11.00000    0.04499    0.04561 =
         0.02247    0.01099    0.00902    0.01359
AFIX  33
H23   2    0.499473    0.394165    1.081159    11.00000   -1.50000
H24   2    0.569932    0.401312    1.022883    11.00000   -1.50000
H25   2    0.464530    0.425715    1.001298    11.00000   -1.50000
AFIX   0
C46   1    0.339869    0.619651    0.733888    11.00000    0.01918    0.02183 =
         0.02691    0.01168    0.01038    0.00794
C47   1    0.318026    0.663176    0.795392    11.00000    0.02041    0.02736 =
         0.02426    0.01091    0.00885    0.00948
AFIX  43
H26   2    0.350408    0.658844    0.846116    11.00000   -1.20000
AFIX   0
C48   1    0.248388    0.714036    0.784242    11.00000    0.02384    0.02207 =
         0.03126    0.00776    0.01290    0.00821
C49   1    0.201521    0.717045    0.708572    11.00000    0.01785    0.02161 =
         0.03675    0.01283    0.00980    0.00841
AFIX  43
H27   2    0.154492    0.751152    0.699752    11.00000   -1.20000
AFIX   0
C50   1    0.221070    0.671774    0.645111    11.00000    0.01977    0.02555 =
         0.02971    0.01627    0.00923    0.00444
C51   1    0.292030    0.623551    0.658823    11.00000    0.01825    0.02558 =
         0.02478    0.00880    0.00928    0.00602
AFIX  43
H28   2    0.307783    0.593283    0.616858    11.00000   -1.20000
AFIX   0
C52   1    0.229686    0.762454    0.855384    11.00000    0.02795    0.03014 =
         0.03638    0.00196    0.01236    0.00953
C53   1    0.329884    0.827176    0.906366    11.00000    0.03290    0.04128 =
         0.04270    0.00201    0.01239    0.01018
AFIX  33
H29   2    0.317122    0.857791    0.951679    11.00000   -1.50000
H30   2    0.378488    0.793659    0.922720    11.00000   -1.50000
H31   2    0.358168    0.871500    0.877326    11.00000   -1.50000
AFIX   0
C54   1    0.185633    0.691809    0.900485    11.00000    0.05387    0.04048 =
         0.05049    0.00380    0.03616    0.00792
AFIX  33
H32   2    0.173212    0.721745    0.946263    11.00000   -1.50000
H33   2    0.121374    0.650656    0.867797    11.00000   -1.50000
H34   2    0.234313    0.658121    0.916064    11.00000   -1.50000
AFIX   0
C55   1    0.152286    0.814972    0.834317    11.00000    0.04056    0.04835 =
         0.05432   -0.00277    0.01116    0.02317
AFIX  33
H35   2    0.142680    0.844773    0.881382    11.00000   -1.50000
H36   2    0.177688    0.859976    0.804818    11.00000   -1.50000
H37   2    0.087050    0.773713    0.803296    11.00000   -1.50000
AFIX   0
C56   1    0.165887    0.677176    0.562783    11.00000    0.02588    0.04046 =
         0.03021    0.01961    0.00831    0.01231
C57   1    0.185465    0.613448    0.501736    11.00000    0.06988    0.13698 =
         0.02731    0.02096    0.01089    0.06661
AFIX  33
H38   2    0.163502    0.551993    0.510624    11.00000   -1.50000
H39   2    0.147051    0.617428    0.450702    11.00000   -1.50000
H40   2    0.258412    0.630003    0.504685    11.00000   -1.50000
AFIX   0
C58   1    0.199105    0.773480    0.550846    11.00000    0.06791    0.07793 =
         0.07712    0.06008   -0.01965   -0.01423
AFIX  33
H41   2    0.185796    0.813026    0.590654    11.00000   -1.50000
H42   2    0.272135    0.791001    0.554090    11.00000   -1.50000
H43   2    0.160774    0.778426    0.500108    11.00000   -1.50000
AFIX   0
C59   1    0.050018    0.649892    0.553181    11.00000    0.02855    0.05235 =
         0.03976    0.01174    0.00344    0.01128
AFIX  33
H44   2    0.027226    0.587936    0.560687    11.00000   -1.50000
H45   2    0.034126    0.689606    0.591330    11.00000   -1.50000
H46   2    0.014968    0.654772    0.501416    11.00000   -1.50000
AFIX   0
C60   1    0.847916    0.742341    0.726557    11.00000    0.02040    0.01870 =
         0.03281    0.01289    0.01028    0.00937
C61   1    0.864779    0.743496    0.653401    11.00000    0.03089    0.02721 =
         0.03586    0.01717    0.01658    0.01383
C62   1    0.930577    0.820822    0.641304    11.00000    0.05047    0.03558 =
         0.05738    0.02938    0.03630    0.01871
AFIX  43
H47   2    0.943234    0.821917    0.592177    11.00000   -1.20000
AFIX   0
C63   1    0.977798    0.895764    0.698681    11.00000    0.04602    0.02456 =
         0.07702    0.02046    0.03295    0.00528
C64   1    0.955072    0.894114    0.768816    11.00000    0.03777    0.01802 =
         0.05559    0.00865    0.01661    0.00418
AFIX  43
H48   2    0.982933    0.946403    0.807573    11.00000   -1.20000
AFIX   0
C65   1    0.892185    0.817543    0.784208    11.00000    0.02764    0.01998 =
         0.04100    0.01186    0.01409    0.00916
C66   1    0.811320    0.665763    0.587745    11.00000    0.03665    0.04112 =
         0.03487    0.01723    0.01524    0.01750
AFIX  33
H49   2    0.768502    0.617450    0.605770    11.00000   -1.50000
H50   2    0.768642    0.685270    0.546465    11.00000   -1.50000
H51   2    0.862060    0.644033    0.568312    11.00000   -1.50000
AFIX   0
C67   1    1.051516    0.978794    0.684702    11.00000    0.08570    0.04283 =
         0.10721    0.03619    0.05098   -0.00406
AFIX  33
H52   2    1.058414    0.967947    0.632219    11.00000   -1.50000
H53   2    1.024944    1.030280    0.691535    11.00000   -1.50000
H54   2    1.118318    0.991237    0.721413    11.00000   -1.50000
AFIX   0
C68   1    0.875867    0.818947    0.863209    11.00000    0.04658    0.03008 =
         0.03993    0.00378    0.01231    0.00370
AFIX  33
H55   2    0.913354    0.877757    0.895259    11.00000   -1.50000
H56   2    0.803014    0.807401    0.859591    11.00000   -1.50000
H57   2    0.900590    0.772597    0.886302    11.00000   -1.50000
AFIX   0
C69   1    0.865131    0.573780    1.004288    11.00000    0.03836    0.04565 =
         0.02884    0.01097    0.00919    0.01411
CL1   8    0.906268    0.575002    1.103580    11.00000    0.05271    0.04482 =
         0.02756    0.01014    0.00833    0.01411
CL2   8    0.767421    0.624118    0.984376    11.00000    0.08732    0.17189 =
         0.06307    0.06128    0.04208    0.09645
CL3   8    0.968310    0.639499    0.976195    11.00000    0.06256    0.12493 =
         0.07898    0.06096    0.03626    0.01686
CL4   8    0.832044    0.465699    0.953289    11.00000    0.15885    0.04695 =
         0.04940   -0.00281   -0.03221    0.01211
PART 1
C70   1    0.444248    0.025575    0.306215    21.00000    0.08840    0.02647 =
         0.05506    0.01475    0.04773    0.01931
CL5   8    0.495794    0.109902    0.390049    21.00000    0.05211    0.02304 =
         0.07121    0.00474    0.00974    0.00458
CL6   8    0.433978   -0.077736    0.328020    21.00000    0.10593    0.04331 =
         0.12358   -0.00632    0.00758   -0.01380
CL7   8    0.317777    0.023530    0.266665    21.00000    0.08640    0.03750 =
         0.05638    0.00406    0.00031    0.01560
CL8   8    0.509705    0.050008    0.236354    21.00000    0.13618    0.10316 =
         0.09114    0.04763    0.08368    0.05103
C71   1    0.471150   -0.367121    0.445761    21.00000    0.02623    0.03310 =
         0.02390    0.00277    0.00781    0.00043
CL9   8    0.410030   -0.290906    0.405710    21.00000    0.07047    0.04761 =
         0.03294    0.01699   -0.00275    0.01266
CL10  8    0.380949   -0.472517    0.430631    21.00000    0.03801    0.02860 =
         0.03540    0.00389    0.00441    0.00202
CL11  8    0.525805   -0.327231    0.545232    21.00000    0.03438    0.03042 =
         0.02053   -0.00123    0.00244    0.00898
CL12  8    0.568007   -0.378254    0.400827    21.00000    0.02855    0.11575 =
         0.03942   -0.01287    0.01759    0.00209
C72   1    0.773696   -0.028918    0.504047    21.00000    0.14247    0.08182 =
         0.06600    0.01902    0.06492    0.07703
CL13  8    0.894276   -0.014857    0.514066    21.00000    0.06191    0.04735 =
         0.08405   -0.00116    0.03264    0.01115
CL14  8    0.738764    0.049902    0.556653    21.00000    0.07663    0.04245 =
         0.07628    0.01568    0.04321    0.02472
CL15  8    0.713413   -0.140207    0.527011    21.00000    0.08356    0.04151 =
         0.12928    0.00913    0.05233    0.01765
CL16  8    0.709817   -0.042354    0.403197    21.00000    0.08459    0.13580 =
         0.06872   -0.00479    0.00102    0.04255
PART 2
C73   1    0.529046    0.021476    0.347436   -21.00000    0.11153    0.09546 =
         0.11956    0.01141    0.05309    0.03343
CL17  8    0.549198    0.067379    0.271311   -21.00000    0.16862    0.07339 =
         0.11475    0.04363    0.06946    0.07071
CL18  8    0.506322    0.095948    0.409318   -21.00000    0.09906    0.07980 =
         0.16085   -0.00044    0.08266    0.02099
CL19  8    0.448069   -0.080312    0.328706   -21.00000    0.11983    0.02898 =
         0.07075    0.03647    0.06574    0.04220
CL20  8    0.635222   -0.008393    0.385055   -21.00000    0.07974    0.11224 =
         0.13642   -0.01858    0.01516    0.02249
C74   1    0.521813   -0.310515    0.454632   -21.00000    0.05077    0.09680 =
         0.05949    0.00930    0.01937    0.02960
CL21  8    0.630745   -0.221085    0.500639   -21.00000    0.04770    0.07582 =
         0.16102   -0.04762    0.00890    0.01606
CL22  8    0.495021   -0.371551    0.526566   -21.00000    0.09648    0.20729 =
         0.11078    0.10209    0.06186    0.09682
CL23  8    0.549049   -0.377706    0.386372   -21.00000    0.05384    0.10768 =
         0.05986   -0.04109   -0.00225    0.02532
CL24  8    0.415164   -0.274976    0.417608   -21.00000    0.04028    0.08685 =
         0.04464    0.01301    0.01130    0.02784
PART 0

HKLF 4 1 1 0 0 0 1 0 0 0 1

REM  1028kf
REM R1 =  0.0674 for    9994 Fo > 4sig(Fo)  and  0.0847 for all   13223 data
REM    965 parameters refined using    150 restraints

END

WGHT      0.1344      1.5440

REM Highest difference peak  2.162,  deepest hole -1.393,  1-sigma level  0.111
Q1    1   0.9386  0.5780  0.9467  11.00000  0.05    2.16
Q2    1   0.7620  0.4675  0.9755  11.00000  0.05    1.50
Q3    1   0.8386 -0.0143  0.4687  11.00000  0.05    1.29
Q4    1   0.7726  0.0050  0.5946  11.00000  0.05    1.10
Q5    1   0.7344  0.5679  0.9881  11.00000  0.05    1.08
Q6    1   0.3756  0.0183  0.2558  11.00000  0.05    0.96
Q7    1   0.8398 -0.0036  0.5378  11.00000  0.05    0.87
Q8    1   0.6794  0.0264  0.5084  11.00000  0.05    0.85
Q9    1   0.8597  0.4702  0.9585  11.00000  0.05    0.80
Q10   1   0.6594  0.4559  0.8148  11.00000  0.05    0.70
Q11   1   0.5755  0.5053  0.7464  11.00000  0.05    0.69
Q12   1   0.4870 -0.0152  0.1842  11.00000  0.05    0.69
Q13   1   0.5587 -0.2777  0.5362  11.00000  0.05    0.68
Q14   1   0.5164 -0.0665  0.3554  11.00000  0.05    0.64
Q15   1   0.6405  0.5371  0.7748  11.00000  0.05    0.62
Q16   1   1.0026  0.6213  1.0101  11.00000  0.05    0.58
Q17   1   0.8382  0.6129  0.6039  11.00000  0.05    0.55
Q18   1   0.0868  0.7172  0.5547  11.00000  0.05    0.55
Q19   1   0.6160  0.5262  0.7647  11.00000  0.05    0.54
Q20   1   0.3172  0.0764  0.7705  11.00000  0.05    0.53
;
_shelx_res_checksum              96899
loop_
_space_group_symop_operation_xyz
'x, y, z'
'-x, -y, -z'
loop_
_atom_site_label
_atom_site_type_symbol
_atom_site_fract_x
_atom_site_fract_y
_atom_site_fract_z
_atom_site_U_iso_or_equiv
_atom_site_adp_type
_atom_site_occupancy
_atom_site_site_symmetry_order
_atom_site_calc_flag
_atom_site_refinement_flags_posn
_atom_site_refinement_flags_adp
_atom_site_refinement_flags_occupancy
_atom_site_disorder_assembly
_atom_site_disorder_group
Ni1 Ni 0.61458(4) 0.47845(4) 0.77851(4) 0.01661(17) Uani 1 1 d . . . . .
P1 P 0.83367(7) 0.27552(6) 0.72647(6) 0.0192(2) Uani 1 1 d . . . . .
N1 N 0.6269(2) 0.36648(19) 0.80701(18) 0.0184(6) Uani 1 1 d . . . . .
N2 N 0.4828(2) 0.45357(19) 0.80045(18) 0.0182(6) Uani 1 1 d . . . . .
N3 N 0.6032(2) 0.5913(2) 0.75147(18) 0.0190(7) Uani 1 1 d . . . . .
N4 N 0.7470(2) 0.50339(19) 0.75745(19) 0.0185(6) Uani 1 1 d . . . . .
O1 O 0.7690(2) 0.20825(17) 0.65737(16) 0.0256(6) Uani 1 1 d . . . . .
S1 S 0.79290(7) 0.14182(6) 0.91443(6) 0.0247(2) Uani 1 1 d . . . . .
S2 S 1.07288(6) 0.48497(6) 0.68753(6) 0.0213(2) Uani 1 1 d . . . . .
C1 C 0.7736(3) 0.3556(2) 0.7586(2) 0.0182(7) Uani 1 1 d . . . . .
C2 C 0.6993(3) 0.3262(2) 0.7961(2) 0.0183(7) Uani 1 1 d . . . . .
C3 C 0.6968(3) 0.2516(2) 0.8362(2) 0.0204(8) Uani 1 1 d . . . . .
C4 C 0.6204(3) 0.2467(2) 0.8714(2) 0.0220(8) Uani 1 1 d . . . . .
H1 H 0.6011 0.2057 0.9037 0.026 Uiso 1 1 calc R U . . .
C5 C 0.5744(3) 0.3153(2) 0.8506(2) 0.0202(8) Uani 1 1 d . . . . .
C6 C 0.4850(3) 0.3245(2) 0.8660(2) 0.0200(8) Uani 1 1 d . . . . .
C7 C 0.4405(3) 0.3879(2) 0.8375(2) 0.0193(8) Uani 1 1 d . . . . .
C8 C 0.3398(3) 0.3904(3) 0.8409(2) 0.0225(8) Uani 1 1 d . . . . .
H2 H 0.2956 0.3525 0.8639 0.027 Uiso 1 1 calc R U . . .
C9 C 0.3205(3) 0.4573(2) 0.8049(2) 0.0210(8) Uani 1 1 d . . . . .
H3 H 0.2596 0.4747 0.7972 0.025 Uiso 1 1 calc R U . . .
C10 C 0.4092(3) 0.4972(2) 0.7805(2) 0.0189(7) Uani 1 1 d . . . . .
C11 C 0.4233(3) 0.5748(2) 0.7493(2) 0.0201(8) Uani 1 1 d . . . . .
C12 C 0.5176(3) 0.6201(2) 0.7400(2) 0.0193(8) Uani 1 1 d . . . . .
C13 C 0.5402(3) 0.7092(3) 0.7228(2) 0.0234(8) Uani 1 1 d . . . . .
H4 H 0.4938 0.7438 0.7128 0.028 Uiso 1 1 calc R U . . .
C14 C 0.6389(3) 0.7341(3) 0.7236(2) 0.0250(9) Uani 1 1 d . . . . .
H5 H 0.6759 0.7898 0.7146 0.030 Uiso 1 1 calc R U . . .
C15 C 0.6784(3) 0.6605(2) 0.7408(2) 0.0203(8) Uani 1 1 d . . . . .
C16 C 0.7776(3) 0.6599(2) 0.7414(2) 0.0192(8) Uani 1 1 d . . . . .
C17 C 0.8080(3) 0.5841(2) 0.7480(2) 0.0185(8) Uani 1 1 d . . . . .
C18 C 0.9024(3) 0.5732(2) 0.7355(2) 0.0202(8) Uani 1 1 d . . . . .
H6 H 0.9581 0.6190 0.7303 0.024 Uiso 1 1 calc R U . . .
C19 C 0.8965(3) 0.4849(2) 0.7324(2) 0.0187(8) Uani 1 1 d . . . . .
C20 C 0.7997(3) 0.4427(2) 0.7471(2) 0.0186(8) Uani 1 1 d . . . . .
C21 C 0.7787(3) 0.2098(2) 0.8455(2) 0.0218(8) Uani 1 1 d . . . . .
C22 C 0.8565(3) 0.2236(2) 0.8103(2) 0.0220(8) Uani 1 1 d . . . . .
C23 C 0.9345(3) 0.1834(2) 0.8418(2) 0.0233(8) Uani 1 1 d . . . . .
C24 C 0.9084(3) 0.1350(2) 0.8989(2) 0.0241(8) Uani 1 1 d . . . . .
C25 C 0.9731(3) 0.0932(3) 0.9402(3) 0.0288(9) Uani 1 1 d . . . . .
H7 H 0.9535 0.0599 0.9775 0.035 Uiso 1 1 calc R U . . .
C26 C 1.0673(3) 0.1016(3) 0.9253(3) 0.0349(10) Uani 1 1 d . . . . .
H8 H 1.1130 0.0738 0.9529 0.042 Uiso 1 1 calc R U . . .
C27 C 1.0956(3) 0.1502(3) 0.8703(3) 0.0334(10) Uani 1 1 d . . . . .
H9 H 1.1608 0.1559 0.8617 0.040 Uiso 1 1 calc R U . . .
C28 C 1.0305(3) 0.1901(3) 0.8281(3) 0.0262(9) Uani 1 1 d . . . . .
H10 H 1.0504 0.2219 0.7900 0.031 Uiso 1 1 calc R U . . .
C29 C 0.9641(3) 0.4344(2) 0.7145(2) 0.0189(8) Uani 1 1 d . . . . .
C30 C 0.9456(3) 0.3429(2) 0.7075(2) 0.0189(8) Uani 1 1 d . . . . .
C31 C 1.0158(3) 0.3106(2) 0.6732(2) 0.0209(8) Uani 1 1 d . . . . .
C32 C 1.0921(3) 0.3818(2) 0.6610(2) 0.0198(8) Uani 1 1 d . . . . .
C33 C 1.1698(3) 0.3664(3) 0.6303(2) 0.0240(8) Uani 1 1 d . . . . .
H11 H 1.2216 0.4149 0.6240 0.029 Uiso 1 1 calc R U . . .
C34 C 1.1696(3) 0.2789(3) 0.6093(2) 0.0273(9) Uani 1 1 d . . . . .
H12 H 1.2226 0.2670 0.5891 0.033 Uiso 1 1 calc R U . . .
C35 C 1.0914(3) 0.2073(3) 0.6177(3) 0.0280(9) Uani 1 1 d . . . . .
H13 H 1.0914 0.1475 0.6016 0.034 Uiso 1 1 calc R U . . .
C36 C 1.0150(3) 0.2221(3) 0.6486(2) 0.0249(9) Uani 1 1 d . . . . .
H14 H 0.9623 0.1731 0.6534 0.030 Uiso 1 1 calc R U . . .
C37 C 0.4346(3) 0.2615(3) 0.9115(3) 0.0241(9) Uani 1 1 d . . . . .
C38 C 0.3806(3) 0.1726(3) 0.8762(3) 0.0327(10) Uani 1 1 d . . . . .
C39 C 0.3437(3) 0.1131(3) 0.9218(4) 0.0426(13) Uani 1 1 d . . . . .
H15 H 0.3084 0.0525 0.8986 0.051 Uiso 1 1 calc R U . . .
C40 C 0.3572(3) 0.1397(3) 1.0001(4) 0.0455(14) Uani 1 1 d . . . . .
C41 C 0.4058(3) 0.2289(3) 1.0321(3) 0.0407(12) Uani 1 1 d . . . . .
H16 H 0.4127 0.2489 1.0850 0.049 Uiso 1 1 calc R U . . .
C42 C 0.4453(3) 0.2907(3) 0.9890(3) 0.0280(9) Uani 1 1 d . . . . .
C43 C 0.3606(4) 0.1415(3) 0.7904(3) 0.0488(13) Uani 1 1 d . . . . .
H17 H 0.3916 0.1914 0.7675 0.073 Uiso 1 1 calc R U . . .
H18 H 0.3903 0.0924 0.7815 0.073 Uiso 1 1 calc R U . . .
H19 H 0.2869 0.1206 0.7667 0.073 Uiso 1 1 calc R U . . .
C44 C 0.3200(5) 0.0718(4) 1.0471(4) 0.069(2) Uani 1 1 d . . . . .
H20 H 0.3353 0.1013 1.1007 0.104 Uiso 1 1 calc R U . . .
H21 H 0.2462 0.0449 1.0267 0.104 Uiso 1 1 calc R U . . .
H22 H 0.3543 0.0249 1.0443 0.104 Uiso 1 1 calc R U . . .
C45 C 0.4995(4) 0.3863(3) 1.0269(3) 0.0372(10) Uani 1 1 d . . . . .
H23 H 0.4995 0.3942 1.0812 0.056 Uiso 1 1 calc R U . . .
H24 H 0.5699 0.4013 1.0229 0.056 Uiso 1 1 calc R U . . .
H25 H 0.4645 0.4257 1.0013 0.056 Uiso 1 1 calc R U . . .
C46 C 0.3399(3) 0.6197(2) 0.7339(2) 0.0209(8) Uani 1 1 d . . . . .
C47 C 0.3180(3) 0.6632(3) 0.7954(2) 0.0225(8) Uani 1 1 d . . . . .
H26 H 0.3504 0.6588 0.8461 0.027 Uiso 1 1 calc R U . . .
C48 C 0.2484(3) 0.7140(2) 0.7842(2) 0.0242(8) Uani 1 1 d . . . . .
C49 C 0.2015(3) 0.7170(2) 0.7086(2) 0.0238(9) Uani 1 1 d . . . . .
H27 H 0.1545 0.7512 0.6998 0.029 Uiso 1 1 calc R U . . .
C50 C 0.2211(3) 0.6718(3) 0.6451(2) 0.0240(9) Uani 1 1 d . . . . .
C51 C 0.2920(3) 0.6236(3) 0.6588(2) 0.0220(8) Uani 1 1 d . . . . .
H28 H 0.3078 0.5933 0.6169 0.026 Uiso 1 1 calc R U . . .
C52 C 0.2297(3) 0.7625(3) 0.8554(3) 0.0310(9) Uani 1 1 d . . . . .
C53 C 0.3299(3) 0.8272(3) 0.9064(3) 0.0391(11) Uani 1 1 d . . . . .
H29 H 0.3171 0.8578 0.9517 0.059 Uiso 1 1 calc R U . . .
H30 H 0.3785 0.7937 0.9227 0.059 Uiso 1 1 calc R U . . .
H31 H 0.3582 0.8715 0.8773 0.059 Uiso 1 1 calc R U . . .
C54 C 0.1856(4) 0.6918(3) 0.9005(3) 0.0460(12) Uani 1 1 d . . . . .
H32 H 0.1732 0.7217 0.9463 0.069 Uiso 1 1 calc R U . . .
H33 H 0.1214 0.6507 0.8678 0.069 Uiso 1 1 calc R U . . .
H34 H 0.2343 0.6581 0.9161 0.069 Uiso 1 1 calc R U . . .
C55 C 0.1523(4) 0.8150(4) 0.8343(3) 0.0470(13) Uani 1 1 d . . . . .
H35 H 0.1427 0.8448 0.8814 0.071 Uiso 1 1 calc R U . . .
H36 H 0.1777 0.8600 0.8048 0.071 Uiso 1 1 calc R U . . .
H37 H 0.0871 0.7737 0.8033 0.071 Uiso 1 1 calc R U . . .
C56 C 0.1659(3) 0.6772(3) 0.5628(3) 0.0304(10) Uani 1 1 d . . . . .
C57 C 0.1855(5) 0.6134(6) 0.5017(3) 0.071(2) Uani 1 1 d . . . . .
H38 H 0.1635 0.5520 0.5106 0.106 Uiso 1 1 calc R U . . .
H39 H 0.1471 0.6174 0.4507 0.106 Uiso 1 1 calc R U . . .
H40 H 0.2584 0.6300 0.5047 0.106 Uiso 1 1 calc R U . . .
C58 C 0.1991(5) 0.7735(5) 0.5508(4) 0.084(3) Uani 1 1 d . . . . .
H41 H 0.1858 0.8130 0.5907 0.126 Uiso 1 1 calc R U . . .
H42 H 0.2721 0.7910 0.5541 0.126 Uiso 1 1 calc R U . . .
H43 H 0.1608 0.7784 0.5001 0.126 Uiso 1 1 calc R U . . .
C59 C 0.0500(3) 0.6499(4) 0.5532(3) 0.0410(11) Uani 1 1 d . . . . .
H44 H 0.0272 0.5879 0.5607 0.061 Uiso 1 1 calc R U . . .
H45 H 0.0341 0.6896 0.5913 0.061 Uiso 1 1 calc R U . . .
H46 H 0.0150 0.6548 0.5014 0.061 Uiso 1 1 calc R U . . .
C60 C 0.8479(3) 0.7423(2) 0.7266(2) 0.0220(8) Uani 1 1 d . . . . .
C61 C 0.8648(3) 0.7435(3) 0.6534(3) 0.0280(9) Uani 1 1 d . . . . .
C62 C 0.9306(4) 0.8208(3) 0.6413(3) 0.0411(12) Uani 1 1 d . . . . .
H47 H 0.9432 0.8219 0.5922 0.049 Uiso 1 1 calc R U . . .
C63 C 0.9778(4) 0.8958(3) 0.6987(4) 0.0464(13) Uani 1 1 d . . . . .
C64 C 0.9551(3) 0.8941(3) 0.7688(3) 0.0370(11) Uani 1 1 d . . . . .
H48 H 0.9829 0.9464 0.8076 0.044 Uiso 1 1 calc R U . . .
C65 C 0.8922(3) 0.8175(3) 0.7842(3) 0.0277(9) Uani 1 1 d . . . . .
C66 C 0.8113(3) 0.6658(3) 0.5877(3) 0.0345(10) Uani 1 1 d . . . . .
H49 H 0.7685 0.6174 0.6058 0.052 Uiso 1 1 calc R U . . .
H50 H 0.7686 0.6853 0.5465 0.052 Uiso 1 1 calc R U . . .
H51 H 0.8621 0.6440 0.5683 0.052 Uiso 1 1 calc R U . . .
C67 C 1.0515(5) 0.9788(4) 0.6847(5) 0.077(2) Uani 1 1 d . . . . .
H52 H 1.0584 0.9679 0.6322 0.115 Uiso 1 1 calc R U . . .
H53 H 1.0249 1.0303 0.6915 0.115 Uiso 1 1 calc R U . . .
H54 H 1.1183 0.9912 0.7214 0.115 Uiso 1 1 calc R U . . .
C68 C 0.8759(4) 0.8189(3) 0.8632(3) 0.0404(11) Uani 1 1 d . . . . .
H55 H 0.9134 0.8778 0.8953 0.061 Uiso 1 1 calc R U . . .
H56 H 0.8030 0.8074 0.8596 0.061 Uiso 1 1 calc R U . . .
H57 H 0.9006 0.7726 0.8863 0.061 Uiso 1 1 calc R U . . .
C69 C 0.8651(3) 0.5738(3) 1.0043(3) 0.0368(10) Uani 1 1 d . . . . .
Cl1 Cl 0.90627(9) 0.57500(8) 1.10358(7) 0.0418(3) Uani 1 1 d . . . . .
Cl2 Cl 0.76742(14) 0.62412(17) 0.98438(10) 0.0891(7) Uani 1 1 d . . . . .
Cl3 Cl 0.96831(13) 0.63950(15) 0.97619(11) 0.0843(6) Uani 1 1 d . . . . .
Cl4 Cl 0.83204(19) 0.46570(11) 0.95329(10) 0.0995(8) Uani 1 1 d . . . . .
C70 C 0.4442(8) 0.0256(5) 0.3062(5) 0.051(2) Uani 0.641(2) 1 d . . P A 1
Cl5 Cl 0.4958(3) 0.1099(2) 0.3900(3) 0.0514(8) Uani 0.641(2) 1 d . . P A 1
Cl6 Cl 0.4340(5) -0.0777(3) 0.3280(4) 0.103(2) Uani 0.641(2) 1 d . . P A 1
Cl7 Cl 0.3178(2) 0.02353(14) 0.26667(14) 0.0641(7) Uani 0.641(2) 1 d . . P A 1
Cl8 Cl 0.5097(4) 0.0500(4) 0.2364(3) 0.0955(16) Uani 0.641(2) 1 d . . P A 1
C71 C 0.4711(5) -0.3671(5) 0.4458(4) 0.0293(15) Uani 0.641(2) 1 d . . P A 1
Cl9 Cl 0.4100(5) -0.2909(5) 0.4057(5) 0.0531(16) Uani 0.641(2) 1 d . . P A 1
Cl10 Cl 0.38095(12) -0.47252(11) 0.43063(10) 0.0365(4) Uani 0.641(2) 1 d . . P
A 1
Cl11 Cl 0.52581(18) -0.32723(13) 0.54523(14) 0.0298(5) Uani 0.641(2) 1 d . . P
A 1
Cl12 Cl 0.5680(5) -0.3783(5) 0.4008(4) 0.0657(16) Uani 0.641(2) 1 d . . P A 1
C72 C 0.7737(11) -0.0289(8) 0.5040(7) 0.082(4) Uani 0.641(2) 1 d . . P A 1
Cl13 Cl 0.89428(18) -0.01486(15) 0.51407(16) 0.0642(7) Uani 0.641(2) 1 d . . P
A 1
Cl14 Cl 0.73876(18) 0.04990(14) 0.55665(15) 0.0594(6) Uani 0.641(2) 1 d . . P A
1
Cl15 Cl 0.7134(2) -0.14021(15) 0.5270(2) 0.0814(9) Uani 0.641(2) 1 d . . P A 1
Cl16 Cl 0.7098(3) -0.0424(3) 0.40320(19) 0.0996(11) Uani 0.641(2) 1 d . . P A 1
C73 C 0.5290(10) 0.0215(8) 0.3474(8) 0.105(5) Uani 0.359(2) 1 d D U P A 2
Cl17 Cl 0.5492(9) 0.0674(6) 0.2713(6) 0.105(3) Uani 0.359(2) 1 d D U P A 2
Cl18 Cl 0.5063(9) 0.0959(7) 0.4093(7) 0.108(4) Uani 0.359(2) 1 d D U P A 2
Cl19 Cl 0.4481(7) -0.0803(4) 0.3287(4) 0.060(2) Uani 0.359(2) 1 d D U P A 2
Cl20 Cl 0.6352(5) -0.0084(5) 0.3851(5) 0.116(2) Uani 0.359(2) 1 d D U P A 2
C74 C 0.5218(10) -0.3105(10) 0.4546(8) 0.067(4) Uani 0.359(2) 1 d D U P A 2
Cl21 Cl 0.6307(3) -0.2211(4) 0.5006(4) 0.104(2) Uani 0.359(2) 1 d D U P A 2
Cl22 Cl 0.4950(6) -0.3716(7) 0.5266(5) 0.116(3) Uani 0.359(2) 1 d D U P A 2
Cl23 Cl 0.5490(10) -0.3777(9) 0.3864(8) 0.081(4) Uani 0.359(2) 1 d D U P A 2
Cl24 Cl 0.4152(8) -0.2750(10) 0.4176(9) 0.055(3) Uani 0.359(2) 1 d D U P A 2
loop_
_atom_site_aniso_label
_atom_site_aniso_U_11
_atom_site_aniso_U_22
_atom_site_aniso_U_33
_atom_site_aniso_U_23
_atom_site_aniso_U_13
_atom_site_aniso_U_12
Ni1 0.0165(3) 0.0163(3) 0.0211(4) 0.0093(3) 0.0085(2) 0.0061(2)
P1 0.0207(4) 0.0164(4) 0.0253(6) 0.0097(4) 0.0114(4) 0.0066(3)
N1 0.0170(13) 0.0196(15) 0.0221(18) 0.0092(13) 0.0085(12) 0.0059(11)
N2 0.0207(14) 0.0180(14) 0.0180(18) 0.0079(13) 0.0055(12) 0.0070(12)
N3 0.0176(14) 0.0209(15) 0.0228(18) 0.0091(13) 0.0094(12) 0.0072(12)
N4 0.0210(14) 0.0144(14) 0.0236(18) 0.0078(13) 0.0088(13) 0.0066(11)
O1 0.0289(13) 0.0227(13) 0.0261(16) 0.0046(12) 0.0104(12) 0.0061(11)
S1 0.0291(5) 0.0234(5) 0.0305(6) 0.0161(4) 0.0153(4) 0.0118(4)
S2 0.0191(4) 0.0194(4) 0.0304(6) 0.0103(4) 0.0124(4) 0.0066(3)
C1 0.0168(16) 0.0198(17) 0.022(2) 0.0084(15) 0.0085(14) 0.0072(13)
C2 0.0198(16) 0.0157(16) 0.020(2) 0.0033(15) 0.0062(14) 0.0055(13)
C3 0.0229(17) 0.0163(17) 0.024(2) 0.0061(15) 0.0088(15) 0.0053(14)
C4 0.0243(18) 0.0170(17) 0.028(2) 0.0116(16) 0.0114(16) 0.0053(14)
C5 0.0224(17) 0.0178(17) 0.022(2) 0.0087(15) 0.0071(15) 0.0049(14)
C6 0.0228(17) 0.0186(17) 0.020(2) 0.0069(15) 0.0104(15) 0.0024(14)
C7 0.0187(16) 0.0227(18) 0.017(2) 0.0049(15) 0.0063(14) 0.0045(14)
C8 0.0192(17) 0.0244(19) 0.028(2) 0.0108(17) 0.0122(16) 0.0055(14)
C9 0.0152(16) 0.0266(19) 0.023(2) 0.0071(16) 0.0071(15) 0.0070(14)
C10 0.0181(16) 0.0224(18) 0.016(2) 0.0037(15) 0.0049(14) 0.0051(14)
C11 0.0197(17) 0.0259(19) 0.018(2) 0.0075(16) 0.0062(15) 0.0103(15)
C12 0.0228(17) 0.0195(17) 0.020(2) 0.0073(15) 0.0082(15) 0.0100(14)
C13 0.0243(18) 0.0258(19) 0.027(2) 0.0123(17) 0.0098(16) 0.0131(15)
C14 0.0287(19) 0.0223(19) 0.030(2) 0.0143(17) 0.0108(17) 0.0114(15)
C15 0.0233(17) 0.0174(17) 0.024(2) 0.0090(15) 0.0102(15) 0.0071(14)
C16 0.0203(17) 0.0198(17) 0.020(2) 0.0076(15) 0.0079(15) 0.0058(14)
C17 0.0188(16) 0.0175(17) 0.021(2) 0.0084(15) 0.0073(14) 0.0045(13)
C18 0.0184(16) 0.0189(17) 0.027(2) 0.0106(16) 0.0102(15) 0.0052(14)
C19 0.0175(16) 0.0220(18) 0.020(2) 0.0105(16) 0.0075(14) 0.0063(14)
C20 0.0205(17) 0.0197(17) 0.018(2) 0.0062(15) 0.0072(14) 0.0080(14)
C21 0.0263(18) 0.0167(17) 0.026(2) 0.0102(16) 0.0097(16) 0.0062(14)
C22 0.0254(18) 0.0164(17) 0.027(2) 0.0085(16) 0.0112(16) 0.0057(14)
C23 0.0264(18) 0.0181(17) 0.028(2) 0.0092(16) 0.0085(16) 0.0084(14)
C24 0.0288(19) 0.0189(18) 0.027(2) 0.0085(16) 0.0096(16) 0.0070(15)
C25 0.036(2) 0.026(2) 0.032(3) 0.0163(18) 0.0141(18) 0.0134(17)
C26 0.036(2) 0.040(2) 0.039(3) 0.021(2) 0.0093(19) 0.0219(19)
C27 0.029(2) 0.043(2) 0.038(3) 0.017(2) 0.0150(19) 0.0180(18)
C28 0.0259(18) 0.028(2) 0.031(2) 0.0134(18) 0.0126(17) 0.0092(15)
C29 0.0187(16) 0.0219(18) 0.020(2) 0.0094(15) 0.0092(14) 0.0076(14)
C30 0.0205(17) 0.0187(17) 0.022(2) 0.0101(15) 0.0089(15) 0.0080(14)
C31 0.0216(17) 0.0250(19) 0.022(2) 0.0124(16) 0.0103(15) 0.0092(14)
C32 0.0227(17) 0.0218(18) 0.019(2) 0.0090(15) 0.0084(15) 0.0090(14)
C33 0.0225(18) 0.028(2) 0.027(2) 0.0120(17) 0.0116(16) 0.0091(15)
C34 0.0290(19) 0.033(2) 0.028(2) 0.0107(18) 0.0145(17) 0.0132(16)
C35 0.037(2) 0.025(2) 0.030(3) 0.0095(18) 0.0153(18) 0.0161(17)
C36 0.0287(19) 0.0220(19) 0.030(2) 0.0126(17) 0.0140(17) 0.0090(15)
C37 0.0219(17) 0.0227(19) 0.037(3) 0.0166(18) 0.0154(17) 0.0112(15)
C38 0.028(2) 0.022(2) 0.056(3) 0.012(2) 0.022(2) 0.0096(16)
C39 0.030(2) 0.027(2) 0.083(4) 0.026(2) 0.028(2) 0.0114(18)
C40 0.036(2) 0.048(3) 0.080(4) 0.048(3) 0.035(3) 0.026(2)
C41 0.039(2) 0.059(3) 0.047(3) 0.038(3) 0.026(2) 0.029(2)
C42 0.0254(19) 0.037(2) 0.032(3) 0.0193(19) 0.0145(17) 0.0157(17)
C43 0.043(3) 0.033(2) 0.063(4) -0.010(2) 0.023(3) -0.002(2)
C44 0.060(3) 0.076(4) 0.110(6) 0.074(4) 0.052(4) 0.038(3)
C45 0.045(2) 0.046(3) 0.022(3) 0.011(2) 0.0090(19) 0.014(2)
C46 0.0192(17) 0.0218(18) 0.027(2) 0.0117(16) 0.0104(15) 0.0079(14)
C47 0.0204(17) 0.0274(19) 0.024(2) 0.0109(17) 0.0089(15) 0.0095(15)
C48 0.0238(18) 0.0221(18) 0.031(2) 0.0078(17) 0.0129(16) 0.0082(15)
C49 0.0178(16) 0.0216(18) 0.037(3) 0.0128(17) 0.0098(16) 0.0084(14)
C50 0.0198(17) 0.0256(19) 0.030(2) 0.0163(17) 0.0092(16) 0.0044(15)
C51 0.0182(17) 0.0256(19) 0.025(2) 0.0088(16) 0.0093(15) 0.0060(14)
C52 0.028(2) 0.030(2) 0.036(3) 0.0020(19) 0.0124(18) 0.0095(17)
C53 0.033(2) 0.041(3) 0.043(3) 0.002(2) 0.012(2) 0.0102(19)
C54 0.054(3) 0.040(3) 0.050(3) 0.004(2) 0.036(3) 0.008(2)
C55 0.041(3) 0.048(3) 0.054(4) -0.003(2) 0.011(2) 0.023(2)
C56 0.0259(19) 0.040(2) 0.030(3) 0.020(2) 0.0083(17) 0.0123(17)
C57 0.070(4) 0.137(6) 0.027(3) 0.021(4) 0.011(3) 0.067(4)
C58 0.068(4) 0.078(4) 0.077(5) 0.060(4) -0.020(3) -0.014(3)
C59 0.029(2) 0.052(3) 0.040(3) 0.012(2) 0.003(2) 0.011(2)
C60 0.0204(17) 0.0187(18) 0.033(2) 0.0129(17) 0.0103(16) 0.0094(14)
C61 0.031(2) 0.027(2) 0.036(3) 0.0172(19) 0.0166(18) 0.0138(16)
C62 0.050(3) 0.036(2) 0.057(3) 0.029(2) 0.036(2) 0.019(2)
C63 0.046(3) 0.025(2) 0.077(4) 0.020(2) 0.033(3) 0.005(2)
C64 0.038(2) 0.0180(19) 0.056(3) 0.009(2) 0.017(2) 0.0042(17)
C65 0.0276(19) 0.0200(19) 0.041(3) 0.0119(18) 0.0141(18) 0.0092(15)
C66 0.037(2) 0.041(2) 0.035(3) 0.017(2) 0.015(2) 0.0175(19)
C67 0.086(4) 0.043(3) 0.107(6) 0.036(4) 0.051(4) -0.004(3)
C68 0.047(3) 0.030(2) 0.040(3) 0.004(2) 0.012(2) 0.0037(19)
C69 0.038(2) 0.046(3) 0.029(3) 0.011(2) 0.0092(19) 0.014(2)
Cl1 0.0527(6) 0.0448(6) 0.0276(6) 0.0101(5) 0.0083(5) 0.0141(5)
Cl2 0.0873(11) 0.172(2) 0.0631(11) 0.0613(12) 0.0421(9) 0.0965(13)
Cl3 0.0626(9) 0.1249(15) 0.0790(12) 0.0610(12) 0.0363(9) 0.0169(9)
Cl4 0.1588(19) 0.0470(8) 0.0494(10) -0.0028(7) -0.0322(11) 0.0121(10)
C70 0.088(6) 0.026(4) 0.055(6) 0.015(4) 0.048(5) 0.019(4)
Cl5 0.0521(14) 0.0230(10) 0.0712(19) 0.0047(11) 0.0097(12) 0.0046(9)
Cl6 0.106(3) 0.043(3) 0.124(5) -0.006(2) 0.008(3) -0.014(2)
Cl7 0.0864(16) 0.0375(10) 0.0564(15) 0.0041(9) 0.0003(12) 0.0156(10)
Cl8 0.136(4) 0.103(3) 0.091(3) 0.048(3) 0.084(3) 0.051(3)
C71 0.026(3) 0.033(4) 0.024(4) 0.003(3) 0.008(3) 0.000(3)
Cl9 0.070(3) 0.0476(17) 0.033(2) 0.017(2) -0.0027(15) 0.0127(13)
Cl10 0.0380(8) 0.0286(8) 0.0354(10) 0.0039(7) 0.0044(7) 0.0020(6)
Cl11 0.0344(10) 0.0304(9) 0.0205(10) -0.0012(7) 0.0024(7) 0.0090(7)
Cl12 0.0286(18) 0.116(3) 0.039(2) -0.0129(19) 0.018(2) 0.0021(16)
C72 0.142(11) 0.082(7) 0.066(7) 0.019(6) 0.065(7) 0.077(8)
Cl13 0.0619(13) 0.0474(12) 0.0841(19) -0.0012(11) 0.0326(12) 0.0111(10)
Cl14 0.0766(14) 0.0425(11) 0.0763(17) 0.0157(11) 0.0432(12) 0.0247(10)
Cl15 0.0836(17) 0.0415(12) 0.129(3) 0.0091(14) 0.0523(17) 0.0177(11)
Cl16 0.085(2) 0.136(3) 0.069(2) -0.0048(19) 0.0010(15) 0.043(2)
C73 0.112(7) 0.095(7) 0.120(8) 0.011(7) 0.053(6) 0.033(6)
Cl17 0.169(8) 0.073(4) 0.115(7) 0.044(5) 0.069(6) 0.071(5)
Cl18 0.099(6) 0.080(6) 0.161(9) 0.000(5) 0.083(6) 0.021(4)
Cl19 0.120(5) 0.029(3) 0.071(4) 0.036(3) 0.066(4) 0.042(3)
Cl20 0.080(4) 0.112(5) 0.136(6) -0.019(4) 0.015(4) 0.022(3)
C74 0.051(8) 0.097(11) 0.059(9) 0.009(8) 0.019(7) 0.030(8)
Cl21 0.048(2) 0.076(3) 0.161(6) -0.048(3) 0.009(3) 0.016(2)
Cl22 0.096(5) 0.207(9) 0.111(7) 0.102(7) 0.062(5) 0.097(6)
Cl23 0.054(6) 0.108(6) 0.060(6) -0.041(4) -0.002(4) 0.025(4)
Cl24 0.040(4) 0.087(8) 0.045(5) 0.013(4) 0.011(3) 0.028(4)
loop_
_atom_type_symbol
_atom_type_description
_atom_type_scat_dispersion_real
_atom_type_scat_dispersion_imag
_atom_type_scat_source
C C 0.0181 0.0091 'International Tables Vol C Tables 4.2.6.8 and 6.1.1.4'
H H 0.0000 0.0000 'International Tables Vol C Tables 4.2.6.8 and 6.1.1.4'
N N 0.0311 0.0180 'International Tables Vol C Tables 4.2.6.8 and 6.1.1.4'
O O 0.0492 0.0322 'International Tables Vol C Tables 4.2.6.8 and 6.1.1.4'
Ni Ni -3.0029 0.5091 'International Tables Vol C Tables 4.2.6.8 and 6.1.1.4'
P P 0.2955 0.4335 'International Tables Vol C Tables 4.2.6.8 and 6.1.1.4'
S S 0.3331 0.5567 'International Tables Vol C Tables 4.2.6.8 and 6.1.1.4'
Cl Cl 0.3639 0.7018 'International Tables Vol C Tables 4.2.6.8 and 6.1.1.4'
loop_
_geom_angle_atom_site_label_1
_geom_angle_atom_site_label_2
_geom_angle_atom_site_label_3
_geom_angle
N1 Ni1 N3 179.20(15)
N1 Ni1 N2 88.98(12)
N3 Ni1 N2 91.05(12)
N1 Ni1 N4 90.81(12)
N3 Ni1 N4 89.16(12)
N2 Ni1 N4 179.52(13)
O1 P1 C30 111.30(17)
O1 P1 C1 114.17(16)
C30 P1 C1 103.84(16)
O1 P1 C22 111.18(17)
C30 P1 C22 115.14(17)
C1 P1 C22 100.67(18)
C2 N1 C5 104.9(3)
C2 N1 Ni1 126.2(2)
C5 N1 Ni1 128.5(2)
C7 N2 C10 104.8(3)
C7 N2 Ni1 128.0(2)
C10 N2 Ni1 127.2(2)
C12 N3 C15 105.2(3)
C12 N3 Ni1 126.8(2)
C15 N3 Ni1 127.9(2)
C20 N4 C17 105.1(3)
C20 N4 Ni1 126.2(2)
C17 N4 Ni1 128.7(2)
C24 S1 C21 91.22(18)
C29 S2 C32 91.62(17)
C20 C1 C2 120.8(3)
C20 C1 P1 122.1(3)
C2 C1 P1 117.1(3)
N1 C2 C1 126.2(3)
N1 C2 C3 111.2(3)
C1 C2 C3 122.2(3)
C4 C3 C2 106.2(3)
C4 C3 C21 131.7(3)
C2 C3 C21 120.9(3)
C3 C4 C5 107.0(3)
C3 C4 H1 126.5
C5 C4 H1 126.5
C6 C5 N1 124.4(3)
C6 C5 C4 124.8(3)
N1 C5 C4 110.5(3)
C5 C6 C7 121.1(3)
C5 C6 C37 118.3(3)
C7 C6 C37 120.6(3)
N2 C7 C6 126.0(3)
N2 C7 C8 110.8(3)
C6 C7 C8 123.2(3)
C9 C8 C7 106.6(3)
C9 C8 H2 126.7
C7 C8 H2 126.7
C8 C9 C10 107.3(3)
C8 C9 H3 126.4
C10 C9 H3 126.4
N2 C10 C11 124.8(3)
N2 C10 C9 110.5(3)
C11 C10 C9 124.4(3)
C10 C11 C12 122.0(3)
C10 C11 C46 120.4(3)
C12 C11 C46 117.1(3)
N3 C12 C11 126.2(3)
N3 C12 C13 110.4(3)
C11 C12 C13 123.2(3)
C14 C13 C12 107.1(3)
C14 C13 H4 126.5
C12 C13 H4 126.5
C13 C14 C15 107.0(3)
C13 C14 H5 126.5
C15 C14 H5 126.5
N3 C15 C16 126.3(3)
N3 C15 C14 110.3(3)
C16 C15 C14 123.3(3)
C17 C16 C15 121.3(3)
C17 C16 C60 120.4(3)
C15 C16 C60 118.0(3)
C16 C17 N4 124.7(3)
C16 C17 C18 124.4(3)
N4 C17 C18 110.3(3)
C19 C18 C17 107.0(3)
C19 C18 H6 126.5
C17 C18 H6 126.5
C18 C19 C29 131.3(3)
C18 C19 C20 106.2(3)
C29 C19 C20 122.4(3)
N4 C20 C1 125.9(3)
N4 C20 C19 111.2(3)
C1 C20 C19 122.4(3)
C22 C21 C3 127.1(3)
C22 C21 S1 112.5(3)
C3 C21 S1 120.0(3)
C21 C22 C23 112.9(3)
C21 C22 P1 114.2(3)
C23 C22 P1 132.4(3)
C28 C23 C24 118.0(3)
C28 C23 C22 130.7(3)
C24 C23 C22 111.2(3)
C25 C24 C23 122.3(4)
C25 C24 S1 125.5(3)
C23 C24 S1 112.0(3)
C26 C25 C24 118.1(4)
C26 C25 H7 121.0
C24 C25 H7 121.0
C25 C26 C27 120.7(4)
C25 C26 H8 119.6
C27 C26 H8 119.6
C28 C27 C26 121.3(4)
C28 C27 H9 119.4
C26 C27 H9 119.4
C27 C28 C23 119.6(4)
C27 C28 H10 120.2
C23 C28 H10 120.2
C30 C29 C19 125.7(3)
C30 C29 S2 112.7(3)
C19 C29 S2 121.2(3)
C29 C30 C31 112.4(3)
C29 C30 P1 120.8(3)
C31 C30 P1 126.2(3)
C36 C31 C32 118.7(3)
C36 C31 C30 129.5(3)
C32 C31 C30 111.7(3)
C33 C32 C31 121.7(3)
C33 C32 S2 126.9(3)
C31 C32 S2 111.4(3)
C34 C33 C32 118.5(3)
C34 C33 H11 120.8
C32 C33 H11 120.8
C33 C34 C35 120.3(4)
C33 C34 H12 119.8
C35 C34 H12 119.8
C36 C35 C34 121.4(4)
C36 C35 H13 119.3
C34 C35 H13 119.3
C35 C36 C31 119.2(3)
C35 C36 H14 120.4
C31 C36 H14 120.4
C42 C37 C38 120.5(4)
C42 C37 C6 119.7(4)
C38 C37 C6 119.7(4)
C39 C38 C37 118.4(5)
C39 C38 C43 120.3(4)
C37 C38 C43 121.3(4)
C40 C39 C38 122.2(5)
C40 C39 H15 118.9
C38 C39 H15 118.9
C39 C40 C41 117.8(4)
C39 C40 C44 119.8(5)
C41 C40 C44 122.3(6)
C40 C41 C42 122.0(5)
C40 C41 H16 119.0
C42 C41 H16 119.0
C37 C42 C41 118.9(4)
C37 C42 C45 121.1(4)
C41 C42 C45 120.0(4)
C38 C43 H17 109.5
C38 C43 H18 109.5
H17 C43 H18 109.5
C38 C43 H19 109.5
H17 C43 H19 109.5
H18 C43 H19 109.5
C40 C44 H20 109.5
C40 C44 H21 109.5
H20 C44 H21 109.5
C40 C44 H22 109.5
H20 C44 H22 109.5
H21 C44 H22 109.5
C42 C45 H23 109.5
C42 C45 H24 109.5
H23 C45 H24 109.5
C42 C45 H25 109.5
H23 C45 H25 109.5
H24 C45 H25 109.5
C47 C46 C51 120.7(3)
C47 C46 C11 118.7(3)
C51 C46 C11 120.4(3)
C46 C47 C48 121.0(4)
C46 C47 H26 119.5
C48 C47 H26 119.5
C49 C48 C47 117.3(4)
C49 C48 C52 124.6(3)
C47 C48 C52 118.2(4)
C50 C49 C48 122.6(3)
C50 C49 H27 118.7
C48 C49 H27 118.7
C51 C50 C49 118.2(4)
C51 C50 C56 121.8(4)
C49 C50 C56 120.1(3)
C46 C51 C50 120.2(4)
C46 C51 H28 119.9
C50 C51 H28 119.9
C48 C52 C53 110.1(3)
C48 C52 C55 112.2(4)
C53 C52 C55 108.9(4)
C48 C52 C54 108.4(3)
C53 C52 C54 109.7(4)
C55 C52 C54 107.5(4)
C52 C53 H29 109.5
C52 C53 H30 109.5
H29 C53 H30 109.5
C52 C53 H31 109.5
H29 C53 H31 109.5
H30 C53 H31 109.5
C52 C54 H32 109.5
C52 C54 H33 109.5
H32 C54 H33 109.5
C52 C54 H34 109.5
H32 C54 H34 109.5
H33 C54 H34 109.5
C52 C55 H35 109.5
C52 C55 H36 109.5
H35 C55 H36 109.5
C52 C55 H37 109.5
H35 C55 H37 109.5
H36 C55 H37 109.5
C58 C56 C57 111.0(5)
C58 C56 C59 108.3(4)
C57 C56 C59 106.9(4)
C58 C56 C50 108.9(4)
C57 C56 C50 112.3(4)
C59 C56 C50 109.3(3)
C56 C57 H38 109.5
C56 C57 H39 109.5
H38 C57 H39 109.5
C56 C57 H40 109.5
H38 C57 H40 109.5
H39 C57 H40 109.5
C56 C58 H41 109.5
C56 C58 H42 109.5
H41 C58 H42 109.5
C56 C58 H43 109.5
H41 C58 H43 109.5
H42 C58 H43 109.5
C56 C59 H44 109.5
C56 C59 H45 109.5
H44 C59 H45 109.5
C56 C59 H46 109.5
H44 C59 H46 109.5
H45 C59 H46 109.5
C65 C60 C61 120.5(3)
C65 C60 C16 120.0(4)
C61 C60 C16 119.5(4)
C62 C61 C60 118.3(4)
C62 C61 C66 119.8(4)
C60 C61 C66 121.8(3)
C63 C62 C61 122.1(5)
C63 C62 H47 118.9
C61 C62 H47 118.9
C64 C63 C62 118.0(4)
C64 C63 C67 120.8(5)
C62 C63 C67 121.2(5)
C63 C64 C65 121.8(4)
C63 C64 H48 119.1
C65 C64 H48 119.1
C60 C65 C64 119.2(4)
C60 C65 C68 122.0(3)
C64 C65 C68 118.8(4)
C61 C66 H49 109.5
C61 C66 H50 109.5
H49 C66 H50 109.5
C61 C66 H51 109.5
H49 C66 H51 109.5
H50 C66 H51 109.5
C63 C67 H52 109.5
C63 C67 H53 109.5
H52 C67 H53 109.5
C63 C67 H54 109.5
H52 C67 H54 109.5
H53 C67 H54 109.5
C65 C68 H55 109.5
C65 C68 H56 109.5
H55 C68 H56 109.5
C65 C68 H57 109.5
H55 C68 H57 109.5
H56 C68 H57 109.5
Cl4 C69 Cl2 113.0(3)
Cl4 C69 Cl1 110.2(3)
Cl2 C69 Cl1 111.0(3)
Cl4 C69 Cl3 108.0(3)
Cl2 C69 Cl3 106.5(3)
Cl1 C69 Cl3 107.9(3)
Cl6 C70 Cl7 103.8(5)
Cl6 C70 Cl8 114.8(5)
Cl7 C70 Cl8 106.9(5)
Cl6 C70 Cl5 111.3(6)
Cl7 C70 Cl5 108.3(5)
Cl8 C70 Cl5 111.1(5)
Cl10 C71 Cl11 109.8(4)
Cl10 C71 Cl12 108.9(5)
Cl11 C71 Cl12 109.4(4)
Cl10 C71 Cl9 109.2(4)
Cl11 C71 Cl9 109.5(5)
Cl12 C71 Cl9 110.0(5)
Cl13 C72 Cl14 117.7(8)
Cl13 C72 Cl16 109.4(6)
Cl14 C72 Cl16 109.6(6)
Cl13 C72 Cl15 110.2(6)
Cl14 C72 Cl15 106.9(6)
Cl16 C72 Cl15 101.9(7)
Cl19 C73 Cl18 114.9(8)
Cl19 C73 Cl17 116.5(9)
Cl18 C73 Cl17 108.9(8)
Cl19 C73 Cl20 96.4(7)
Cl18 C73 Cl20 112.8(9)
Cl17 C73 Cl20 106.5(8)
Cl23 C74 Cl21 109.5(9)
Cl23 C74 Cl24 112.6(10)
Cl21 C74 Cl24 112.8(10)
Cl23 C74 Cl22 108.6(10)
Cl21 C74 Cl22 105.5(8)
Cl24 C74 Cl22 107.6(8)
loop_
_geom_bond_atom_site_label_1
_geom_bond_atom_site_label_2
_geom_bond_distance
Ni1 N1 1.928(3)
Ni1 N3 1.928(3)
Ni1 N2 1.937(3)
Ni1 N4 1.939(3)
P1 O1 1.487(3)
P1 C30 1.789(4)
P1 C1 1.797(4)
P1 C22 1.813(4)
N1 C2 1.367(5)
N1 C5 1.388(5)
N2 C7 1.379(5)
N2 C10 1.387(4)
N3 C12 1.373(4)
N3 C15 1.377(5)
N4 C20 1.369(5)
N4 C17 1.392(4)
S1 C24 1.738(4)
S1 C21 1.747(4)
S2 C29 1.738(3)
S2 C32 1.742(4)
C1 C20 1.376(5)
C1 C2 1.385(5)
C2 C3 1.447(5)
C3 C4 1.360(5)
C3 C21 1.452(5)
C4 C5 1.435(5)
C4 H1 0.9500
C5 C6 1.387(5)
C6 C7 1.392(5)
C6 C37 1.504(5)
C7 C8 1.443(5)
C8 C9 1.353(5)
C8 H2 0.9500
C9 C10 1.436(5)
C9 H3 0.9500
C10 C11 1.390(5)
C11 C12 1.396(5)
C11 C46 1.507(5)
C12 C13 1.441(5)
C13 C14 1.341(5)
C13 H4 0.9500
C14 C15 1.441(5)
C14 H5 0.9500
C15 C16 1.396(5)
C16 C17 1.373(5)
C16 C60 1.509(5)
C17 C18 1.445(5)
C18 C19 1.362(5)
C18 H6 0.9500
C19 C29 1.451(5)
C19 C20 1.453(5)
C21 C22 1.371(5)
C22 C23 1.443(5)
C23 C28 1.408(5)
C23 C24 1.414(5)
C24 C25 1.390(5)
C25 C26 1.388(6)
C25 H7 0.9500
C26 C27 1.394(6)
C26 H8 0.9500
C27 C28 1.380(6)
C27 H9 0.9500
C28 H10 0.9500
C29 C30 1.379(5)
C30 C31 1.444(5)
C31 C36 1.406(5)
C31 C32 1.416(5)
C32 C33 1.393(5)
C33 C34 1.383(6)
C33 H11 0.9500
C34 C35 1.409(6)
C34 H12 0.9500
C35 C36 1.377(6)
C35 H13 0.9500
C36 H14 0.9500
C37 C42 1.392(6)
C37 C38 1.405(6)
C38 C39 1.400(6)
C38 C43 1.518(8)
C39 C40 1.391(8)
C39 H15 0.9500
C40 C41 1.385(8)
C40 C44 1.506(6)
C41 C42 1.401(6)
C41 H16 0.9500
C42 C45 1.500(7)
C43 H17 0.9800
C43 H18 0.9800
C43 H19 0.9800
C44 H20 0.9800
C44 H21 0.9800
C44 H22 0.9800
C45 H23 0.9800
C45 H24 0.9800
C45 H25 0.9800
C46 C47 1.377(6)
C46 C51 1.394(6)
C47 C48 1.409(5)
C47 H26 0.9500
C48 C49 1.396(6)
C48 C52 1.532(6)
C49 C50 1.401(6)
C49 H27 0.9500
C50 C51 1.396(5)
C50 C56 1.545(6)
C51 H28 0.9500
C52 C53 1.531(6)
C52 C55 1.534(6)
C52 C54 1.542(6)
C53 H29 0.9800
C53 H30 0.9800
C53 H31 0.9800
C54 H32 0.9800
C54 H33 0.9800
C54 H34 0.9800
C55 H35 0.9800
C55 H36 0.9800
C55 H37 0.9800
C56 C58 1.522(7)
C56 C57 1.526(8)
C56 C59 1.540(6)
C57 H38 0.9800
C57 H39 0.9800
C57 H40 0.9800
C58 H41 0.9800
C58 H42 0.9800
C58 H43 0.9800
C59 H44 0.9800
C59 H45 0.9800
C59 H46 0.9800
C60 C65 1.388(6)
C60 C61 1.403(6)
C61 C62 1.401(6)
C61 C66 1.507(7)
C62 C63 1.386(8)
C62 H47 0.9500
C63 C64 1.384(8)
C63 C67 1.533(6)
C64 C65 1.399(6)
C64 H48 0.9500
C65 C68 1.503(7)
C66 H49 0.9800
C66 H50 0.9800
C66 H51 0.9800
C67 H52 0.9800
C67 H53 0.9800
C67 H54 0.9800
C68 H55 0.9800
C68 H56 0.9800
C68 H57 0.9800
C69 Cl4 1.731(5)
C69 Cl2 1.743(5)
C69 Cl1 1.762(5)
C69 Cl3 1.769(5)
C70 Cl6 1.693(9)
C70 Cl7 1.753(10)
C70 Cl8 1.751(9)
C70 Cl5 1.774(10)
C71 Cl10 1.760(7)
C71 Cl11 1.766(7)
C71 Cl12 1.773(8)
C71 Cl9 1.773(9)
C72 Cl13 1.619(13)
C72 Cl14 1.713(9)
C72 Cl16 1.812(13)
C72 Cl15 1.877(13)
C73 Cl19 1.657(13)
C73 Cl18 1.668(12)
C73 Cl17 1.678(13)
C73 Cl20 1.700(13)
C74 Cl23 1.708(15)
C74 Cl21 1.755(15)
C74 Cl24 1.753(14)
C74 Cl22 1.760(15)
loop_
_geom_torsion_atom_site_label_1
_geom_torsion_atom_site_label_2
_geom_torsion_atom_site_label_3
_geom_torsion_atom_site_label_4
_geom_torsion
O1 P1 C1 C20 -105.5(3)
C30 P1 C1 C20 15.9(4)
C22 P1 C1 C20 135.3(3)
O1 P1 C1 C2 74.7(3)
C30 P1 C1 C2 -163.9(3)
C22 P1 C1 C2 -44.5(3)
C5 N1 C2 C1 -176.9(4)
Ni1 N1 C2 C1 -4.0(6)
C5 N1 C2 C3 -3.1(4)
Ni1 N1 C2 C3 169.9(3)
C20 C1 C2 N1 18.6(6)
P1 C1 C2 N1 -161.6(3)
C20 C1 C2 C3 -154.6(4)
P1 C1 C2 C3 25.2(5)
N1 C2 C3 C4 0.6(4)
C1 C2 C3 C4 174.7(4)
N1 C2 C3 C21 -167.9(3)
C1 C2 C3 C21 6.3(6)
C2 C3 C4 C5 2.1(4)
C21 C3 C4 C5 168.8(4)
C2 N1 C5 C6 -170.5(4)
Ni1 N1 C5 C6 16.8(6)
C2 N1 C5 C4 4.4(4)
Ni1 N1 C5 C4 -168.3(3)
C3 C4 C5 C6 170.7(4)
C3 C4 C5 N1 -4.2(5)
N1 C5 C6 C7 0.2(6)
C4 C5 C6 C7 -174.0(4)
N1 C5 C6 C37 177.5(4)
C4 C5 C6 C37 3.3(6)
C10 N2 C7 C6 177.7(4)
Ni1 N2 C7 C6 -1.0(6)
C10 N2 C7 C8 0.0(4)
Ni1 N2 C7 C8 -178.8(3)
C5 C6 C7 N2 -8.1(6)
C37 C6 C7 N2 174.6(4)
C5 C6 C7 C8 169.3(4)
C37 C6 C7 C8 -7.9(6)
N2 C7 C8 C9 0.7(5)
C6 C7 C8 C9 -177.2(4)
C7 C8 C9 C10 -1.0(4)
C7 N2 C10 C11 172.6(4)
Ni1 N2 C10 C11 -8.7(6)
C7 N2 C10 C9 -0.6(4)
Ni1 N2 C10 C9 178.1(3)
C8 C9 C10 N2 1.0(5)
C8 C9 C10 C11 -172.2(4)
N2 C10 C11 C12 -4.6(6)
C9 C10 C11 C12 167.7(4)
N2 C10 C11 C46 -176.5(4)
C9 C10 C11 C46 -4.3(6)
C15 N3 C12 C11 -175.7(4)
Ni1 N3 C12 C11 3.4(6)
C15 N3 C12 C13 -0.8(4)
Ni1 N3 C12 C13 178.3(3)
C10 C11 C12 N3 7.4(6)
C46 C11 C12 N3 179.6(4)
C10 C11 C12 C13 -166.9(4)
C46 C11 C12 C13 5.3(6)
N3 C12 C13 C14 0.2(5)
C11 C12 C13 C14 175.4(4)
C12 C13 C14 C15 0.4(5)
C12 N3 C15 C16 -175.4(4)
Ni1 N3 C15 C16 5.6(6)
C12 N3 C15 C14 1.0(4)
Ni1 N3 C15 C14 -178.0(3)
C13 C14 C15 N3 -0.9(5)
C13 C14 C15 C16 175.6(4)
N3 C15 C16 C17 4.6(7)
C14 C15 C16 C17 -171.3(4)
N3 C15 C16 C60 178.6(4)
C14 C15 C16 C60 2.7(6)
C15 C16 C17 N4 -2.6(6)
C60 C16 C17 N4 -176.4(4)
C15 C16 C17 C18 168.5(4)
C60 C16 C17 C18 -5.3(6)
C20 N4 C17 C16 169.1(4)
Ni1 N4 C17 C16 -9.6(6)
C20 N4 C17 C18 -3.0(4)
Ni1 N4 C17 C18 178.2(3)
C16 C17 C18 C19 -168.4(4)
N4 C17 C18 C19 3.8(5)
C17 C18 C19 C29 173.8(4)
C17 C18 C19 C20 -2.9(4)
C17 N4 C20 C1 173.1(4)
Ni1 N4 C20 C1 -8.0(6)
C17 N4 C20 C19 1.2(4)
Ni1 N4 C20 C19 180.0(3)
C2 C1 C20 N4 -12.2(6)
P1 C1 C20 N4 168.0(3)
C2 C1 C20 C19 159.0(4)
P1 C1 C20 C19 -20.8(5)
C18 C19 C20 N4 1.1(4)
C29 C19 C20 N4 -175.9(3)
C18 C19 C20 C1 -171.2(4)
C29 C19 C20 C1 11.8(6)
C4 C3 C21 C22 -175.5(4)
C2 C3 C21 C22 -10.5(6)
C4 C3 C21 S1 -2.3(6)
C2 C3 C21 S1 162.8(3)
C24 S1 C21 C22 2.3(3)
C24 S1 C21 C3 -171.9(3)
C3 C21 C22 C23 170.1(4)
S1 C21 C22 C23 -3.6(4)
C3 C21 C22 P1 -17.3(5)
S1 C21 C22 P1 169.0(2)
O1 P1 C22 C21 -81.8(3)
C30 P1 C22 C21 150.5(3)
C1 P1 C22 C21 39.5(3)
O1 P1 C22 C23 88.9(4)
C30 P1 C22 C23 -38.8(4)
C1 P1 C22 C23 -149.7(4)
C21 C22 C23 C28 -172.1(4)
P1 C22 C23 C28 17.1(7)
C21 C22 C23 C24 3.3(5)
P1 C22 C23 C24 -167.5(3)
C28 C23 C24 C25 -1.2(6)
C22 C23 C24 C25 -177.2(4)
C28 C23 C24 S1 174.5(3)
C22 C23 C24 S1 -1.5(4)
C21 S1 C24 C25 175.2(4)
C21 S1 C24 C23 -0.4(3)
C23 C24 C25 C26 1.4(7)
S1 C24 C25 C26 -173.7(4)
C24 C25 C26 C27 -0.3(7)
C25 C26 C27 C28 -1.1(7)
C26 C27 C28 C23 1.3(7)
C24 C23 C28 C27 -0.2(6)
C22 C23 C28 C27 174.9(4)
C18 C19 C29 C30 -174.7(4)
C20 C19 C29 C30 1.5(6)
C18 C19 C29 S2 -2.8(6)
C20 C19 C29 S2 173.3(3)
C32 S2 C29 C30 3.1(3)
C32 S2 C29 C19 -169.7(3)
C19 C29 C30 C31 167.3(4)
S2 C29 C30 C31 -5.2(4)
C19 C29 C30 P1 -3.8(6)
S2 C29 C30 P1 -176.3(2)
O1 P1 C30 C29 119.5(3)
C1 P1 C30 C29 -3.8(4)
C22 P1 C30 C29 -112.9(3)
O1 P1 C30 C31 -50.3(4)
C1 P1 C30 C31 -173.6(3)
C22 P1 C30 C31 77.3(4)
C29 C30 C31 C36 -171.9(4)
P1 C30 C31 C36 -1.4(6)
C29 C30 C31 C32 5.0(5)
P1 C30 C31 C32 175.5(3)
C36 C31 C32 C33 -4.5(6)
C30 C31 C32 C33 178.2(3)
C36 C31 C32 S2 174.7(3)
C30 C31 C32 S2 -2.6(4)
C29 S2 C32 C33 178.9(4)
C29 S2 C32 C31 -0.2(3)
C31 C32 C33 C34 2.0(6)
S2 C32 C33 C34 -177.0(3)
C32 C33 C34 C35 1.1(6)
C33 C34 C35 C36 -1.8(6)
C34 C35 C36 C31 -0.7(6)
C32 C31 C36 C35 3.7(6)
C30 C31 C36 C35 -179.5(4)
C5 C6 C37 C42 102.2(4)
C7 C6 C37 C42 -80.5(5)
C5 C6 C37 C38 -75.2(5)
C7 C6 C37 C38 102.2(4)
C42 C37 C38 C39 -4.0(6)
C6 C37 C38 C39 173.3(3)
C42 C37 C38 C43 174.9(4)
C6 C37 C38 C43 -7.8(6)
C37 C38 C39 C40 1.3(6)
C43 C38 C39 C40 -177.6(4)
C38 C39 C40 C41 2.2(6)
C38 C39 C40 C44 -177.2(4)
C39 C40 C41 C42 -3.1(6)
C44 C40 C41 C42 176.3(4)
C38 C37 C42 C41 3.2(5)
C6 C37 C42 C41 -174.1(3)
C38 C37 C42 C45 -177.8(4)
C6 C37 C42 C45 4.9(5)
C40 C41 C42 C37 0.5(6)
C40 C41 C42 C45 -178.6(4)
C10 C11 C46 C47 71.2(5)
C12 C11 C46 C47 -101.2(4)
C10 C11 C46 C51 -114.3(4)
C12 C11 C46 C51 73.3(5)
C51 C46 C47 C48 -1.2(5)
C11 C46 C47 C48 173.3(3)
C46 C47 C48 C49 1.1(5)
C46 C47 C48 C52 -178.6(3)
C47 C48 C49 C50 0.2(5)
C52 C48 C49 C50 179.9(3)
C48 C49 C50 C51 -1.4(5)
C48 C49 C50 C56 179.5(3)
C47 C46 C51 C50 -0.1(5)
C11 C46 C51 C50 -174.5(3)
C49 C50 C51 C46 1.3(5)
C56 C50 C51 C46 -179.6(3)
C49 C48 C52 C53 -121.1(4)
C47 C48 C52 C53 58.5(5)
C49 C48 C52 C55 0.3(5)
C47 C48 C52 C55 180.0(4)
C49 C48 C52 C54 118.9(4)
C47 C48 C52 C54 -61.4(5)
C51 C50 C56 C58 -114.4(5)
C49 C50 C56 C58 64.7(6)
C51 C50 C56 C57 9.0(6)
C49 C50 C56 C57 -171.9(4)
C51 C50 C56 C59 127.5(4)
C49 C50 C56 C59 -53.5(5)
C17 C16 C60 C65 -109.0(4)
C15 C16 C60 C65 77.0(5)
C17 C16 C60 C61 73.5(5)
C15 C16 C60 C61 -100.5(4)
C65 C60 C61 C62 2.7(5)
C16 C60 C61 C62 -179.9(3)
C65 C60 C61 C66 -175.0(3)
C16 C60 C61 C66 2.4(5)
C60 C61 C62 C63 -0.9(6)
C66 C61 C62 C63 176.8(4)
C61 C62 C63 C64 -2.6(7)
C61 C62 C63 C67 178.5(5)
C62 C63 C64 C65 4.4(7)
C67 C63 C64 C65 -176.7(5)
C61 C60 C65 C64 -0.9(6)
C16 C60 C65 C64 -178.4(3)
C61 C60 C65 C68 179.9(4)
C16 C60 C65 C68 2.5(5)
C63 C64 C65 C60 -2.7(6)
C63 C64 C65 C68 176.4(4)
