#------------------------------------------------------------------------------
#$Date: 2019-08-21 10:00:15 +0300 (Wed, 21 Aug 2019) $
#$Revision: 217633 $
#$URL: file:///home/coder/svn-repositories/cod/cif/1/54/76/1547617.cif $
#------------------------------------------------------------------------------
#
# This file is available in the Crystallography Open Database (COD),
# http://www.crystallography.net/
#
# All data on this site have been placed in the public domain by the
# contributors.
#
data_1547617
loop_
_publ_author_name
'Osuka, Atsuhiro'
'Fujimoto, Keisuke'
_publ_section_title
;
 Effective stabilization of a planar phosphorus(III) center embedded in a
 porphyrin-based fused aromatic skeleton
;
_journal_name_full               'Chem. Sci.'
_journal_paper_doi               10.1039/C7SC03882H
_journal_year                    2017
_chemical_formula_moiety         'C128 H114 N8 P2 Ni2, 4(C H Cl3)'
_chemical_formula_sum            'C132 H118 Cl12 N8 Ni2 P2'
_chemical_formula_weight         2421.10
_space_group_crystal_system      monoclinic
_space_group_IT_number           14
_space_group_name_Hall           '-P 2ybc'
_space_group_name_H-M_alt        'P 1 21/c 1'
_symmetry_space_group_name_Hall  '-P 2ybc'
_symmetry_space_group_name_H-M   'P 1 21/c 1'
_atom_sites_solution_hydrogens   geom
_audit_creation_method           SHELXL-2014/7
_audit_update_record
;
2017-09-01 deposited with the CCDC.
2017-10-06 downloaded from the CCDC.
;
_cell_angle_alpha                90
_cell_angle_beta                 95.009(3)
_cell_angle_gamma                90
_cell_formula_units_Z            2
_cell_length_a                   12.6212(19)
_cell_length_b                   16.587(2)
_cell_length_c                   27.567(4)
_cell_measurement_reflns_used    5364
_cell_measurement_temperature    93(2)
_cell_measurement_theta_max      68.3
_cell_measurement_theta_min      25.7
_cell_volume                     5749.1(14)
_computing_structure_refinement  'SHELXL-2014/7 (Sheldrick, 2014)'
_diffrn_ambient_temperature      93(2)
_diffrn_detector_area_resol_mean 5.8140
_diffrn_measured_fraction_theta_full 0.986
_diffrn_measured_fraction_theta_max 0.985
_diffrn_measurement_device_type  'Rigaku XtaLAB P200'
_diffrn_measurement_method       \w
_diffrn_radiation_type           CuK\a
_diffrn_radiation_wavelength     1.54187
_diffrn_reflns_av_R_equivalents  0.0306
_diffrn_reflns_av_unetI/netI     0.0253
_diffrn_reflns_Laue_measured_fraction_full 0.986
_diffrn_reflns_Laue_measured_fraction_max 0.985
_diffrn_reflns_limit_h_max       15
_diffrn_reflns_limit_h_min       -14
_diffrn_reflns_limit_k_max       19
_diffrn_reflns_limit_k_min       -19
_diffrn_reflns_limit_l_max       30
_diffrn_reflns_limit_l_min       -33
_diffrn_reflns_number            37277
_diffrn_reflns_point_group_measured_fraction_full 0.986
_diffrn_reflns_point_group_measured_fraction_max 0.985
_diffrn_reflns_theta_full        67.687
_diffrn_reflns_theta_max         68.332
_diffrn_reflns_theta_min         6.670
_exptl_absorpt_coefficient_mu    3.670
_exptl_absorpt_correction_T_max  0.929
_exptl_absorpt_correction_T_min  0.435
_exptl_absorpt_correction_type   multi-scan
_exptl_absorpt_process_details   'REQAB (Rigaku, 1998)'
_exptl_crystal_colour            red
_exptl_crystal_density_diffrn    1.399
_exptl_crystal_description       Prism
_exptl_crystal_F_000             2512
_exptl_crystal_size_max          0.240
_exptl_crystal_size_mid          0.200
_exptl_crystal_size_min          0.020
_refine_diff_density_max         0.983
_refine_diff_density_min         -1.436
_refine_diff_density_rms         0.108
_refine_ls_extinction_method     none
_refine_ls_goodness_of_fit_ref   1.079
_refine_ls_hydrogen_treatment    constr
_refine_ls_matrix_type           full
_refine_ls_number_parameters     740
_refine_ls_number_reflns         10386
_refine_ls_number_restraints     144
_refine_ls_restrained_S_all      1.111
_refine_ls_R_factor_all          0.0835
_refine_ls_R_factor_gt           0.0723
_refine_ls_shift/su_max          0.001
_refine_ls_shift/su_mean         0.000
_refine_ls_structure_factor_coef Fsqd
_refine_ls_weighting_details
'w=1/[\s^2^(Fo^2^)+(0.1478P)^2^+6.6858P] where P=(Fo^2^+2Fc^2^)/3'
_refine_ls_weighting_scheme      calc
_refine_ls_wR_factor_gt          0.2098
_refine_ls_wR_factor_ref         0.2218
_reflns_Friedel_coverage         0.000
_reflns_number_gt                8519
_reflns_number_total             10386
_reflns_threshold_expression     'I > 2\s(I)'
_cod_data_source_file            c7sc03882h2.cif
_cod_data_source_block           0603kf
_cod_depositor_comments
;

2019-08-14
Z value and formula fixed to values more according to usual
chemical conventions.                 miguel
;
_cod_original_formula_sum            'C66 H59 Cl6 N4 Ni P'
_cod_original_formula_weight         1210.55
_cod_original_formula_moiety         'C64 H57 N4 P Ni, 2(C H Cl3)'
_cod_original_formula_units_Z            4
_cod_database_code               1547617
_shelx_shelxl_version_number     2014/7
_shelx_space_group_comment
;
The symmetry employed for this shelxl refinement is uniquely defined
by the following loop, which should always be used as a source of
symmetry information in preference to the above space-group names.
They are only intended as comments.
;
_shelx_estimated_absorpt_t_min   0.473
_shelx_estimated_absorpt_t_max   0.930
_shelx_res_file
;

    0603kf.res created by SHELXL-2014/7

TITL 0603kf
REM  Yadorkari-X generated
CELL 1.54187 12.6212 16.5870 27.5670 90.0000 95.0090 90.0000
ZERR 4.0 0.0019 0.0020 0.0040 0.0000 0.0030 0.0000
LATT 1
SYMM -X, 1/2+Y, 1/2-Z
REM  SPGR P21/c monoclinic
SFAC C H N P Ni Cl
UNIT 264 236 16 4 4 24
SIZE 0.24 0.20 0.02
TEMP -180.0
L.S. 50
FMAP 2
PLAN -20
ACTA
CONF
HTAB
LIST 4
BOND $H
MERG 2
OMIT    1    2    5
OMIT    2    1    1
OMIT   -1    2    2
OMIT    1    5    6
OMIT   -1    1    5
OMIT    3    1    9
OMIT    3    6    0
OMIT    2    2    2
OMIT    0    3    1
OMIT   -3    0   10
OMIT    0    2    4
OMIT    2    1    6
OMIT    2    0    8
OMIT   -5    3    2
OMIT   -2    2    7
OMIT   -3    6    4
OMIT   -4    4    1
OMIT    4    4    2
OMIT    1    4    2
OMIT   -1    4    9
OMIT    2    7    1
OMIT   -4    2    2
OMIT   -2    5    3
OMIT    4    0    0
OMIT    0    2    7
OMIT   -5    0   10
OMIT    4    3    3
OMIT   -4    3    2
OMIT    1    3    2
EQIV $1 -X, 1-Y, -Z
EQIV $2 -1+X, +Y, +Z
EQIV $3 1-X, 1/2+Y, 1/2-Z

SADI 0.03 C65 Cl1 C65 Cl2 C65 Cl3
SADI 0.03 Cl1 Cl2 Cl2 Cl3 Cl3 Cl1
SADI 0.03 C66 Cl4 C66 Cl5 C66 Cl6
SADI 0.03 Cl4 Cl5 Cl5 Cl6 Cl6 Cl4
SADI 0.03 C67 Cl7 C67 Cl8 C67 Cl9
SADI 0.03 Cl7 Cl8 Cl8 Cl9 Cl9 Cl7
SIMU 0.02 C65 Cl1 Cl2 Cl3
ISOR 0.02 C65 Cl1 Cl2 Cl3
SIMU 0.02 C66 Cl4 Cl5 Cl6
ISOR 0.02 C66 Cl4 Cl5 Cl6
SIMU 0.02 C67 Cl7 Cl8 Cl9
ISOR 0.02 C67 Cl7 Cl8 Cl9
HTAB C66 Cl4_$1
HTAB C68 Cl9_$2
HTAB C66 Cl4_$1
HTAB C68 Cl9_$2
HTAB C66 Cl4_$1

WGHT    0.147800    6.685800
FVAR       1.30767   0.46008
NI1   5    0.552186    0.539289    0.389243    11.00000    0.02343    0.01091 =
         0.02269   -0.00119    0.00655    0.00525
P1    4    0.308148    0.472788    0.522350    11.00000    0.02233    0.03209 =
         0.01861    0.00062    0.00371    0.00728
N1    3    0.478225    0.441773    0.406260    11.00000    0.02165    0.01599 =
         0.02060   -0.00216    0.00414    0.00604
N2    3    0.642734    0.475740    0.351243    11.00000    0.02201    0.01189 =
         0.02103    0.00073    0.00338    0.00225
N3    3    0.619445    0.637044    0.368921    11.00000    0.02513    0.01303 =
         0.02344   -0.00040    0.00364    0.00584
N4    3    0.454780    0.603169    0.424546    11.00000    0.02831    0.01370 =
         0.02842    0.00060    0.00426    0.00726
C1    1    0.407771    0.433771    0.441100    11.00000    0.01959    0.02073 =
         0.01971    0.00163    0.00191    0.00577
C2    1    0.363507    0.353949    0.440867    11.00000    0.02195    0.01795 =
         0.02560    0.00549    0.00241    0.00486
C3    1    0.409955    0.312806    0.405826    11.00000    0.02611    0.01547 =
         0.02847    0.00122    0.00601    0.00123
AFIX  43
H1    2    0.396683    0.258293    0.396628    11.00000   -1.20000
AFIX   0
C4    1    0.482054    0.366175    0.385418    11.00000    0.02327    0.01464 =
         0.02675   -0.00110    0.00294    0.00406
C5    1    0.552658    0.343803    0.351799    11.00000    0.02423    0.01329 =
         0.02209   -0.00218    0.00446    0.00244
C6    1    0.630100    0.395675    0.337863    11.00000    0.02306    0.01430 =
         0.02153   -0.00384    0.00329    0.00292
C7    1    0.712388    0.371624    0.308157    11.00000    0.02650    0.01588 =
         0.02707   -0.00727    0.00579    0.00382
AFIX  43
H2    2    0.720521    0.319860    0.294208    11.00000   -1.20000
AFIX   0
C8    1    0.776049    0.435922    0.303663    11.00000    0.02168    0.01951 =
         0.02419   -0.00368    0.00616    0.00426
AFIX  43
H3    2    0.838037    0.437856    0.286470    11.00000   -1.20000
AFIX   0
C9    1    0.731994    0.501200    0.329964    11.00000    0.02118    0.01485 =
         0.01836    0.00029    0.00151    0.00320
C10   1    0.770428    0.579822    0.329638    11.00000    0.02123    0.01668 =
         0.01972    0.00127    0.00104    0.00246
C11   1    0.714339    0.643760    0.347630    11.00000    0.02557    0.01431 =
         0.02168    0.00082    0.00055    0.00204
C12   1    0.743150    0.727354    0.343053    11.00000    0.03151    0.01453 =
         0.03020    0.00149    0.00131   -0.00141
AFIX  43
H4    2    0.806566    0.747784    0.331447    11.00000   -1.20000
AFIX   0
C13   1    0.662298    0.770801    0.358500    11.00000    0.03619    0.01165 =
         0.03512   -0.00025   -0.00070    0.00311
AFIX  43
H5    2    0.656952    0.827931    0.358373    11.00000   -1.20000
AFIX   0
C14   1    0.586265    0.716035    0.375049    11.00000    0.03151    0.01539 =
         0.02647   -0.00112    0.00099    0.00736
C15   1    0.494931    0.739412    0.396074    11.00000    0.03311    0.01505 =
         0.03047   -0.00219    0.00137    0.00878
C16   1    0.436038    0.685681    0.420800    11.00000    0.03235    0.01835 =
         0.02967   -0.00280    0.00373    0.01312
C17   1    0.352538    0.707695    0.449675    11.00000    0.03733    0.02201 =
         0.03621   -0.00524    0.00805    0.01580
AFIX  43
H6    2    0.323200    0.760121    0.452176    11.00000   -1.20000
AFIX   0
C18   1    0.322170    0.640613    0.473018    11.00000    0.03099    0.02809 =
         0.02725   -0.00372    0.00530    0.01274
C19   1    0.387698    0.576232    0.456923    11.00000    0.02366    0.02447 =
         0.02258   -0.00263    0.00417    0.01007
C20   1    0.371653    0.495927    0.468970    11.00000    0.01922    0.02514 =
         0.02064    0.00058    0.00244    0.00691
C21   1    0.279968    0.327655    0.471206    11.00000    0.02037    0.02710 =
         0.02477    0.00785    0.00096    0.00519
C22   1    0.244916    0.376524    0.508319    11.00000    0.02248    0.03698 =
         0.01970    0.00396   -0.00151    0.00414
C23   1    0.172123    0.344249    0.538800    11.00000    0.02721    0.05530 =
         0.02439   -0.00079    0.00560   -0.00448
AFIX  43
H7    2    0.151747    0.375500    0.565328    11.00000   -1.20000
AFIX   0
C24   1    0.129693    0.268644    0.531196    11.00000    0.03159    0.05769 =
         0.02910    0.00767    0.00614   -0.00945
AFIX  43
H8    2    0.080088    0.248377    0.552170    11.00000   -1.20000
AFIX   0
C25   1    0.159315    0.221549    0.492720    11.00000    0.02907    0.03650 =
         0.03951    0.01011    0.00381   -0.00456
AFIX  43
H9    2    0.128776    0.169775    0.486689    11.00000   -1.20000
AFIX   0
C26   1    0.233911    0.251424    0.463455    11.00000    0.02535    0.03090 =
         0.03053    0.00642    0.00441    0.00318
AFIX  43
H10   2    0.254470    0.219271    0.437344    11.00000   -1.20000
AFIX   0
C27   1    0.235362    0.629197    0.504403    11.00000    0.02813    0.03933 =
         0.02137   -0.00499    0.00286    0.01575
C28   1    0.213906    0.554632    0.525376    11.00000    0.02865    0.04469 =
         0.01797   -0.00048    0.00400    0.01485
C29   1    0.128998    0.548862    0.554881    11.00000    0.04131    0.06325 =
         0.03297    0.01158    0.01715    0.01961
AFIX  43
H11   2    0.115086    0.498844    0.569868    11.00000   -1.20000
AFIX   0
C30   1    0.065383    0.614522    0.562507    11.00000    0.04547    0.07993 =
         0.04023    0.00695    0.02113    0.02959
AFIX  43
H12   2    0.007430    0.609149    0.582065    11.00000   -1.20000
AFIX   0
C31   1    0.085851    0.687942    0.541764    11.00000    0.03791    0.06604 =
         0.02773   -0.00705    0.00493    0.02939
AFIX  43
H13   2    0.042306    0.733263    0.547060    11.00000   -1.20000
AFIX   0
C32   1    0.169852    0.695140    0.513312    11.00000    0.03473    0.04644 =
         0.02676   -0.00818    0.00230    0.02020
AFIX  43
H14   2    0.183854    0.745989    0.499356    11.00000   -1.20000
AFIX   0
C33   1    0.544788    0.260641    0.330191    11.00000    0.02277    0.01378 =
         0.02691   -0.00250    0.00796   -0.00109
C34   1    0.607639    0.197661    0.349563    11.00000    0.03784    0.02061 =
         0.03266   -0.00544   -0.00021    0.00504
C35   1    0.600173    0.122369    0.326640    11.00000    0.04355    0.01668 =
         0.04226   -0.00414   -0.00030    0.00832
AFIX  43
H15   2    0.644305    0.079589    0.339354    11.00000   -1.20000
AFIX   0
C36   1    0.530300    0.108454    0.285961    11.00000    0.03408    0.01875 =
         0.03492   -0.00474    0.01207   -0.00379
C37   1    0.468501    0.171350    0.267724    11.00000    0.03128    0.02006 =
         0.03084   -0.00302    0.00327   -0.00595
AFIX  43
H16   2    0.420557    0.162710    0.239684    11.00000   -1.20000
AFIX   0
C38   1    0.473927    0.247612    0.289105    11.00000    0.02594    0.01711 =
         0.03163   -0.00175    0.00374   -0.00279
C39   1    0.683292    0.209857    0.394129    11.00000    0.06867    0.02929 =
         0.05246   -0.00899   -0.02273    0.01795
AFIX  33
H17   2    0.720584    0.159222    0.402420    11.00000   -1.50000
H18   2    0.735155    0.251616    0.387662    11.00000   -1.50000
H19   2    0.643484    0.226689    0.421374    11.00000   -1.50000
AFIX   0
C40   1    0.521967    0.026247    0.261834    11.00000    0.04733    0.02051 =
         0.04489   -0.00962    0.01045   -0.00310
AFIX  33
H20   2    0.571486   -0.011131    0.279558    11.00000   -1.50000
H21   2    0.449171    0.005885    0.262294    11.00000   -1.50000
H22   2    0.539860    0.030870    0.228061    11.00000   -1.50000
AFIX   0
C41   1    0.406071    0.315596    0.267782    11.00000    0.05180    0.02337 =
         0.05779   -0.00328   -0.02377    0.00662
AFIX  33
H23   2    0.420192    0.364348    0.287368    11.00000   -1.50000
H24   2    0.422981    0.325732    0.234295    11.00000   -1.50000
H25   2    0.330833    0.301000    0.267790    11.00000   -1.50000
AFIX   0
C42   1    0.869275    0.595184    0.305006    11.00000    0.02137    0.01458 =
         0.02643   -0.00172    0.00124   -0.00090
C43   1    0.964722    0.561087    0.323037    11.00000    0.02499    0.01670 =
         0.02867    0.00253   -0.00176   -0.00113
AFIX  43
H26   2    0.967730    0.530937    0.352425    11.00000   -1.20000
AFIX   0
C44   1    1.056928    0.570148    0.298824    11.00000    0.02202    0.02037 =
         0.04370    0.00025   -0.00055   -0.00325
C45   1    1.049416    0.616164    0.256188    11.00000    0.02658    0.02245 =
         0.03891   -0.00060    0.00804   -0.00577
AFIX  43
H27   2    1.111302    0.623303    0.239363    11.00000   -1.20000
AFIX   0
C46   1    0.955031    0.651862    0.237452    11.00000    0.03014    0.01754 =
         0.03024    0.00114    0.00503   -0.00350
C47   1    0.865063    0.640539    0.262018    11.00000    0.02567    0.01604 =
         0.02709    0.00359   -0.00038   -0.00044
AFIX  43
H28   2    0.799533    0.663868    0.249535    11.00000   -1.20000
AFIX   0
C48   1    1.162423    0.529051    0.315530    11.00000    0.02284    0.03496 =
         0.07271    0.01246   -0.00293    0.00174
C49   1    1.156560    0.478201    0.359863    11.00000    0.04039    0.06974 =
         0.09076    0.03508   -0.00931    0.01256
AFIX  33
H29   2    1.099229    0.438606    0.354038    11.00000   -1.50000
H30   2    1.224341    0.450060    0.367194    11.00000   -1.50000
H31   2    1.142258    0.512540    0.387476    11.00000   -1.50000
AFIX   0
C50   1    1.191581    0.471636    0.273565    11.00000    0.04166    0.04352 =
         0.09200    0.00246    0.00861    0.01070
AFIX  33
H32   2    1.196191    0.502965    0.243683    11.00000   -1.50000
H33   2    1.260256    0.445845    0.282782    11.00000   -1.50000
H34   2    1.136532    0.430187    0.267983    11.00000   -1.50000
AFIX   0
C51   1    1.250355    0.591355    0.322953    11.00000    0.03008    0.06522 =
         0.08306    0.00832   -0.01165   -0.00966
AFIX  33
H35   2    1.252350    0.623795    0.293335    11.00000   -1.50000
H36   2    1.236715    0.626497    0.350300    11.00000   -1.50000
H37   2    1.318798    0.564016    0.330018    11.00000   -1.50000
AFIX   0
C52   1    0.953055    0.703185    0.190469    11.00000    0.04267    0.03556 =
         0.03709    0.01257    0.01247   -0.00513
C53   1    0.976046    0.649207    0.147816    11.00000    0.08755    0.07536 =
         0.03895    0.00947    0.02179    0.01759
AFIX  33
H38   2    0.922254    0.606557    0.143837    11.00000   -1.50000
H39   2    0.974001    0.681494    0.117977    11.00000   -1.50000
H40   2    1.046649    0.624900    0.154237    11.00000   -1.50000
AFIX   0
C54   1    1.034424    0.770586    0.198260    11.00000    0.04494    0.05886 =
         0.08242    0.03948   -0.00935   -0.02329
AFIX  33
H41   2    1.017313    0.803984    0.225843    11.00000   -1.50000
H42   2    1.105524    0.747309    0.205109    11.00000   -1.50000
H43   2    1.032876    0.803903    0.168848    11.00000   -1.50000
AFIX   0
C55   1    0.844388    0.741769    0.177066    11.00000    0.04767    0.03938 =
         0.03427    0.01289   -0.00435   -0.01104
AFIX  33
H44   2    0.790393    0.699464    0.171840    11.00000   -1.50000
H45   2    0.826236    0.777127    0.203592    11.00000   -1.50000
H46   2    0.846896    0.773440    0.147178    11.00000   -1.50000
AFIX   0
C56   1    0.463480    0.826568    0.394092    11.00000    0.03298    0.01579 =
         0.03518   -0.00075    0.00480    0.00896
C57   1    0.499286    0.879731    0.430959    11.00000    0.05430    0.02477 =
         0.04191   -0.00645   -0.00365    0.01787
C58   1    0.468040    0.960308    0.427482    11.00000    0.06354    0.02211 =
         0.04813   -0.01241    0.00010    0.01276
AFIX  43
H47   2    0.494199    0.996924    0.452189    11.00000   -1.20000
AFIX   0
C59   1    0.400227    0.988469    0.389212    11.00000    0.04540    0.01865 =
         0.04553    0.00626    0.01575    0.01278
C60   1    0.365626    0.934907    0.352900    11.00000    0.03655    0.02790 =
         0.03631    0.00835    0.01164    0.01415
AFIX  43
H48   2    0.319898    0.953556    0.326038    11.00000   -1.20000
AFIX   0
C61   1    0.396250    0.853877    0.354696    11.00000    0.03333    0.02167 =
         0.03324    0.00433    0.00713    0.00817
C62   1    0.570919    0.850753    0.473686    11.00000    0.09426    0.04187 =
         0.05461   -0.02068   -0.02884    0.03404
AFIX  33
H49   2    0.588223    0.895845    0.495951    11.00000   -1.50000
H50   2    0.534798    0.808419    0.490777    11.00000   -1.50000
H51   2    0.636539    0.829063    0.462247    11.00000   -1.50000
AFIX   0
C63   1    0.364575    1.075544    0.387193    11.00000    0.07054    0.02142 =
         0.05901    0.00530    0.01588    0.01801
AFIX  33
H52   2    0.396906    1.104287    0.415821    11.00000   -1.50000
H53   2    0.386785    1.100816    0.357585    11.00000   -1.50000
H54   2    0.286933    1.077953    0.386863    11.00000   -1.50000
AFIX   0
C64   1    0.356331    0.798438    0.314236    11.00000    0.05928    0.03700 =
         0.04495   -0.00346   -0.00966    0.01416
AFIX  33
H55   2    0.310457    0.828538    0.290086    11.00000   -1.50000
H56   2    0.416806    0.776033    0.298730    11.00000   -1.50000
H57   2    0.315622    0.754487    0.327431    11.00000   -1.50000
AFIX   0
CL4   6    0.073393    0.585313    0.039961    11.00000    0.11182    0.13481 =
         0.15864   -0.03613    0.02112    0.01117
CL5   6    0.256198    0.534071   -0.003514    11.00000    0.15153    0.36001 =
         0.37037   -0.15600    0.04777    0.06026
CL6   6    0.201749    0.465325    0.085298    11.00000    0.18330    0.15870 =
         0.41684   -0.01141   -0.08657    0.01495
C66   1    0.149859    0.513103    0.035290    11.00000    0.09471    0.15930 =
         0.26197   -0.01335   -0.05820    0.00039
AFIX  13
H58   2    0.105204    0.471364    0.017063    11.00000   -1.20000
PART 1
AFIX   0
C65   1    0.890678    0.359358    0.136817    21.00000    0.03652    0.04073 =
         0.04311    0.01094    0.00847    0.01219
AFIX  13
H60   2    0.812532    0.359241    0.126941    21.00000   -1.20000
AFIX   0
CL1   6    0.949825    0.264277    0.147207    21.00000    0.04350    0.04087 =
         0.07034    0.02561    0.01124    0.01443
CL2   6    0.936150    0.432398    0.182440    21.00000    0.05999    0.06303 =
         0.05645    0.00005    0.00107   -0.01288
CL3   6    0.980651    0.405294    0.089814    21.00000    0.36045    0.25501 =
         0.20145    0.04894    0.11559    0.07577
PART 2
C67   1    0.916545    0.362345    0.135458   -21.00000    0.23658    0.19487 =
         0.18726    0.01865    0.02195   -0.00737
AFIX  13
H61   2    0.839068    0.359933    0.140432   -21.00000   -1.20000
AFIX   0
CL7   6    0.943638    0.266715    0.146583   -21.00000    0.13412    0.13899 =
         0.25304    0.04051    0.05152    0.00999
CL8   6    0.951570    0.426311    0.179893   -21.00000    0.31937    0.17563 =
         0.16203   -0.01412   -0.00078   -0.09994
CL9   6    0.903181    0.389118    0.077042   -21.00000    0.07869    0.05241 =
         0.05650    0.01086    0.00636   -0.00845
PART 0

HKLF 4 1 1 0 0 0 1 0 0 0 1

REM  0603kf
REM R1 =  0.0723 for    8519 Fo > 4sig(Fo)  and  0.0835 for all   10386 data
REM    740 parameters refined using    144 restraints

END

WGHT      0.1505      6.4923

REM Instructions for potential hydrogen bonds
HTAB C66 Cl4_$1

REM Highest difference peak  0.983,  deepest hole -1.436,  1-sigma level  0.108
Q1    1   0.1079  0.5187  0.0576  11.00000  0.05    0.98
Q2    1   0.0949  0.4074  0.1310  11.00000  0.05    0.84
Q3    1   0.0568  0.5970 -0.0082  11.00000  0.05    0.76
Q4    1   0.0698  0.4060  0.1726  11.00000  0.05    0.76
Q5    1   1.1817  0.5762  0.3800  11.00000  0.05    0.73
Q6    1   0.2621  0.5452 -0.0124  11.00000  0.05    0.67
Q7    1   0.1367  0.4204  0.1863  11.00000  0.05    0.65
Q8    1   0.8495  0.4077  0.1175  11.00000  0.05    0.57
Q9    1   0.0464  0.5355  0.0066  11.00000  0.05    0.56
Q10   1   1.1440  0.4408  0.3247  11.00000  0.05    0.54
Q11   1   0.3552  0.2978  0.2407  11.00000  0.05    0.48
Q12   1  -0.0853  0.5334  0.0424  11.00000  0.05    0.48
Q13   1   0.5762  0.5403  0.4133  11.00000  0.05    0.45
Q14   1   0.1199  0.5752 -0.0023  11.00000  0.05    0.41
Q15   1   1.0705  0.6786  0.1678  11.00000  0.05    0.40
Q16   1   0.5172  0.8399  0.4929  11.00000  0.05    0.39
Q17   1   0.4601  0.3579  0.2585  11.00000  0.05    0.39
Q18   1   0.3112  1.0804  0.4152  11.00000  0.05    0.38
Q19   1   0.8964  0.3052  0.1043  11.00000  0.05    0.36
Q20   1   0.3600  0.3386  0.2967  11.00000  0.05    0.35
;
_shelx_res_checksum              66280
loop_
_space_group_symop_operation_xyz
'x, y, z'
'-x, y+1/2, -z+1/2'
'-x, -y, -z'
'x, -y-1/2, z-1/2'
loop_
_atom_site_label
_atom_site_type_symbol
_atom_site_fract_x
_atom_site_fract_y
_atom_site_fract_z
_atom_site_U_iso_or_equiv
_atom_site_adp_type
_atom_site_occupancy
_atom_site_site_symmetry_order
_atom_site_calc_flag
_atom_site_refinement_flags_posn
_atom_site_refinement_flags_adp
_atom_site_refinement_flags_occupancy
_atom_site_disorder_assembly
_atom_site_disorder_group
Ni1 Ni 0.55219(4) 0.53929(3) 0.38924(2) 0.01875(18) Uani 1 1 d . . . . .
P1 P 0.30815(6) 0.47279(5) 0.52235(3) 0.0242(2) Uani 1 1 d . . . . .
N1 N 0.4782(2) 0.44177(15) 0.40626(9) 0.0193(5) Uani 1 1 d . . . . .
N2 N 0.6427(2) 0.47574(15) 0.35124(9) 0.0182(5) Uani 1 1 d . . . . .
N3 N 0.6194(2) 0.63704(15) 0.36892(9) 0.0204(5) Uani 1 1 d . . . . .
N4 N 0.4548(2) 0.60317(16) 0.42455(10) 0.0234(6) Uani 1 1 d . . . . .
C1 C 0.4078(2) 0.43377(19) 0.44110(11) 0.0200(6) Uani 1 1 d . . . . .
C2 C 0.3635(2) 0.35395(19) 0.44087(12) 0.0218(6) Uani 1 1 d . . . . .
C3 C 0.4100(2) 0.31281(19) 0.40583(12) 0.0231(7) Uani 1 1 d . . . . .
H1 H 0.3967 0.2583 0.3966 0.028 Uiso 1 1 calc R U . . .
C4 C 0.4821(2) 0.36618(18) 0.38542(12) 0.0215(6) Uani 1 1 d . . . . .
C5 C 0.5527(2) 0.34380(18) 0.35180(11) 0.0197(6) Uani 1 1 d . . . . .
C6 C 0.6301(2) 0.39568(18) 0.33786(11) 0.0195(6) Uani 1 1 d . . . . .
C7 C 0.7124(2) 0.37162(19) 0.30816(12) 0.0229(7) Uani 1 1 d . . . . .
H2 H 0.7205 0.3199 0.2942 0.028 Uiso 1 1 calc R U . . .
C8 C 0.7760(2) 0.43592(19) 0.30366(11) 0.0215(6) Uani 1 1 d . . . . .
H3 H 0.8380 0.4379 0.2865 0.026 Uiso 1 1 calc R U . . .
C9 C 0.7320(2) 0.50120(18) 0.32996(11) 0.0181(6) Uani 1 1 d . . . . .
C10 C 0.7704(2) 0.57982(18) 0.32964(11) 0.0193(6) Uani 1 1 d . . . . .
C11 C 0.7143(2) 0.64376(18) 0.34763(11) 0.0206(6) Uani 1 1 d . . . . .
C12 C 0.7432(3) 0.72735(19) 0.34305(12) 0.0255(7) Uani 1 1 d . . . . .
H4 H 0.8066 0.7478 0.3314 0.031 Uiso 1 1 calc R U . . .
C13 C 0.6623(3) 0.77080(19) 0.35850(13) 0.0279(7) Uani 1 1 d . . . . .
H5 H 0.6570 0.8279 0.3584 0.033 Uiso 1 1 calc R U . . .
C14 C 0.5863(3) 0.71603(19) 0.37505(12) 0.0245(7) Uani 1 1 d . . . . .
C15 C 0.4949(3) 0.73941(19) 0.39607(12) 0.0263(7) Uani 1 1 d . . . . .
C16 C 0.4360(3) 0.6857(2) 0.42080(12) 0.0267(7) Uani 1 1 d . . . . .
C17 C 0.3525(3) 0.7077(2) 0.44967(13) 0.0316(8) Uani 1 1 d . . . . .
H6 H 0.3232 0.7601 0.4522 0.038 Uiso 1 1 calc R U . . .
C18 C 0.3222(3) 0.6406(2) 0.47302(13) 0.0286(7) Uani 1 1 d . . . . .
C19 C 0.3877(2) 0.5762(2) 0.45692(11) 0.0234(7) Uani 1 1 d . . . . .
C20 C 0.3717(2) 0.4959(2) 0.46897(11) 0.0216(6) Uani 1 1 d . . . . .
C21 C 0.2800(2) 0.3277(2) 0.47121(12) 0.0241(7) Uani 1 1 d . . . . .
C22 C 0.2449(2) 0.3765(2) 0.50832(12) 0.0266(7) Uani 1 1 d . . . . .
C23 C 0.1721(3) 0.3442(3) 0.53880(13) 0.0354(8) Uani 1 1 d . . . . .
H7 H 0.1517 0.3755 0.5653 0.043 Uiso 1 1 calc R U . . .
C24 C 0.1297(3) 0.2686(3) 0.53120(14) 0.0393(9) Uani 1 1 d . . . . .
H8 H 0.0801 0.2484 0.5522 0.047 Uiso 1 1 calc R U . . .
C25 C 0.1593(3) 0.2215(2) 0.49272(14) 0.0350(8) Uani 1 1 d . . . . .
H9 H 0.1288 0.1698 0.4867 0.042 Uiso 1 1 calc R U . . .
C26 C 0.2339(3) 0.2514(2) 0.46346(13) 0.0288(7) Uani 1 1 d . . . . .
H10 H 0.2545 0.2193 0.4373 0.035 Uiso 1 1 calc R U . . .
C27 C 0.2354(3) 0.6292(2) 0.50440(12) 0.0296(8) Uani 1 1 d . . . . .
C28 C 0.2139(3) 0.5546(2) 0.52538(12) 0.0303(8) Uani 1 1 d . . . . .
C29 C 0.1290(3) 0.5489(3) 0.55488(15) 0.0450(10) Uani 1 1 d . . . . .
H11 H 0.1151 0.4988 0.5699 0.054 Uiso 1 1 calc R U . . .
C30 C 0.0654(4) 0.6145(3) 0.56251(16) 0.0542(13) Uani 1 1 d . . . . .
H12 H 0.0074 0.6091 0.5821 0.065 Uiso 1 1 calc R U . . .
C31 C 0.0859(3) 0.6879(3) 0.54176(14) 0.0438(10) Uani 1 1 d . . . . .
H13 H 0.0423 0.7333 0.5471 0.053 Uiso 1 1 calc R U . . .
C32 C 0.1699(3) 0.6951(3) 0.51331(13) 0.0360(9) Uani 1 1 d . . . . .
H14 H 0.1839 0.7460 0.4994 0.043 Uiso 1 1 calc R U . . .
C33 C 0.5448(2) 0.26064(18) 0.33019(12) 0.0208(6) Uani 1 1 d . . . . .
C34 C 0.6076(3) 0.1977(2) 0.34956(13) 0.0306(8) Uani 1 1 d . . . . .
C35 C 0.6002(3) 0.1224(2) 0.32664(14) 0.0344(8) Uani 1 1 d . . . . .
H15 H 0.6443 0.0796 0.3394 0.041 Uiso 1 1 calc R U . . .
C36 C 0.5303(3) 0.1085(2) 0.28596(13) 0.0287(7) Uani 1 1 d . . . . .
C37 C 0.4685(3) 0.1713(2) 0.26772(13) 0.0274(7) Uani 1 1 d . . . . .
H16 H 0.4206 0.1627 0.2397 0.033 Uiso 1 1 calc R U . . .
C38 C 0.4739(3) 0.24761(19) 0.28911(12) 0.0248(7) Uani 1 1 d . . . . .
C39 C 0.6833(4) 0.2099(3) 0.39413(17) 0.0518(12) Uani 1 1 d . . . . .
H17 H 0.7206 0.1592 0.4024 0.078 Uiso 1 1 calc R U . . .
H18 H 0.7352 0.2516 0.3877 0.078 Uiso 1 1 calc R U . . .
H19 H 0.6435 0.2267 0.4214 0.078 Uiso 1 1 calc R U . . .
C40 C 0.5220(3) 0.0262(2) 0.26183(15) 0.0372(9) Uani 1 1 d . . . . .
H20 H 0.5715 -0.0111 0.2796 0.056 Uiso 1 1 calc R U . . .
H21 H 0.4492 0.0059 0.2623 0.056 Uiso 1 1 calc R U . . .
H22 H 0.5399 0.0309 0.2281 0.056 Uiso 1 1 calc R U . . .
C41 C 0.4061(3) 0.3156(2) 0.26778(17) 0.0460(11) Uani 1 1 d . . . . .
H23 H 0.4202 0.3643 0.2874 0.069 Uiso 1 1 calc R U . . .
H24 H 0.4230 0.3257 0.2343 0.069 Uiso 1 1 calc R U . . .
H25 H 0.3308 0.3010 0.2678 0.069 Uiso 1 1 calc R U . . .
C42 C 0.8693(2) 0.59518(18) 0.30501(12) 0.0208(6) Uani 1 1 d . . . . .
C43 C 0.9647(3) 0.56109(19) 0.32304(12) 0.0237(7) Uani 1 1 d . . . . .
H26 H 0.9677 0.5309 0.3524 0.028 Uiso 1 1 calc R U . . .
C44 C 1.0569(3) 0.5701(2) 0.29882(14) 0.0289(7) Uani 1 1 d . . . . .
C45 C 1.0494(3) 0.6162(2) 0.25619(13) 0.0290(7) Uani 1 1 d . . . . .
H27 H 1.1113 0.6233 0.2394 0.035 Uiso 1 1 calc R U . . .
C46 C 0.9550(3) 0.65186(19) 0.23745(12) 0.0258(7) Uani 1 1 d . . . . .
C47 C 0.8651(3) 0.64054(18) 0.26202(12) 0.0231(7) Uani 1 1 d . . . . .
H28 H 0.7995 0.6639 0.2495 0.028 Uiso 1 1 calc R U . . .
C48 C 1.1624(3) 0.5291(2) 0.31553(18) 0.0439(10) Uani 1 1 d . . . . .
C49 C 1.1566(4) 0.4782(4) 0.3599(2) 0.0678(16) Uani 1 1 d . . . . .
H29 H 1.0992 0.4386 0.3540 0.102 Uiso 1 1 calc R U . . .
H30 H 1.2243 0.4501 0.3672 0.102 Uiso 1 1 calc R U . . .
H31 H 1.1423 0.5125 0.3875 0.102 Uiso 1 1 calc R U . . .
C50 C 1.1916(4) 0.4716(3) 0.2736(2) 0.0589(13) Uani 1 1 d . . . . .
H32 H 1.1962 0.5030 0.2437 0.088 Uiso 1 1 calc R U . . .
H33 H 1.2603 0.4458 0.2828 0.088 Uiso 1 1 calc R U . . .
H34 H 1.1365 0.4302 0.2680 0.088 Uiso 1 1 calc R U . . .
C51 C 1.2504(3) 0.5914(3) 0.3230(2) 0.0604(14) Uani 1 1 d . . . . .
H35 H 1.2524 0.6238 0.2933 0.091 Uiso 1 1 calc R U . . .
H36 H 1.2367 0.6265 0.3503 0.091 Uiso 1 1 calc R U . . .
H37 H 1.3188 0.5640 0.3300 0.091 Uiso 1 1 calc R U . . .
C52 C 0.9531(3) 0.7032(2) 0.19047(14) 0.0379(9) Uani 1 1 d . . . . .
C53 C 0.9760(5) 0.6492(4) 0.14782(18) 0.0663(15) Uani 1 1 d . . . . .
H38 H 0.9223 0.6066 0.1438 0.100 Uiso 1 1 calc R U . . .
H39 H 0.9740 0.6815 0.1180 0.100 Uiso 1 1 calc R U . . .
H40 H 1.0466 0.6249 0.1542 0.100 Uiso 1 1 calc R U . . .
C54 C 1.0344(4) 0.7706(3) 0.1983(2) 0.0630(15) Uani 1 1 d . . . . .
H41 H 1.0173 0.8040 0.2258 0.094 Uiso 1 1 calc R U . . .
H42 H 1.1055 0.7473 0.2051 0.094 Uiso 1 1 calc R U . . .
H43 H 1.0329 0.8039 0.1688 0.094 Uiso 1 1 calc R U . . .
C55 C 0.8444(3) 0.7418(3) 0.17707(15) 0.0409(9) Uani 1 1 d . . . . .
H44 H 0.7904 0.6995 0.1718 0.061 Uiso 1 1 calc R U . . .
H45 H 0.8262 0.7771 0.2036 0.061 Uiso 1 1 calc R U . . .
H46 H 0.8469 0.7734 0.1472 0.061 Uiso 1 1 calc R U . . .
C56 C 0.4635(3) 0.8266(2) 0.39409(13) 0.0279(7) Uani 1 1 d . . . . .
C57 C 0.4993(3) 0.8797(2) 0.43096(15) 0.0408(9) Uani 1 1 d . . . . .
C58 C 0.4680(4) 0.9603(2) 0.42748(16) 0.0449(10) Uani 1 1 d . . . . .
H47 H 0.4942 0.9969 0.4522 0.054 Uiso 1 1 calc R U . . .
C59 C 0.4002(3) 0.9885(2) 0.38921(15) 0.0358(8) Uani 1 1 d . . . . .
C60 C 0.3656(3) 0.9349(2) 0.35290(14) 0.0331(8) Uani 1 1 d . . . . .
H48 H 0.3199 0.9536 0.3260 0.040 Uiso 1 1 calc R U . . .
C61 C 0.3962(3) 0.8539(2) 0.35470(13) 0.0292(7) Uani 1 1 d . . . . .
C62 C 0.5709(5) 0.8508(3) 0.47369(18) 0.0657(16) Uani 1 1 d . . . . .
H49 H 0.5882 0.8958 0.4960 0.098 Uiso 1 1 calc R U . . .
H50 H 0.5348 0.8084 0.4908 0.098 Uiso 1 1 calc R U . . .
H51 H 0.6365 0.8291 0.4622 0.098 Uiso 1 1 calc R U . . .
C63 C 0.3646(4) 1.0755(2) 0.38719(18) 0.0497(11) Uani 1 1 d . . . . .
H52 H 0.3969 1.1043 0.4158 0.075 Uiso 1 1 calc R U . . .
H53 H 0.3868 1.1008 0.3576 0.075 Uiso 1 1 calc R U . . .
H54 H 0.2869 1.0780 0.3869 0.075 Uiso 1 1 calc R U . . .
C64 C 0.3563(4) 0.7984(3) 0.31424(16) 0.0479(11) Uani 1 1 d . . . . .
H55 H 0.3105 0.8285 0.2901 0.072 Uiso 1 1 calc R U . . .
H56 H 0.4168 0.7760 0.2987 0.072 Uiso 1 1 calc R U . . .
H57 H 0.3156 0.7545 0.3274 0.072 Uiso 1 1 calc R U . . .
Cl4 Cl 0.0734(2) 0.58531(17) 0.03996(11) 0.1345(9) Uani 1 1 d D U . . .
Cl5 Cl 0.2562(4) 0.5341(4) -0.0035(3) 0.293(3) Uani 1 1 d D U . . .
Cl6 Cl 0.2017(4) 0.4653(3) 0.0853(3) 0.260(3) Uani 1 1 d D U . . .
C66 C 0.1499(7) 0.5131(8) 0.0353(5) 0.176(5) Uani 1 1 d D U . . .
H58 H 0.1052 0.4714 0.0171 0.212 Uiso 1 1 calc R U . . .
C65 C 0.8907(8) 0.3594(5) 0.1368(3) 0.040(2) Uani 0.460(10) 1 d D U P A 1
H60 H 0.8125 0.3592 0.1269 0.048 Uiso 0.460(10) 1 calc R U P A 1
Cl1 Cl 0.9498(3) 0.2643(2) 0.14721(14) 0.0512(12) Uani 0.460(10) 1 d D U P A 1
Cl2 Cl 0.9362(3) 0.4324(3) 0.18244(16) 0.0601(13) Uani 0.460(10) 1 d D U P A 1
Cl3 Cl 0.9807(19) 0.4053(8) 0.0898(5) 0.267(8) Uani 0.460(10) 1 d D U P A 1
C67 C 0.917(3) 0.3623(12) 0.1355(6) 0.206(11) Uani 0.540(10) 1 d D U P A 2
H61 H 0.8391 0.3599 0.1404 0.247 Uiso 0.540(10) 1 calc R U P A 2
Cl7 Cl 0.9436(8) 0.2667(6) 0.1466(4) 0.173(4) Uani 0.540(10) 1 d D U P A 2
Cl8 Cl 0.9516(12) 0.4263(7) 0.1799(4) 0.220(6) Uani 0.540(10) 1 d D U P A 2
Cl9 Cl 0.9032(2) 0.38912(16) 0.07704(10) 0.0625(12) Uani 0.540(10) 1 d D U P A
2
loop_
_atom_site_aniso_label
_atom_site_aniso_U_11
_atom_site_aniso_U_22
_atom_site_aniso_U_33
_atom_site_aniso_U_23
_atom_site_aniso_U_13
_atom_site_aniso_U_12
Ni1 0.0234(3) 0.0109(3) 0.0227(3) -0.00119(19) 0.0065(2) 0.00525(19)
P1 0.0223(4) 0.0321(5) 0.0186(4) 0.0006(3) 0.0037(3) 0.0073(3)
N1 0.0216(12) 0.0160(12) 0.0206(12) -0.0022(10) 0.0041(10) 0.0060(10)
N2 0.0220(12) 0.0119(12) 0.0210(13) 0.0007(10) 0.0034(10) 0.0023(10)
N3 0.0251(13) 0.0130(12) 0.0234(13) -0.0004(10) 0.0036(10) 0.0058(10)
N4 0.0283(13) 0.0137(13) 0.0284(14) 0.0006(10) 0.0043(11) 0.0073(10)
C1 0.0196(14) 0.0207(15) 0.0197(15) 0.0016(12) 0.0019(11) 0.0058(12)
C2 0.0220(14) 0.0179(15) 0.0256(16) 0.0055(12) 0.0024(12) 0.0049(12)
C3 0.0261(15) 0.0155(15) 0.0285(16) 0.0012(12) 0.0060(13) 0.0012(12)
C4 0.0233(14) 0.0146(14) 0.0268(16) -0.0011(12) 0.0029(12) 0.0041(12)
C5 0.0242(14) 0.0133(14) 0.0221(15) -0.0022(12) 0.0045(12) 0.0024(11)
C6 0.0231(14) 0.0143(14) 0.0215(15) -0.0038(11) 0.0033(12) 0.0029(11)
C7 0.0265(15) 0.0159(15) 0.0271(16) -0.0073(12) 0.0058(13) 0.0038(12)
C8 0.0217(14) 0.0195(15) 0.0242(15) -0.0037(12) 0.0062(12) 0.0043(12)
C9 0.0212(14) 0.0149(14) 0.0184(14) 0.0003(11) 0.0015(11) 0.0032(11)
C10 0.0212(14) 0.0167(15) 0.0197(14) 0.0013(11) 0.0010(12) 0.0025(11)
C11 0.0256(15) 0.0143(15) 0.0217(15) 0.0008(12) 0.0006(12) 0.0020(12)
C12 0.0315(16) 0.0145(15) 0.0302(17) 0.0015(13) 0.0013(13) -0.0014(12)
C13 0.0362(18) 0.0117(14) 0.0351(18) -0.0002(13) -0.0007(14) 0.0031(13)
C14 0.0315(16) 0.0154(15) 0.0265(16) -0.0011(12) 0.0010(13) 0.0074(13)
C15 0.0331(17) 0.0151(16) 0.0305(17) -0.0022(13) 0.0014(14) 0.0088(13)
C16 0.0323(17) 0.0183(16) 0.0297(17) -0.0028(13) 0.0037(14) 0.0131(13)
C17 0.0373(18) 0.0220(17) 0.0362(19) -0.0052(14) 0.0080(15) 0.0158(14)
C18 0.0310(17) 0.0281(18) 0.0273(17) -0.0037(14) 0.0053(14) 0.0127(14)
C19 0.0237(15) 0.0245(17) 0.0226(16) -0.0026(13) 0.0042(12) 0.0101(13)
C20 0.0192(14) 0.0251(16) 0.0206(15) 0.0006(13) 0.0024(12) 0.0069(12)
C21 0.0204(14) 0.0271(17) 0.0248(16) 0.0079(13) 0.0010(12) 0.0052(12)
C22 0.0225(15) 0.0370(19) 0.0197(15) 0.0040(14) -0.0015(12) 0.0041(14)
C23 0.0272(17) 0.055(2) 0.0244(17) -0.0008(16) 0.0056(14) -0.0045(16)
C24 0.0316(18) 0.058(3) 0.0291(18) 0.0077(18) 0.0061(15) -0.0095(18)
C25 0.0291(17) 0.037(2) 0.040(2) 0.0101(16) 0.0038(15) -0.0046(15)
C26 0.0254(16) 0.0309(18) 0.0305(18) 0.0064(14) 0.0044(14) 0.0032(14)
C27 0.0281(16) 0.039(2) 0.0214(16) -0.0050(14) 0.0029(13) 0.0157(15)
C28 0.0286(17) 0.045(2) 0.0180(15) -0.0005(14) 0.0040(13) 0.0149(15)
C29 0.041(2) 0.063(3) 0.033(2) 0.0116(19) 0.0171(17) 0.020(2)
C30 0.045(2) 0.080(3) 0.040(2) 0.007(2) 0.0211(19) 0.030(2)
C31 0.038(2) 0.066(3) 0.0277(19) -0.0071(19) 0.0049(16) 0.029(2)
C32 0.0347(18) 0.046(2) 0.0268(18) -0.0082(16) 0.0023(15) 0.0202(17)
C33 0.0228(14) 0.0138(14) 0.0269(16) -0.0025(12) 0.0080(12) -0.0011(11)
C34 0.0378(18) 0.0206(17) 0.0327(18) -0.0054(14) -0.0002(15) 0.0050(14)
C35 0.044(2) 0.0167(16) 0.042(2) -0.0041(15) -0.0003(16) 0.0083(14)
C36 0.0341(17) 0.0188(16) 0.0349(18) -0.0047(14) 0.0121(15) -0.0038(13)
C37 0.0313(16) 0.0201(16) 0.0308(17) -0.0030(13) 0.0033(14) -0.0060(13)
C38 0.0259(15) 0.0171(15) 0.0316(17) -0.0017(13) 0.0037(13) -0.0028(12)
C39 0.069(3) 0.029(2) 0.052(3) -0.0090(18) -0.023(2) 0.018(2)
C40 0.047(2) 0.0205(18) 0.045(2) -0.0096(16) 0.0104(18) -0.0031(15)
C41 0.052(2) 0.0234(19) 0.058(3) -0.0033(18) -0.024(2) 0.0066(17)
C42 0.0214(14) 0.0146(14) 0.0264(16) -0.0017(12) 0.0012(12) -0.0009(11)
C43 0.0250(15) 0.0167(15) 0.0287(17) 0.0025(13) -0.0018(13) -0.0011(12)
C44 0.0220(15) 0.0204(16) 0.044(2) 0.0003(14) -0.0005(14) -0.0033(13)
C45 0.0266(16) 0.0224(17) 0.0389(19) -0.0006(14) 0.0080(14) -0.0058(13)
C46 0.0301(16) 0.0175(15) 0.0302(17) 0.0011(13) 0.0050(14) -0.0035(13)
C47 0.0257(15) 0.0160(15) 0.0271(16) 0.0036(12) -0.0004(13) -0.0004(12)
C48 0.0228(17) 0.035(2) 0.073(3) 0.012(2) -0.0029(18) 0.0017(15)
C49 0.040(2) 0.070(3) 0.091(4) 0.035(3) -0.009(2) 0.013(2)
C50 0.042(2) 0.044(3) 0.092(4) 0.002(2) 0.009(2) 0.011(2)
C51 0.030(2) 0.065(3) 0.083(4) 0.008(3) -0.012(2) -0.010(2)
C52 0.043(2) 0.036(2) 0.037(2) 0.0126(16) 0.0125(17) -0.0051(17)
C53 0.088(4) 0.075(4) 0.039(2) 0.009(2) 0.022(3) 0.018(3)
C54 0.045(2) 0.059(3) 0.082(4) 0.039(3) -0.009(2) -0.023(2)
C55 0.048(2) 0.039(2) 0.034(2) 0.0129(17) -0.0044(17) -0.0110(18)
C56 0.0330(17) 0.0158(16) 0.0352(18) -0.0007(13) 0.0048(14) 0.0090(13)
C57 0.054(2) 0.0248(19) 0.042(2) -0.0065(16) -0.0036(18) 0.0179(17)
C58 0.064(3) 0.0221(19) 0.048(2) -0.0124(17) 0.000(2) 0.0128(18)
C59 0.045(2) 0.0187(17) 0.046(2) 0.0063(15) 0.0157(17) 0.0128(15)
C60 0.0366(18) 0.0279(18) 0.0363(19) 0.0083(15) 0.0116(15) 0.0142(15)
C61 0.0333(17) 0.0217(17) 0.0332(18) 0.0043(14) 0.0071(14) 0.0082(14)
C62 0.094(4) 0.042(3) 0.055(3) -0.021(2) -0.029(3) 0.034(3)
C63 0.071(3) 0.021(2) 0.059(3) 0.0053(18) 0.016(2) 0.0180(19)
C64 0.059(3) 0.037(2) 0.045(2) -0.0035(18) -0.010(2) 0.0142(19)
Cl4 0.1118(16) 0.135(2) 0.159(2) -0.0361(18) 0.0211(15) 0.0112(15)
Cl5 0.152(3) 0.360(8) 0.370(8) -0.156(6) 0.048(4) 0.060(4)
Cl6 0.183(4) 0.159(4) 0.417(8) -0.011(4) -0.087(5) 0.015(3)
C66 0.095(6) 0.159(9) 0.262(12) -0.013(9) -0.058(7) 0.000(6)
C65 0.037(4) 0.041(5) 0.043(5) 0.011(4) 0.008(4) 0.012(4)
Cl1 0.0435(19) 0.041(2) 0.070(2) 0.0256(16) 0.0112(15) 0.0144(15)
Cl2 0.060(2) 0.063(2) 0.056(2) 0.0001(17) 0.0011(14) -0.0129(16)
Cl3 0.36(2) 0.255(12) 0.201(10) 0.049(9) 0.116(12) 0.076(13)
C67 0.237(17) 0.195(16) 0.187(16) 0.019(14) 0.022(14) -0.007(14)
Cl7 0.134(7) 0.139(7) 0.253(11) 0.041(7) 0.052(7) 0.010(6)
Cl8 0.319(14) 0.176(9) 0.162(8) -0.014(7) -0.001(8) -0.100(9)
Cl9 0.079(2) 0.0524(17) 0.0565(16) 0.0109(10) 0.0064(12) -0.0085(12)
loop_
_atom_type_symbol
_atom_type_description
_atom_type_scat_dispersion_real
_atom_type_scat_dispersion_imag
_atom_type_scat_source
C C 0.0181 0.0091 'International Tables Vol C Tables 4.2.6.8 and 6.1.1.4'
H H 0.0000 0.0000 'International Tables Vol C Tables 4.2.6.8 and 6.1.1.4'
N N 0.0311 0.0180 'International Tables Vol C Tables 4.2.6.8 and 6.1.1.4'
P P 0.2955 0.4335 'International Tables Vol C Tables 4.2.6.8 and 6.1.1.4'
Ni Ni -3.0029 0.5091 'International Tables Vol C Tables 4.2.6.8 and 6.1.1.4'
Cl Cl 0.3639 0.7018 'International Tables Vol C Tables 4.2.6.8 and 6.1.1.4'
loop_
_geom_angle_atom_site_label_1
_geom_angle_atom_site_label_2
_geom_angle_atom_site_label_3
_geom_angle
N2 Ni1 N3 90.29(11)
N2 Ni1 N1 89.78(10)
N3 Ni1 N1 176.50(11)
N2 Ni1 N4 176.81(11)
N3 Ni1 N4 90.05(11)
N1 Ni1 N4 89.70(11)
C20 P1 C28 102.80(16)
C20 P1 C22 103.63(16)
C28 P1 C22 113.05(17)
C1 N1 C4 104.6(3)
C1 N1 Ni1 127.1(2)
C4 N1 Ni1 128.3(2)
C9 N2 C6 105.0(2)
C9 N2 Ni1 127.4(2)
C6 N2 Ni1 127.5(2)
C11 N3 C14 104.9(3)
C11 N3 Ni1 127.4(2)
C14 N3 Ni1 127.6(2)
C19 N4 C16 105.1(3)
C19 N4 Ni1 127.3(2)
C16 N4 Ni1 127.5(2)
N1 C1 C20 125.5(3)
N1 C1 C2 111.2(3)
C20 C1 C2 122.8(3)
C3 C2 C1 105.9(3)
C3 C2 C21 129.2(3)
C1 C2 C21 124.7(3)
C2 C3 C4 107.5(3)
C2 C3 H1 126.3
C4 C3 H1 126.3
N1 C4 C5 124.5(3)
N1 C4 C3 110.7(3)
C5 C4 C3 124.6(3)
C6 C5 C4 121.9(3)
C6 C5 C33 119.0(3)
C4 C5 C33 119.0(3)
C5 C6 N2 126.3(3)
C5 C6 C7 123.4(3)
N2 C6 C7 110.3(3)
C8 C7 C6 107.4(3)
C8 C7 H2 126.3
C6 C7 H2 126.3
C7 C8 C9 106.8(3)
C7 C8 H3 126.6
C9 C8 H3 126.6
N2 C9 C10 125.9(3)
N2 C9 C8 110.4(3)
C10 C9 C8 123.4(3)
C11 C10 C9 121.6(3)
C11 C10 C42 120.2(3)
C9 C10 C42 117.9(3)
N3 C11 C10 125.2(3)
N3 C11 C12 110.4(3)
C10 C11 C12 124.2(3)
C13 C12 C11 106.4(3)
C13 C12 H4 126.8
C11 C12 H4 126.8
C12 C13 C14 108.0(3)
C12 C13 H5 126.0
C14 C13 H5 126.0
C15 C14 N3 125.7(3)
C15 C14 C13 124.2(3)
N3 C14 C13 110.1(3)
C16 C15 C14 121.9(3)
C16 C15 C56 119.3(3)
C14 C15 C56 118.7(3)
C15 C16 N4 125.3(3)
C15 C16 C17 124.6(3)
N4 C16 C17 109.9(3)
C18 C17 C16 108.0(3)
C18 C17 H6 126.0
C16 C17 H6 126.0
C17 C18 C19 105.5(3)
C17 C18 C27 129.9(3)
C19 C18 C27 124.3(3)
N4 C19 C20 125.7(3)
N4 C19 C18 111.4(3)
C20 C19 C18 122.4(3)
C1 C20 C19 121.2(3)
C1 C20 P1 119.5(2)
C19 C20 P1 119.3(2)
C26 C21 C22 118.6(3)
C26 C21 C2 119.4(3)
C22 C21 C2 122.0(3)
C23 C22 C21 118.6(3)
C23 C22 P1 120.5(3)
C21 C22 P1 120.2(3)
C24 C23 C22 121.6(4)
C24 C23 H7 119.2
C22 C23 H7 119.2
C23 C24 C25 120.1(3)
C23 C24 H8 120.0
C25 C24 H8 120.0
C26 C25 C24 119.0(4)
C26 C25 H9 120.5
C24 C25 H9 120.5
C25 C26 C21 121.9(3)
C25 C26 H10 119.0
C21 C26 H10 119.0
C28 C27 C32 118.5(3)
C28 C27 C18 122.6(3)
C32 C27 C18 118.9(4)
C27 C28 C29 118.9(3)
C27 C28 P1 119.4(3)
C29 C28 P1 120.9(3)
C30 C29 C28 121.2(4)
C30 C29 H11 119.4
C28 C29 H11 119.4
C31 C30 C29 120.1(4)
C31 C30 H12 120.0
C29 C30 H12 120.0
C32 C31 C30 119.6(4)
C32 C31 H13 120.2
C30 C31 H13 120.2
C31 C32 C27 121.7(4)
C31 C32 H14 119.1
C27 C32 H14 119.1
C34 C33 C38 119.9(3)
C34 C33 C5 121.5(3)
C38 C33 C5 118.6(3)
C33 C34 C35 118.9(3)
C33 C34 C39 120.9(3)
C35 C34 C39 120.2(3)
C36 C35 C34 121.9(3)
C36 C35 H15 119.1
C34 C35 H15 119.1
C37 C36 C35 118.2(3)
C37 C36 C40 120.5(3)
C35 C36 C40 121.3(3)
C36 C37 C38 122.0(3)
C36 C37 H16 119.0
C38 C37 H16 119.0
C37 C38 C33 119.2(3)
C37 C38 C41 120.6(3)
C33 C38 C41 120.2(3)
C34 C39 H17 109.5
C34 C39 H18 109.5
H17 C39 H18 109.5
C34 C39 H19 109.5
H17 C39 H19 109.5
H18 C39 H19 109.5
C36 C40 H20 109.5
C36 C40 H21 109.5
H20 C40 H21 109.5
C36 C40 H22 109.5
H20 C40 H22 109.5
H21 C40 H22 109.5
C38 C41 H23 109.5
C38 C41 H24 109.5
H23 C41 H24 109.5
C38 C41 H25 109.5
H23 C41 H25 109.5
H24 C41 H25 109.5
C43 C42 C47 119.4(3)
C43 C42 C10 120.2(3)
C47 C42 C10 120.3(3)
C42 C43 C44 121.3(3)
C42 C43 H26 119.4
C44 C43 H26 119.4
C45 C44 C43 117.5(3)
C45 C44 C48 119.3(3)
C43 C44 C48 123.1(3)
C46 C45 C44 122.6(3)
C46 C45 H27 118.7
C44 C45 H27 118.7
C47 C46 C45 118.3(3)
C47 C46 C52 122.0(3)
C45 C46 C52 119.7(3)
C46 C47 C42 121.0(3)
C46 C47 H28 119.5
C42 C47 H28 119.5
C49 C48 C51 111.3(4)
C49 C48 C44 113.2(4)
C51 C48 C44 110.1(3)
C49 C48 C50 107.0(4)
C51 C48 C50 107.3(4)
C44 C48 C50 107.6(4)
C48 C49 H29 109.5
C48 C49 H30 109.5
H29 C49 H30 109.5
C48 C49 H31 109.5
H29 C49 H31 109.5
H30 C49 H31 109.5
C48 C50 H32 109.5
C48 C50 H33 109.5
H32 C50 H33 109.5
C48 C50 H34 109.5
H32 C50 H34 109.5
H33 C50 H34 109.5
C48 C51 H35 109.5
C48 C51 H36 109.5
H35 C51 H36 109.5
C48 C51 H37 109.5
H35 C51 H37 109.5
H36 C51 H37 109.5
C54 C52 C53 111.6(4)
C54 C52 C55 107.9(4)
C53 C52 C55 106.6(4)
C54 C52 C46 109.0(3)
C53 C52 C46 109.4(3)
C55 C52 C46 112.4(3)
C52 C53 H38 109.5
C52 C53 H39 109.5
H38 C53 H39 109.5
C52 C53 H40 109.5
H38 C53 H40 109.5
H39 C53 H40 109.5
C52 C54 H41 109.5
C52 C54 H42 109.5
H41 C54 H42 109.5
C52 C54 H43 109.5
H41 C54 H43 109.5
H42 C54 H43 109.5
C52 C55 H44 109.5
C52 C55 H45 109.5
H44 C55 H45 109.5
C52 C55 H46 109.5
H44 C55 H46 109.5
H45 C55 H46 109.5
C57 C56 C61 120.0(3)
C57 C56 C15 121.1(3)
C61 C56 C15 118.9(3)
C56 C57 C58 119.0(4)
C56 C57 C62 120.4(3)
C58 C57 C62 120.6(4)
C59 C58 C57 122.0(4)
C59 C58 H47 119.0
C57 C58 H47 119.0
C60 C59 C58 118.2(3)
C60 C59 C63 120.9(4)
C58 C59 C63 120.9(4)
C59 C60 C61 121.6(3)
C59 C60 H48 119.2
C61 C60 H48 119.2
C56 C61 C60 119.2(3)
C56 C61 C64 121.5(3)
C60 C61 C64 119.3(3)
C57 C62 H49 109.5
C57 C62 H50 109.5
H49 C62 H50 109.5
C57 C62 H51 109.5
H49 C62 H51 109.5
H50 C62 H51 109.5
C59 C63 H52 109.5
C59 C63 H53 109.5
H52 C63 H53 109.5
C59 C63 H54 109.5
H52 C63 H54 109.5
H53 C63 H54 109.5
C61 C64 H55 109.5
C61 C64 H56 109.5
H55 C64 H56 109.5
C61 C64 H57 109.5
H55 C64 H57 109.5
H56 C64 H57 109.5
Cl4 C66 Cl6 119.9(9)
Cl4 C66 Cl5 113.4(7)
Cl6 C66 Cl5 108.6(6)
Cl4 C66 H58 104.4
Cl6 C66 H58 104.4
Cl5 C66 H58 104.4
Cl1 C65 Cl2 112.6(5)
Cl1 C65 Cl3 101.3(6)
Cl2 C65 Cl3 91.9(7)
Cl1 C65 H60 115.9
Cl2 C65 H60 115.9
Cl3 C65 H60 115.9
Cl7 C67 Cl8 116.3(13)
Cl7 C67 Cl9 116.1(13)
Cl8 C67 Cl9 123.0(13)
Cl7 C67 H61 97.2
Cl8 C67 H61 97.2
Cl9 C67 H61 97.2
loop_
_geom_bond_atom_site_label_1
_geom_bond_atom_site_label_2
_geom_bond_distance
Ni1 N2 1.930(3)
Ni1 N3 1.936(3)
Ni1 N1 1.945(3)
Ni1 N4 1.947(3)
P1 C20 1.778(3)
P1 C28 1.812(3)
P1 C22 1.812(4)
N1 C1 1.371(4)
N1 C4 1.382(4)
N2 C9 1.381(4)
N2 C6 1.384(4)
N3 C11 1.384(4)
N3 C14 1.390(4)
N4 C19 1.358(4)
N4 C16 1.391(4)
C1 C20 1.386(4)
C1 C2 1.437(4)
C2 C3 1.357(5)
C2 C21 1.468(4)
C3 C4 1.420(4)
C3 H1 0.9500
C4 C5 1.391(4)
C5 C6 1.382(4)
C5 C33 1.502(4)
C6 C7 1.434(4)
C7 C8 1.347(5)
C7 H2 0.9500
C8 C9 1.441(4)
C8 H3 0.9500
C9 C10 1.392(4)
C10 C11 1.390(4)
C10 C42 1.493(4)
C11 C12 1.442(4)
C12 C13 1.348(5)
C12 H4 0.9500
C13 C14 1.425(5)
C13 H5 0.9500
C14 C15 1.390(5)
C15 C16 1.378(5)
C15 C56 1.499(4)
C16 C17 1.423(5)
C17 C18 1.357(5)
C17 H6 0.9500
C18 C19 1.444(4)
C18 C27 1.466(5)
C19 C20 1.392(5)
C21 C26 1.400(5)
C21 C22 1.407(5)
C22 C23 1.404(5)
C23 C24 1.373(6)
C23 H7 0.9500
C24 C25 1.394(6)
C24 H8 0.9500
C25 C26 1.384(5)
C25 H9 0.9500
C26 H10 0.9500
C27 C28 1.402(5)
C27 C32 1.406(5)
C28 C29 1.404(5)
C29 C30 1.380(6)
C29 H11 0.9500
C30 C31 1.379(7)
C30 H12 0.9500
C31 C32 1.378(6)
C31 H13 0.9500
C32 H14 0.9500
C33 C34 1.390(5)
C33 C38 1.397(5)
C34 C35 1.399(5)
C34 C39 1.502(5)
C35 C36 1.384(5)
C35 H15 0.9500
C36 C37 1.372(5)
C36 C40 1.517(5)
C37 C38 1.395(5)
C37 H16 0.9500
C38 C41 1.504(5)
C39 H17 0.9800
C39 H18 0.9800
C39 H19 0.9800
C40 H20 0.9800
C40 H21 0.9800
C40 H22 0.9800
C41 H23 0.9800
C41 H24 0.9800
C41 H25 0.9800
C42 C43 1.383(4)
C42 C47 1.401(4)
C43 C44 1.399(5)
C43 H26 0.9500
C44 C45 1.398(5)
C44 C48 1.531(5)
C45 C46 1.389(5)
C45 H27 0.9500
C46 C47 1.385(5)
C46 C52 1.548(5)
C47 H28 0.9500
C48 C49 1.492(7)
C48 C51 1.517(6)
C48 C50 1.567(7)
C49 H29 0.9800
C49 H30 0.9800
C49 H31 0.9800
C50 H32 0.9800
C50 H33 0.9800
C50 H34 0.9800
C51 H35 0.9800
C51 H36 0.9800
C51 H37 0.9800
C52 C54 1.521(6)
C52 C53 1.526(7)
C52 C55 1.529(6)
C53 H38 0.9800
C53 H39 0.9800
C53 H40 0.9800
C54 H41 0.9800
C54 H42 0.9800
C54 H43 0.9800
C55 H44 0.9800
C55 H45 0.9800
C55 H46 0.9800
C56 C57 1.391(5)
C56 C61 1.394(5)
C57 C58 1.394(5)
C57 C62 1.500(6)
C58 C59 1.381(6)
C58 H47 0.9500
C59 C60 1.380(6)
C59 C63 1.512(5)
C60 C61 1.398(5)
C60 H48 0.9500
C61 C64 1.498(6)
C62 H49 0.9800
C62 H50 0.9800
C62 H51 0.9800
C63 H52 0.9800
C63 H53 0.9800
C63 H54 0.9800
C64 H55 0.9800
C64 H56 0.9800
C64 H57 0.9800
Cl4 C66 1.551(11)
Cl5 C66 1.821(12)
Cl6 C66 1.673(12)
C66 H58 1.0000
C65 Cl1 1.758(9)
C65 Cl2 1.804(10)
C65 Cl3 1.951(15)
C65 H60 1.0000
C67 Cl7 1.646(18)
C67 Cl8 1.651(18)
C67 Cl9 1.665(18)
C67 H61 1.0000
loop_
_geom_hbond_atom_site_label_D
_geom_hbond_atom_site_label_H
_geom_hbond_atom_site_label_A
_geom_hbond_distance_DH
_geom_hbond_distance_HA
_geom_hbond_distance_DA
_geom_hbond_angle_DHA
_geom_hbond_site_symmetry_A
C66 H58 Cl4 1.00 2.80 3.727(12) 155.0 3_565
C66 H58 Cl4 1.00 2.80 3.727(12) 155.0 3_565
C66 H58 Cl4 1.00 2.80 3.727(12) 155.0 3_565
loop_
_geom_torsion_atom_site_label_1
_geom_torsion_atom_site_label_2
_geom_torsion_atom_site_label_3
_geom_torsion_atom_site_label_4
_geom_torsion
C4 N1 C1 C20 -174.4(3)
Ni1 N1 C1 C20 3.9(4)
C4 N1 C1 C2 -2.5(3)
Ni1 N1 C1 C2 175.9(2)
N1 C1 C2 C3 1.2(3)
C20 C1 C2 C3 173.4(3)
N1 C1 C2 C21 -175.3(3)
C20 C1 C2 C21 -3.1(5)
C1 C2 C3 C4 0.6(3)
C21 C2 C3 C4 176.9(3)
C1 N1 C4 C5 -172.5(3)
Ni1 N1 C4 C5 9.1(4)
C1 N1 C4 C3 2.9(3)
Ni1 N1 C4 C3 -175.4(2)
C2 C3 C4 N1 -2.2(4)
C2 C3 C4 C5 173.2(3)
N1 C4 C5 C6 3.2(5)
C3 C4 C5 C6 -171.6(3)
N1 C4 C5 C33 -177.1(3)
C3 C4 C5 C33 8.1(5)
C4 C5 C6 N2 -5.7(5)
C33 C5 C6 N2 174.6(3)
C4 C5 C6 C7 171.9(3)
C33 C5 C6 C7 -7.8(5)
C9 N2 C6 C5 178.0(3)
Ni1 N2 C6 C5 -4.2(4)
C9 N2 C6 C7 0.1(3)
Ni1 N2 C6 C7 177.9(2)
C5 C6 C7 C8 -177.3(3)
N2 C6 C7 C8 0.7(4)
C6 C7 C8 C9 -1.1(4)
C6 N2 C9 C10 173.9(3)
Ni1 N2 C9 C10 -4.0(4)
C6 N2 C9 C8 -0.8(3)
Ni1 N2 C9 C8 -178.6(2)
C7 C8 C9 N2 1.3(4)
C7 C8 C9 C10 -173.6(3)
N2 C9 C10 C11 -6.3(5)
C8 C9 C10 C11 167.7(3)
N2 C9 C10 C42 179.4(3)
C8 C9 C10 C42 -6.6(4)
C14 N3 C11 C10 -172.1(3)
Ni1 N3 C11 C10 11.2(4)
C14 N3 C11 C12 3.2(3)
Ni1 N3 C11 C12 -173.4(2)
C9 C10 C11 N3 2.6(5)
C42 C10 C11 N3 176.7(3)
C9 C10 C11 C12 -172.2(3)
C42 C10 C11 C12 2.0(5)
N3 C11 C12 C13 -4.0(4)
C10 C11 C12 C13 171.4(3)
C11 C12 C13 C14 3.0(4)
C11 N3 C14 C15 -178.8(3)
Ni1 N3 C14 C15 -2.1(5)
C11 N3 C14 C13 -1.3(3)
Ni1 N3 C14 C13 175.3(2)
C12 C13 C14 C15 176.3(3)
C12 C13 C14 N3 -1.2(4)
N3 C14 C15 C16 11.3(5)
C13 C14 C15 C16 -165.8(3)
N3 C14 C15 C56 -172.2(3)
C13 C14 C15 C56 10.7(5)
C14 C15 C16 N4 -5.1(5)
C56 C15 C16 N4 178.4(3)
C14 C15 C16 C17 169.3(3)
C56 C15 C16 C17 -7.1(5)
C19 N4 C16 C15 172.3(3)
Ni1 N4 C16 C15 -9.8(5)
C19 N4 C16 C17 -2.9(4)
Ni1 N4 C16 C17 175.1(2)
C15 C16 C17 C18 -172.6(3)
N4 C16 C17 C18 2.6(4)
C16 C17 C18 C19 -1.2(4)
C16 C17 C18 C27 -175.5(3)
C16 N4 C19 C20 174.0(3)
Ni1 N4 C19 C20 -3.9(5)
C16 N4 C19 C18 2.1(4)
Ni1 N4 C19 C18 -175.8(2)
C17 C18 C19 N4 -0.6(4)
C27 C18 C19 N4 174.1(3)
C17 C18 C19 C20 -172.8(3)
C27 C18 C19 C20 1.9(5)
N1 C1 C20 C19 13.4(5)
C2 C1 C20 C19 -157.6(3)
N1 C1 C20 P1 -164.1(2)
C2 C1 C20 P1 24.8(4)
N4 C19 C20 C1 -13.5(5)
C18 C19 C20 C1 157.5(3)
N4 C19 C20 P1 164.1(3)
C18 C19 C20 P1 -24.9(4)
C28 P1 C20 C1 -148.3(3)
C22 P1 C20 C1 -30.4(3)
C28 P1 C20 C19 34.0(3)
C22 P1 C20 C19 151.9(2)
C3 C2 C21 C26 -3.6(5)
C1 C2 C21 C26 172.1(3)
C3 C2 C21 C22 175.9(3)
C1 C2 C21 C22 -8.4(5)
C26 C21 C22 C23 5.5(5)
C2 C21 C22 C23 -174.0(3)
C26 C21 C22 P1 175.9(2)
C2 C21 C22 P1 -3.6(4)
C20 P1 C22 C23 -169.7(3)
C28 P1 C22 C23 -59.1(3)
C20 P1 C22 C21 20.1(3)
C28 P1 C22 C21 130.6(3)
C21 C22 C23 C24 -4.3(5)
P1 C22 C23 C24 -174.7(3)
C22 C23 C24 C25 0.6(6)
C23 C24 C25 C26 1.8(6)
C24 C25 C26 C21 -0.4(5)
C22 C21 C26 C25 -3.3(5)
C2 C21 C26 C25 176.2(3)
C17 C18 C27 C28 179.2(4)
C19 C18 C27 C28 5.8(5)
C17 C18 C27 C32 0.2(6)
C19 C18 C27 C32 -173.2(3)
C32 C27 C28 C29 -0.8(5)
C18 C27 C28 C29 -179.8(4)
C32 C27 C28 P1 -170.7(3)
C18 C27 C28 P1 10.3(5)
C20 P1 C28 C27 -26.8(3)
C22 P1 C28 C27 -137.9(3)
C20 P1 C28 C29 163.5(3)
C22 P1 C28 C29 52.4(4)
C27 C28 C29 C30 1.5(6)
P1 C28 C29 C30 171.3(4)
C28 C29 C30 C31 -1.3(7)
C29 C30 C31 C32 0.2(7)
C30 C31 C32 C27 0.5(6)
C28 C27 C32 C31 -0.2(5)
C18 C27 C32 C31 178.8(3)
C6 C5 C33 C34 84.4(4)
C4 C5 C33 C34 -95.3(4)
C6 C5 C33 C38 -94.2(4)
C4 C5 C33 C38 86.0(4)
C38 C33 C34 C35 1.4(5)
C5 C33 C34 C35 -177.2(3)
C38 C33 C34 C39 -179.1(4)
C5 C33 C34 C39 2.2(5)
C33 C34 C35 C36 -1.5(6)
C39 C34 C35 C36 179.0(4)
C34 C35 C36 C37 1.0(6)
C34 C35 C36 C40 -179.2(4)
C35 C36 C37 C38 -0.4(5)
C40 C36 C37 C38 179.8(3)
C36 C37 C38 C33 0.4(5)
C36 C37 C38 C41 179.2(4)
C34 C33 C38 C37 -0.8(5)
C5 C33 C38 C37 177.8(3)
C34 C33 C38 C41 -179.7(4)
C5 C33 C38 C41 -1.0(5)
C11 C10 C42 C43 121.0(3)
C9 C10 C42 C43 -64.6(4)
C11 C10 C42 C47 -62.4(4)
C9 C10 C42 C47 111.9(3)
C47 C42 C43 C44 -0.8(5)
C10 C42 C43 C44 175.7(3)
C42 C43 C44 C45 1.1(5)
C42 C43 C44 C48 -175.9(3)
C43 C44 C45 C46 -0.4(5)
C48 C44 C45 C46 176.7(3)
C44 C45 C46 C47 -0.5(5)
C44 C45 C46 C52 179.0(3)
C45 C46 C47 C42 0.8(5)
C52 C46 C47 C42 -178.7(3)
C43 C42 C47 C46 -0.2(5)
C10 C42 C47 C46 -176.7(3)
C45 C44 C48 C49 -176.6(4)
C43 C44 C48 C49 0.4(6)
C45 C44 C48 C51 58.2(5)
C43 C44 C48 C51 -124.9(4)
C45 C44 C48 C50 -58.5(4)
C43 C44 C48 C50 118.4(4)
C47 C46 C52 C54 122.5(4)
C45 C46 C52 C54 -57.0(5)
C47 C46 C52 C53 -115.2(4)
C45 C46 C52 C53 65.3(5)
C47 C46 C52 C55 3.0(5)
C45 C46 C52 C55 -176.5(3)
C16 C15 C56 C57 86.2(5)
C14 C15 C56 C57 -90.4(5)
C16 C15 C56 C61 -93.1(4)
C14 C15 C56 C61 90.3(4)
C61 C56 C57 C58 -0.8(6)
C15 C56 C57 C58 179.9(4)
C61 C56 C57 C62 179.5(4)
C15 C56 C57 C62 0.2(7)
C56 C57 C58 C59 1.8(7)
C62 C57 C58 C59 -178.5(5)
C57 C58 C59 C60 -1.9(7)
C57 C58 C59 C63 177.9(4)
C58 C59 C60 C61 1.1(6)
C63 C59 C60 C61 -178.8(4)
C57 C56 C61 C60 0.0(5)
C15 C56 C61 C60 179.3(3)
C57 C56 C61 C64 179.8(4)
C15 C56 C61 C64 -0.9(5)
C59 C60 C61 C56 -0.1(6)
C59 C60 C61 C64 -180.0(4)
