#------------------------------------------------------------------------------
#$Date: 2019-11-17 08:24:23 +0200 (Sun, 17 Nov 2019) $
#$Revision: 228842 $
#$URL: file:///home/coder/svn-repositories/cod/cif/1/55/00/1550072.cif $
#------------------------------------------------------------------------------
#
# This file is available in the Crystallography Open Database (COD),
# http://www.crystallography.net/
#
# All data on this site have been placed in the public domain by the
# contributors.
#
data_1550072
loop_
_publ_author_name
'Le Roy, Jennifer J.'
'Cremers, Jonathan'
'Thomlinson, Isabel A.'
'Slota, Michael'
'Myers, William K.'
'Horton, Peter H.'
'Coles, Simon J.'
'Anderson, Harry L.'
'Bogani, Lapo'
_publ_section_title
;
 Tailored homo- and hetero- lanthanide porphyrin dimers: a synthetic
 strategy for integrating multiple spintronic functionalities into a
 single molecule.
;
_journal_issue                   45
_journal_name_full               'Chemical science'
_journal_page_first              8474
_journal_page_last               8481
_journal_paper_doi               10.1039/c8sc03762k
_journal_volume                  9
_journal_year                    2018
_chemical_formula_moiety         'C77 H95 N7 Si2 Zn, 0.5(C H2 Cl2)'
_chemical_formula_sum            'C77.5 H96 Cl N7 Si2 Zn'
_chemical_formula_weight         1282.61
_space_group_crystal_system      triclinic
_space_group_IT_number           2
_space_group_name_Hall           '-P 1'
_space_group_name_H-M_alt        'P -1'
_symmetry_space_group_name_Hall  '-P 1'
_symmetry_space_group_name_H-M   'P -1'
_atom_sites_solution_hydrogens   geom
_atom_sites_solution_primary     dual
_audit_creation_date             2017-02-14
_audit_creation_method
;
Olex2 1.2-alpha
(compiled 2017.02.06 svn.r3384 for OlexSys, GUI svn.r5312)
;
_audit_update_record
;
2017-07-27 deposited with the CCDC.
2018-10-18 downloaded from the CCDC.
;
_cell_angle_alpha                90.736(2)
_cell_angle_beta                 91.970(2)
_cell_angle_gamma                108.933(3)
_cell_formula_units_Z            2
_cell_length_a                   13.1710(4)
_cell_length_b                   14.3764(4)
_cell_length_c                   19.9456(6)
_cell_measurement_reflns_used    19953
_cell_measurement_temperature    100(2)
_cell_measurement_theta_max      27.5160
_cell_measurement_theta_min      2.4800
_cell_volume                     3569.14(19)
_computing_cell_refinement       'CrysAlisPro 1.171.39.9g (Rigaku OD, 2015)'
_computing_data_collection
'CrystalClear-SM Expert 3.1 b27 (Rigaku, 2013)'
_computing_data_reduction        'CrysAlisPro 1.171.39.9g (Rigaku OD, 2015)'
_computing_molecular_graphics    'Olex2 (Dolomanov et al., 2009)'
_computing_publication_material  'Olex2 (Dolomanov et al., 2009)'
_computing_structure_refinement  'ShelXL (Sheldrick, 2015)'
_computing_structure_solution    'ShelXT (Sheldrick, 2015)'
_diffrn_ambient_temperature      100(2)
_diffrn_detector                 'CCD area detector'
_diffrn_detector_area_resol_mean 28.5714
_diffrn_detector_type            'Rigaku HG Saturn724+ (2x2 bin mode)'
_diffrn_measured_fraction_theta_full 0.997
_diffrn_measured_fraction_theta_max 0.992
_diffrn_measurement_details
;
List of Runs (angles in degrees, time in seconds):

  # Type    Start    End  Width  t~exp~   \w     \q     \k     \f   Frames
#--------------------------------------------------------------------------
  1  \w    -31.00  77.00   1.00   10.00    --  -13.00  72.00-120.00  108
  2  \w    -70.00  23.00   1.00   10.00    --  -13.00 -72.00 120.00   93
  3  \w    -63.00  23.00   1.00   10.00    --  -13.00 -72.00 -60.00   86
  4  \w    -85.00 -10.00   1.00   10.00    --  -13.00   0.00 120.00   75
  5  \w    -15.00   5.00   1.00   10.00    --  -13.00 -54.00 -30.00   20
  6  \w    -31.00  77.00   1.00   10.00    --  -13.00  72.00-150.00  108
  7  \w    -67.00  23.00   1.00   10.00    --  -13.00 -72.00  90.00   90
  8  \w    -65.00   7.00   1.00   10.00    --  -13.00 -72.00 -90.00   72
;
_diffrn_measurement_device       'four-circle \k goniometer'
_diffrn_measurement_device_type
'Rigaku FRE+ equipped with VHF Varimax confocal mirrors and an AFC12 goniometer and HG Saturn 724+ detector'
_diffrn_measurement_method       'profile data from \w-scans'
_diffrn_measurement_specimen_support 'MiTeGen MicroLoop'
_diffrn_orient_matrix_type
'CrysAlisPro convention (1999,Acta A55,543-557)'
_diffrn_orient_matrix_UB_11      -0.0309726000
_diffrn_orient_matrix_UB_12      0.0247817000
_diffrn_orient_matrix_UB_13      0.0165681000
_diffrn_orient_matrix_UB_21      -0.0135431000
_diffrn_orient_matrix_UB_22      0.0167506000
_diffrn_orient_matrix_UB_23      -0.0312786000
_diffrn_orient_matrix_UB_31      -0.0458705000
_diffrn_orient_matrix_UB_32      -0.0427513000
_diffrn_orient_matrix_UB_33      -0.0037543000
_diffrn_radiation_collimation    0.2
_diffrn_radiation_monochromator  'Confocal mirrors, VHF Varimax'
_diffrn_radiation_probe          x-ray
_diffrn_radiation_type           MoK\a
_diffrn_radiation_wavelength     0.71075
_diffrn_radiation_xray_symbol    K-L~3~
_diffrn_reflns_av_R_equivalents  0.0631
_diffrn_reflns_av_unetI/netI     0.0765
_diffrn_reflns_Laue_measured_fraction_full 0.997
_diffrn_reflns_Laue_measured_fraction_max 0.992
_diffrn_reflns_limit_h_max       17
_diffrn_reflns_limit_h_min       -17
_diffrn_reflns_limit_k_max       18
_diffrn_reflns_limit_k_min       -18
_diffrn_reflns_limit_l_max       25
_diffrn_reflns_limit_l_min       -25
_diffrn_reflns_number            57370
_diffrn_reflns_point_group_measured_fraction_full 0.997
_diffrn_reflns_point_group_measured_fraction_max 0.992
_diffrn_reflns_theta_full        25.242
_diffrn_reflns_theta_max         27.485
_diffrn_reflns_theta_min         2.504
_diffrn_source                   'Rotating Anode'
_diffrn_source_current           55.0
_diffrn_source_power             2.475
_diffrn_source_target            Mo
_diffrn_source_type              'Rigaku FRE+'
_diffrn_source_voltage           45.0
_exptl_absorpt_coefficient_mu    0.462
_exptl_absorpt_correction_T_max  1.00000
_exptl_absorpt_correction_T_min  0.67269
_exptl_absorpt_correction_type   multi-scan
_exptl_absorpt_process_details
;
CrysAlisPro 1.171.39.9g (Rigaku Oxford Diffraction, 2015)
Empirical absorption correction using spherical harmonics,
 implemented in SCALE3 ABSPACK scaling algorithm.
;
_exptl_crystal_colour            'iridescent blue-green'
_exptl_crystal_density_diffrn    1.193
_exptl_crystal_description       plate
_exptl_crystal_F_000             1370
_exptl_crystal_size_max          0.25
_exptl_crystal_size_mid          0.065
_exptl_crystal_size_min          0.015
_refine_diff_density_max         1.161
_refine_diff_density_min         -0.904
_refine_diff_density_rms         0.094
_refine_ls_extinction_method     none
_refine_ls_goodness_of_fit_ref   1.035
_refine_ls_hydrogen_treatment    constr
_refine_ls_matrix_type           full
_refine_ls_number_parameters     897
_refine_ls_number_reflns         16242
_refine_ls_number_restraints     986
_refine_ls_restrained_S_all      1.025
_refine_ls_R_factor_all          0.1224
_refine_ls_R_factor_gt           0.0814
_refine_ls_shift/su_max          0.001
_refine_ls_shift/su_mean         0.000
_refine_ls_structure_factor_coef Fsqd
_refine_ls_weighting_details
'w=1/[\s^2^(Fo^2^)+(0.1010P)^2^+7.1998P] where P=(Fo^2^+2Fc^2^)/3'
_refine_ls_weighting_scheme      calc
_refine_ls_wR_factor_gt          0.1989
_refine_ls_wR_factor_ref         0.2218
_reflns_Friedel_coverage         0.000
_reflns_number_gt                11197
_reflns_number_total             16242
_reflns_threshold_expression     'I > 2\s(I)'
_cod_data_source_file            c8sc03762k2.cif
_cod_data_source_block           P1starZn
_cod_depositor_comments
'Adding full bibliography for 1550065--1550077.cif.'
_cod_original_formula_sum        'C77.50 H96 Cl N7 Si2 Zn'
_cod_database_code               1550072
_shelx_shelxl_version_number     2014/7
_chemical_oxdiff_formula         'C72 H90 N6 Si2 Zn'
_shelx_space_group_comment
;
The symmetry employed for this shelxl refinement is uniquely defined
by the following loop, which should always be used as a source of
symmetry information in preference to the above space-group names.
They are only intended as comments.
;
_reflns_odcompleteness_completeness 99.27
_reflns_odcompleteness_iscentric 1
_reflns_odcompleteness_theta     27.42
_olex2_refinement_description
;
1. Fixed Uiso
 At 1.2 times of:
  All C(H) groups, All C(H,H) groups
 At 1.5 times of:
  All C(H,H,H) groups
2. Restrained distances
 C201-Cl22
 1.7 with sigma of 0.02
 C201-Cl21 \\sim C201-Cl22
 with sigma of 0.02
 C22-Si1 \\sim C34-Si2 \\sim C34-Si2B
 with sigma of 0.02
3. Rigid bond restraints
 C201, Cl21, Cl22
 with sigma for 1-2 distances of 0.01 and sigma for 1-3 distances of 0.01
 N101, C101, C102, C103, C104, C105, N111, C111, C112, C113, C114, C115
 with sigma for 1-2 distances of 0.01 and sigma for 1-3 distances of 0.01
4. Uiso/Uaniso restraints and constraints
Uanis(Si2B) = Uanis(C35B) = Uanis(C36B) = Uanis(C37B) = Uanis(C38B) = Uanis(N6B)
Uanis(C39B) = Uanis(C40B) = Uanis(C41B)
Uanis(C42B) = Uanis(C43B) = Uanis(C44B)
Uanis(C35) = Uanis(C36) = Uanis(C37) = Uanis(C38) = Uanis(N6)
Uanis(C39) = Uanis(C40) = Uanis(C41)
Uanis(C42) = Uanis(C43) = Uanis(C44)
5. Rigid body (RIGU) restrains
 All non-hydrogen atoms
 with sigma for 1-2 distances of 0.004 and sigma for 1-3 distances of 0.004
6. Same fragment restrains
{Si2, C35, C36, C37, C38, N6, C39, C40, C41, C42, C43, C44} sigma for 1-2:
0.02, 1-3: 0.04
as
{Si2B, C35B, C36B, C37B, C38B, N6B, C39B, C40B, C41B, C42B, C43B, C44B}
{N101, C101, C102, C103, C104, C105} sigma for 1-2: 0.02, 1-3: 0.04
as
{N111, C111, C112, C113, C114, C115}
7. Others
 Sof(Si2B)=Sof(C35B)=Sof(H35C)=Sof(H35D)=Sof(C36B)=Sof(H36C)=Sof(H36D)=
 Sof(C37B)=Sof(H37C)=Sof(H37D)=Sof(C38B)=Sof(N6B)=Sof(C39B)=Sof(H39B)=Sof(C40B)=
 Sof(H40D)=Sof(H40E)=Sof(H40F)=Sof(C41B)=Sof(H41D)=Sof(H41E)=Sof(H41F)=
 Sof(C42B)=Sof(H42B)=Sof(C43B)=Sof(H43D)=Sof(H43E)=Sof(H43F)=Sof(C44B)=
 Sof(H44D)=Sof(H44E)=Sof(H44F)=1-FVAR(1)
 Sof(Si2)=Sof(C35)=Sof(H35A)=Sof(H35B)=Sof(C36)=Sof(H36A)=Sof(H36B)=Sof(C37)=
 Sof(H37A)=Sof(H37B)=Sof(C38)=Sof(N6)=Sof(C39)=Sof(H39)=Sof(C40)=Sof(H40A)=
 Sof(H40B)=Sof(H40C)=Sof(C41)=Sof(H41A)=Sof(H41B)=Sof(H41C)=Sof(C42)=Sof(H42)=
 Sof(C43)=Sof(H43A)=Sof(H43B)=Sof(H43C)=Sof(C44)=Sof(H44A)=Sof(H44B)=Sof(H44C)=
 FVAR(1)
 Sof(N111)=Sof(C111)=Sof(H111)=Sof(C112)=Sof(H112)=Sof(C113)=Sof(H113)=
 Sof(C114)=Sof(H114)=Sof(C115)=Sof(H115)=1-FVAR(2)
 Sof(N101)=Sof(C101)=Sof(H101)=Sof(C102)=Sof(H102)=Sof(C103)=Sof(H103)=
 Sof(C104)=Sof(H104)=Sof(C105)=Sof(H105)=FVAR(2)
 Fixed Sof: Cl22(0.5) C201(0.5) H20A(0.5) H20B(0.5) Cl21(0.5)
8.a Ternary CH refined with riding coordinates:
 C30(H30), C27(H27), C39(H39), C42(H42), C39B(H39B), C42B(H42B)
8.b Secondary CH2 refined with riding coordinates:
 C23(H23A,H23B), C24(H24A,H24B), C25(H25A,H25B), C35(H35A,H35B), C36(H36A,
 H36B), C37(H37A,H37B), C201(H20A,H20B), C35B(H35C,H35D), C36B(H36C,H36D),
 C37B(H37C,H37D)
8.c Aromatic/amide H refined with riding coordinates:
 C2(H2), C3(H3), C7(H7), C8(H8), C12(H12), C13(H13), C17(H17), C18(H18),
 C46(H46), C48(H48), C50(H50), C60(H60), C62(H62), C64(H64), C101(H101),
 C102(H102), C103(H103), C104(H104), C105(H105), C111(H111), C112(H112),
 C113(H113), C114(H114), C115(H115)
8.d Idealised Me refined as rotating group:
 C31(H31A,H31B,H31C), C32(H32A,H32B,H32C), C28(H28A,H28B,H28C), C29(H29A,H29B,
 H29C), C40(H40A,H40B,H40C), C41(H41A,H41B,H41C), C43(H43A,H43B,H43C), C44(H44A,
 H44B,H44C), C52(H52A,H52B,H52C), C53(H53A,H53B,H53C), C54(H54A,H54B,H54C),
 C56(H56A,H56B,H56C), C57(H57A,H57B,H57C), C58(H58A,H58B,H58C), C66(H66A,H66B,
 H66C), C67(H67A,H67B,H67C), C68(H68A,H68B,H68C), C70(H70A,H70B,H70C), C71(H71A,
 H71B,H71C), C72(H72A,H72B,H72C), C40B(H40D,H40E,H40F), C41B(H41D,H41E,H41F),
 C43B(H43D,H43E,H43F), C44B(H44D,H44E,H44F)
;
_shelx_res_file
;
    2016ncs0714.res created by SHELXL-2014/7

TITL 2016ncs0714_a.res in P-1
REM Old TITL ros2b in P-1
REM SHELXT solution in P-1
REM R1 0.197, Rweak 0.026, Alpha 0.106, Orientation as input
REM Formula found by SHELXT: C52 N9 Si2 Zn
CELL 0.71075 13.171 14.3764 19.9456 90.736 91.97 108.933
ZERR 2 0.0004 0.0004 0.0006 0.002 0.002 0.003
LATT 1
SFAC C H Cl N Si Zn
UNIT 155 192 2 14 4 2
DFIX 1.7 C201 Cl22
SADI C201 Cl21 C201 Cl22
SADI C22 Si1 C34 Si2 C34 Si2B
DELU C201 Cl21 Cl22
DELU N101 > C105 N111 > C115
RIGU
EADP Si2B C35B C36B C37B C38B N6B
EADP C39B C40B C41B
EADP C42B C43B C44B
EADP C35 C36 C37 C38 N6
EADP C39 C40 C41
EADP C42 C43 C44

L.S. 99
PLAN  20
TEMP -173(2)
BOND $H
CONF
fmap 2
acta
OMIT 0 -2 4
OMIT -1 4 3
OMIT 1 -1 1
OMIT -1 3 0
OMIT 0 0 2
OMIT -2 2 2
OMIT -1 -2 3
REM <olex2.extras>
REM <HklSrc "%.\\2016ncs0714.hkl">
REM </olex2.extras>

WGHT    0.101000    7.199800
FVAR       0.25424   0.68873   0.43321
ZN1   6    0.538491    0.702888    0.740527    11.00000    0.01540    0.02049 =
         0.03069   -0.00102    0.00321    0.00557
N1    4    0.649993    0.692891    0.673212    11.00000    0.01596    0.01916 =
         0.03248    0.00043    0.00342    0.00628
N2    4    0.433897    0.569762    0.703412    11.00000    0.01666    0.02085 =
         0.03410   -0.00070    0.00317    0.00394
N3    4    0.407321    0.728200    0.782491    11.00000    0.01557    0.02113 =
         0.03456   -0.00231    0.00335    0.00519
N4    4    0.623965    0.850588    0.753188    11.00000    0.01701    0.02180 =
         0.03236   -0.00375    0.00272    0.00605
C1    1    0.746580    0.762769    0.660959    11.00000    0.01508    0.02326 =
         0.03140    0.00080    0.00132    0.00828
C2    1    0.801848    0.725523    0.611824    11.00000    0.02012    0.02530 =
         0.03538    0.00127    0.00714    0.01000
AFIX  43
H2    2    0.870118    0.759434    0.594785    11.00000   -1.20000
AFIX   0
C3    1    0.738391    0.633011    0.594344    11.00000    0.02155    0.02581 =
         0.03813    0.00174    0.00730    0.01122
AFIX  43
H3    2    0.753632    0.589662    0.562873    11.00000   -1.20000
AFIX   0
C4    1    0.642980    0.613058    0.632878    11.00000    0.01987    0.02057 =
         0.03250    0.00118    0.00353    0.01030
C5    1    0.555562    0.525861    0.626857    11.00000    0.01627    0.02114 =
         0.03308   -0.00046    0.00209    0.00736
C6    1    0.458208    0.507447    0.659269    11.00000    0.02004    0.01958 =
         0.03530    0.00069    0.00384    0.00678
C7    1    0.367683    0.419232    0.649113    11.00000    0.02109    0.02327 =
         0.04313   -0.00534    0.00508    0.00627
AFIX  43
H7    2    0.363845    0.364235    0.621016    11.00000   -1.20000
AFIX   0
C8    1    0.288784    0.429761    0.687446    11.00000    0.01948    0.02504 =
         0.04323   -0.00514    0.00440    0.00380
AFIX  43
H8    2    0.218933    0.383492    0.691005    11.00000   -1.20000
AFIX   0
C9    1    0.330474    0.523972    0.721714    11.00000    0.01647    0.02462 =
         0.03612   -0.00024    0.00240    0.00646
C10   1    0.271847    0.564097    0.764811    11.00000    0.01576    0.02695 =
         0.03718    0.00215    0.00197    0.00723
C11   1    0.308015    0.659578    0.792371    11.00000    0.01692    0.02779 =
         0.03254    0.00079    0.00460    0.00944
C12   1    0.249074    0.701393    0.835669    11.00000    0.01879    0.03151 =
         0.03752    0.00200    0.00454    0.00911
AFIX  43
H12   2    0.178987    0.669276    0.850796    11.00000   -1.20000
AFIX   0
C13   1    0.311015    0.794801    0.851188    11.00000    0.02545    0.03355 =
         0.03215   -0.00118    0.00427    0.01550
AFIX  43
H13   2    0.292810    0.840966    0.878721    11.00000   -1.20000
AFIX   0
C14   1    0.410407    0.810504    0.817594    11.00000    0.02063    0.02544 =
         0.03102   -0.00111    0.00139    0.01113
C15   1    0.496675    0.898941    0.821537    11.00000    0.02383    0.02652 =
         0.03094   -0.00288    0.00198    0.01099
C16   1    0.595882    0.917393    0.790677    11.00000    0.02058    0.02440 =
         0.03803   -0.00559    0.00310    0.00607
C17   1    0.681732    1.009930    0.794019    11.00000    0.02710    0.02449 =
         0.05584   -0.01071    0.00796    0.00329
AFIX  43
H17   2    0.682182    1.068305    0.817077    11.00000   -1.20000
AFIX   0
C18   1    0.761447    0.997615    0.758021    11.00000    0.02225    0.02395 =
         0.04833   -0.00761    0.00865    0.00063
AFIX  43
H18   2    0.829227    1.045713    0.751388    11.00000   -1.20000
AFIX   0
C19   1    0.725111    0.898674    0.731631    11.00000    0.01700    0.02358 =
         0.03454   -0.00283    0.00111    0.00254
C20   1    0.783918    0.858160    0.688598    11.00000    0.01810    0.02059 =
         0.03354    0.00205    0.00303    0.00707
C21   1    0.564678    0.449360    0.583431    11.00000    0.01505    0.02273 =
         0.04109    0.00249    0.00509    0.00407
C22   1    0.573377    0.383761    0.548696    11.00000    0.01861    0.02202 =
         0.04666    0.00118    0.00733    0.00479
SI1   5    0.598860    0.283076    0.501696    11.00000    0.02198    0.02197 =
         0.04104   -0.00336    0.00461    0.00896
C23   1    0.704762    0.340122    0.440007    11.00000    0.03229    0.03707 =
         0.04208   -0.00117    0.00619    0.01336
AFIX  23
H23A  2    0.748467    0.296437    0.433529    11.00000   -1.20000
H23B  2    0.669090    0.344601    0.396232    11.00000   -1.20000
AFIX   0
C24   1    0.778692    0.441585    0.461471    11.00000    0.03335    0.03384 =
         0.04519    0.00543    0.01180    0.01352
AFIX  23
H24A  2    0.802823    0.439943    0.508869    11.00000   -1.20000
H24B  2    0.737662    0.488304    0.459010    11.00000   -1.20000
AFIX   0
C25   1    0.877860    0.479786    0.418782    11.00000    0.03641    0.02963 =
         0.04048    0.00510    0.00546    0.01078
AFIX  23
H25A  2    0.854852    0.475156    0.370732    11.00000   -1.20000
H25B  2    0.916015    0.549857    0.430593    11.00000   -1.20000
AFIX   0
C26   1    0.951074    0.422647    0.429817    11.00000    0.03123    0.03340 =
         0.04117    0.00118    0.01017    0.00598
N5    4    1.007734    0.378346    0.441247    11.00000    0.03986    0.04882 =
         0.06291    0.00969    0.01585    0.01943
C30   1    0.473078    0.209475    0.454282    11.00000    0.03632    0.02819 =
         0.04267   -0.00113   -0.00644    0.01662
AFIX  13
H30   2    0.447523    0.258050    0.429258    11.00000   -1.20000
AFIX   0
C31   1    0.491281    0.139319    0.400772    11.00000    0.04452    0.03789 =
         0.04122   -0.00288   -0.00327    0.01024
AFIX 137
H31A  2    0.546361    0.176577    0.370644    11.00000   -1.50000
H31B  2    0.423991    0.107698    0.374853    11.00000   -1.50000
H31C  2    0.515100    0.088933    0.422689    11.00000   -1.50000
AFIX   0
C32   1    0.381547    0.154829    0.498443    11.00000    0.02437    0.04018 =
         0.06449   -0.01310   -0.00219    0.00851
AFIX 137
H32A  2    0.400838    0.103592    0.522544    11.00000   -1.50000
H32B  2    0.316263    0.124541    0.470357    11.00000   -1.50000
H32C  2    0.368680    0.201216    0.530825    11.00000   -1.50000
AFIX   0
C27   1    0.652859    0.213870    0.564659    11.00000    0.02813    0.03129 =
         0.04936   -0.00203   -0.00620    0.01379
AFIX  13
H27   2    0.727903    0.256565    0.577003    11.00000   -1.20000
AFIX   0
C28   1    0.593890    0.194296    0.629537    11.00000    0.06077    0.05745 =
         0.05614    0.01326   -0.00125    0.02325
AFIX 137
H28A  2    0.587091    0.255766    0.647331    11.00000   -1.50000
H28B  2    0.634201    0.168235    0.662283    11.00000   -1.50000
H28C  2    0.522220    0.146223    0.620979    11.00000   -1.50000
AFIX   0
C29   1    0.661703    0.118139    0.535317    11.00000    0.04016    0.03396 =
         0.07351   -0.00507   -0.01671    0.01821
AFIX 137
H29A  2    0.589763    0.073210    0.522724    11.00000   -1.50000
H29B  2    0.695767    0.087437    0.568906    11.00000   -1.50000
H29C  2    0.705248    0.132416    0.495514    11.00000   -1.50000
AFIX   0
C33   1    0.482780    0.980482    0.858408    11.00000    0.02413    0.03358 =
         0.04008   -0.00473    0.00188    0.01050
C34   1    0.472758    1.049783    0.887461    11.00000    0.03281    0.04508 =
         0.04600   -0.01084    0.00241    0.01513
PART 1
SI2   5    0.467932    1.169593    0.920988    21.00000    0.03918    0.03013 =
         0.03590   -0.01182   -0.00040    0.02109
C35   1    0.333744    1.144651    0.957535    21.00000    0.08630    0.12117 =
         0.09022    0.02090    0.02475    0.02350
AFIX  23
H35A  2    0.325183    1.207922    0.971522    21.00000   -1.20000
H35B  2    0.277375    1.113741    0.922469    21.00000   -1.20000
AFIX   0
C36   1    0.317321    1.078687    1.016899    21.00000    0.08630    0.12117 =
         0.09022    0.02090    0.02475    0.02350
AFIX  23
H36A  2    0.334808    1.018701    1.005040    21.00000   -1.20000
H36B  2    0.366345    1.113158    1.054695    21.00000   -1.20000
AFIX   0
C37   1    0.203282    1.050340    1.038042    21.00000    0.08630    0.12117 =
         0.09022    0.02090    0.02475    0.02350
AFIX  23
H37A  2    0.196600    1.015429    1.080963    21.00000   -1.20000
H37B  2    0.183545    1.110419    1.045382    21.00000   -1.20000
AFIX   0
C38   1    0.132088    0.988907    0.988722    21.00000    0.08630    0.12117 =
         0.09022    0.02090    0.02475    0.02350
N6    4    0.059491    0.929203    0.948643    21.00000    0.08630    0.12117 =
         0.09022    0.02090    0.02475    0.02350
C39   1    0.577340    1.215686    0.988075    21.00000    0.05055    0.03693 =
         0.03739   -0.00728   -0.00573    0.01565
AFIX  13
H39   2    0.562063    1.164372    1.023124    21.00000   -1.20000
AFIX   0
C40   1    0.570028    1.308957    1.022211    21.00000    0.05055    0.03693 =
         0.03739   -0.00728   -0.00573    0.01565
AFIX 137
H40A  2    0.585619    1.362133    0.989954    21.00000   -1.50000
H40B  2    0.622311    1.328124    1.060218    21.00000   -1.50000
H40C  2    0.497465    1.296423    1.038351    21.00000   -1.50000
AFIX   0
C41   1    0.688366    1.225775    0.963745    21.00000    0.05055    0.03693 =
         0.03739   -0.00728   -0.00573    0.01565
AFIX 137
H41A  2    0.687681    1.163161    0.943384    21.00000   -1.50000
H41B  2    0.740639    1.243346    1.001806    21.00000   -1.50000
H41C  2    0.708400    1.277327    0.930351    21.00000   -1.50000
AFIX   0
C42   1    0.492303    1.262449    0.850944    21.00000    0.09296    0.07161 =
         0.06988    0.02029    0.00758    0.02905
AFIX  13
H42   2    0.545716    1.323959    0.870669    21.00000   -1.20000
AFIX   0
C43   1    0.544370    1.236217    0.792562    21.00000    0.09296    0.07161 =
         0.06988    0.02029    0.00758    0.02905
AFIX 137
H43A  2    0.604260    1.214602    0.808173    21.00000   -1.50000
H43B  2    0.571467    1.293772    0.764452    21.00000   -1.50000
H43C  2    0.491944    1.182867    0.766309    21.00000   -1.50000
AFIX   0
C44   1    0.400027    1.290326    0.829995    21.00000    0.09296    0.07161 =
         0.06988    0.02029    0.00758    0.02905
AFIX 137
H44A  2    0.348484    1.235849    0.804156    21.00000   -1.50000
H44B  2    0.423300    1.348401    0.802004    21.00000   -1.50000
H44C  2    0.365859    1.305590    0.869651    21.00000   -1.50000
AFIX   0
PART 0
C45   1    0.162275    0.499628    0.780160    11.00000    0.01766    0.02766 =
         0.03486   -0.00100    0.00450    0.00689
C46   1    0.148983    0.410799    0.811230    11.00000    0.01779    0.02941 =
         0.03782   -0.00078    0.00091    0.00766
AFIX  43
H46   2    0.210526    0.393056    0.823311    11.00000   -1.20000
AFIX   0
C47   1    0.047636    0.347240    0.825059    11.00000    0.02266    0.02751 =
         0.03242   -0.00128    0.00213    0.00713
C48   1   -0.040836    0.375974    0.806701    11.00000    0.01949    0.03248 =
         0.03573    0.00209    0.00571    0.00649
AFIX  43
H48   2   -0.110689    0.332931    0.815250    11.00000   -1.20000
AFIX   0
C49   1   -0.031147    0.464281    0.776651    11.00000    0.02036    0.03509 =
         0.03233    0.00123    0.00580    0.01214
C50   1    0.070988    0.525100    0.763216    11.00000    0.02030    0.02969 =
         0.02938    0.00039    0.00585    0.00944
AFIX  43
H50   2    0.079319    0.585724    0.741933    11.00000   -1.20000
AFIX   0
C51   1    0.036945    0.248421    0.857575    11.00000    0.02654    0.03148 =
         0.04939    0.00685    0.00096    0.00700
C52   1    0.108698    0.265541    0.921550    11.00000    0.04604    0.04919 =
         0.05761    0.01772   -0.00676    0.00709
AFIX 137
H52A  2    0.184010    0.294945    0.910132    11.00000   -1.50000
H52B  2    0.098947    0.202591    0.943199    11.00000   -1.50000
H52C  2    0.089105    0.310056    0.952305    11.00000   -1.50000
AFIX   0
C53   1    0.072278    0.184132    0.807179    11.00000    0.04618    0.03504 =
         0.06964    0.00405    0.00837    0.01620
AFIX 137
H53A  2    0.024617    0.171447    0.766888    11.00000   -1.50000
H53B  2    0.068469    0.121564    0.827680    11.00000   -1.50000
H53C  2    0.146249    0.218449    0.794879    11.00000   -1.50000
AFIX   0
C54   1   -0.078257    0.193529    0.876382    11.00000    0.03627    0.03518 =
         0.06403    0.01306    0.00739    0.00346
AFIX 137
H54A  2   -0.100196    0.231991    0.910519    11.00000   -1.50000
H54B  2   -0.082129    0.129333    0.894241    11.00000   -1.50000
H54C  2   -0.126319    0.184062    0.836445    11.00000   -1.50000
AFIX   0
C55   1   -0.132382    0.490169    0.755105    11.00000    0.01808    0.04573 =
         0.04686    0.01123    0.00536    0.01259
C56   1   -0.178796    0.433899    0.690222    11.00000    0.04172    0.05214 =
         0.07315    0.00279   -0.01865    0.01515
AFIX 137
H56A  2   -0.127395    0.456387    0.654743    11.00000   -1.50000
H56B  2   -0.246048    0.445529    0.677309    11.00000   -1.50000
H56C  2   -0.192933    0.363426    0.696693    11.00000   -1.50000
AFIX   0
C57   1   -0.215412    0.461104    0.809087    11.00000    0.04223    0.10122 =
         0.09474    0.04877    0.03577    0.04614
AFIX 137
H57A  2   -0.241119    0.389377    0.812761    11.00000   -1.50000
H57B  2   -0.276002    0.483851    0.796964    11.00000   -1.50000
H57C  2   -0.182470    0.491405    0.852226    11.00000   -1.50000
AFIX   0
C58   1   -0.107345    0.599940    0.744758    11.00000    0.03182    0.04957 =
         0.05464    0.00218   -0.00147    0.02245
AFIX 137
H58A  2   -0.068524    0.636587    0.784710    11.00000   -1.50000
H58B  2   -0.174549    0.614404    0.737227    11.00000   -1.50000
H58C  2   -0.062841    0.619499    0.705675    11.00000   -1.50000
AFIX   0
C59   1    0.892257    0.923436    0.670370    11.00000    0.01844    0.02368 =
         0.02919   -0.00188    0.00339    0.00580
C60   1    0.901633    1.006774    0.632826    11.00000    0.01916    0.01949 =
         0.03270   -0.00214   -0.00061    0.00891
AFIX  43
H60   2    0.838500    1.020240    0.618272    11.00000   -1.20000
AFIX   0
C61   1    1.001809    1.070831    0.616174    11.00000    0.02024    0.01824 =
         0.02644   -0.00427    0.00240    0.00537
C62   1    1.092387    1.047432    0.637009    11.00000    0.01735    0.02050 =
         0.03224   -0.00354    0.00163    0.00340
AFIX  43
H62   2    1.161192    1.090252    0.626103    11.00000   -1.20000
AFIX   0
C63   1    1.086005    0.963927    0.673107    11.00000    0.01951    0.02389 =
         0.02908   -0.00173   -0.00028    0.00765
C64   1    0.984730    0.902982    0.690143    11.00000    0.02396    0.02278 =
         0.03451    0.00177    0.00184    0.00966
AFIX  43
H64   2    0.978863    0.846362    0.715774    11.00000   -1.20000
AFIX   0
C65   1    1.007829    1.161774    0.574604    11.00000    0.01973    0.02202 =
         0.03394    0.00239    0.00165    0.00682
C66   1    0.952179    1.225349    0.611096    11.00000    0.03012    0.02534 =
         0.04183    0.00287    0.00712    0.01196
AFIX 137
H66A  2    0.878080    1.185543    0.619623    11.00000   -1.50000
H66B  2    0.951880    1.280812    0.583122    11.00000   -1.50000
H66C  2    0.991051    1.250277    0.653837    11.00000   -1.50000
AFIX   0
C67   1    1.123881    1.225096    0.563911    11.00000    0.02470    0.02512 =
         0.03918    0.00290    0.00541    0.00880
AFIX 137
H67A  2    1.161878    1.245082    0.607534    11.00000   -1.50000
H67B  2    1.124531    1.283720    0.539159    11.00000   -1.50000
H67C  2    1.159663    1.187098    0.538181    11.00000   -1.50000
AFIX   0
C68   1    0.953023    1.127139    0.505487    11.00000    0.02885    0.03002 =
         0.03420   -0.00025    0.00003    0.00791
AFIX 137
H68A  2    0.991424    1.089057    0.482212    11.00000   -1.50000
H68B  2    0.954156    1.184413    0.479031    11.00000   -1.50000
H68C  2    0.878454    1.085807    0.511037    11.00000   -1.50000
AFIX   0
C69   1    1.186820    0.940985    0.697718    11.00000    0.02048    0.03479 =
         0.04018    0.00453    0.00080    0.01179
C70   1    1.286186    1.000508    0.660610    11.00000    0.02585    0.07033 =
         0.08342    0.03232    0.01218    0.02452
AFIX 137
H70A  2    1.272830    0.987538    0.612201    11.00000   -1.50000
H70B  2    1.348004    0.981245    0.675570    11.00000   -1.50000
H70C  2    1.301261    1.070803    0.670331    11.00000   -1.50000
AFIX   0
C71   1    1.205094    0.969181    0.772353    11.00000    0.04063    0.05173 =
         0.04923   -0.00409   -0.01328    0.02597
AFIX 137
H71A  2    1.210197    1.038273    0.778782    11.00000   -1.50000
H71B  2    1.271958    0.959919    0.788976    11.00000   -1.50000
H71C  2    1.144846    0.927435    0.797167    11.00000   -1.50000
AFIX   0
C72   1    1.172355    0.832123    0.687303    11.00000    0.03453    0.04345 =
         0.05659   -0.00174   -0.00317    0.02375
AFIX 137
H72A  2    1.111868    0.792756    0.712990    11.00000   -1.50000
H72B  2    1.238003    0.819463    0.702702    11.00000   -1.50000
H72C  2    1.157894    0.814172    0.639523    11.00000   -1.50000
AFIX   0
PART 1
N101  4    0.593612    0.658460    0.832217    31.00000    0.03950    0.03436 =
         0.02288    0.00038    0.01079    0.02320
C101  1    0.696799    0.685077    0.854295    31.00000    0.05614    0.10090 =
         0.08725    0.05236   -0.00936    0.01562
AFIX  43
H101  2    0.749740    0.727074    0.827262    31.00000   -1.20000
AFIX   0
C102  1    0.730277    0.654772    0.914168    31.00000    0.06727    0.08931 =
         0.09673    0.05649   -0.02910   -0.00714
AFIX  43
H102  2    0.799766    0.688422    0.933392    31.00000   -1.20000
AFIX   0
C103  1    0.663915    0.577570    0.944844    31.00000    0.05854    0.03302 =
         0.05036    0.00219    0.00567    0.03278
AFIX  43
H103  2    0.684264    0.555296    0.986214    31.00000   -1.20000
AFIX   0
C104  1    0.565799    0.532389    0.913989    31.00000    0.06042    0.04058 =
         0.03913    0.00962    0.00657    0.02561
AFIX  43
H104  2    0.516040    0.477055    0.933592    31.00000   -1.20000
AFIX   0
C105  1    0.539017    0.567850    0.853602    31.00000    0.05597    0.03969 =
         0.03390    0.00787    0.01483    0.03381
AFIX  43
H105  2    0.480370    0.526930    0.826535    31.00000   -1.20000
AFIX   0
PART 0
PART -1
CL22  3    0.012916    0.630052    0.945027    10.50000    0.10578    0.23884 =
         0.09610   -0.01384    0.03088    0.09461
C201  1    0.074325    0.561672    1.000763    10.50000    0.23620    0.09013 =
         0.09418   -0.04470   -0.02741    0.02959
AFIX  23
H20A  2    0.121791    0.533163    0.976246    10.50000   -1.20000
H20B  2    0.115908    0.603777    1.038582    10.50000   -1.20000
AFIX   0
CL21  3   -0.040491    0.468500    1.028910    10.50000    0.43345    0.09456 =
         0.24861   -0.02190    0.17730    0.01677
SAME 0.02 0.04 Si2 > C44
PART 0
PART 2
SI2B  5    0.437533    1.144669    0.932421   -21.00000    0.06151    0.08333 =
         0.09936   -0.04558    0.00750    0.02215
C35B  1    0.562167    1.216626    0.980646   -21.00000    0.06151    0.08333 =
         0.09936   -0.04558    0.00750    0.02215
AFIX  23
H35C  2    0.547981    1.271176    1.005140   -21.00000   -1.20000
H35D  2    0.579041    1.173489    1.014510   -21.00000   -1.20000
AFIX   0
C36B  1    0.657018    1.258170    0.940501   -21.00000    0.06151    0.08333 =
         0.09936   -0.04558    0.00750    0.02215
AFIX  23
H36C  2    0.672691    1.204467    0.915900   -21.00000   -1.20000
H36D  2    0.642164    1.302959    0.907116   -21.00000   -1.20000
AFIX   0
C37B  1    0.749734    1.311951    0.983142   -21.00000    0.06151    0.08333 =
         0.09936   -0.04558    0.00750    0.02215
AFIX  23
H37C  2    0.765641    1.266816    1.015845   -21.00000   -1.20000
H37D  2    0.813121    1.338187    0.955320   -21.00000   -1.20000
AFIX   0
C38B  1    0.730127    1.390884    1.018082   -21.00000    0.06151    0.08333 =
         0.09936   -0.04558    0.00750    0.02215
N6B   4    0.717478    1.464278    1.049731   -21.00000    0.06151    0.08333 =
         0.09936   -0.04558    0.00750    0.02215
C39B  1    0.404227    1.217249    0.860385   -21.00000    0.04590    0.04928 =
         0.11196   -0.04280   -0.01415    0.02305
AFIX  13
H39B  2    0.326205    1.182873    0.849465   -21.00000   -1.20000
AFIX   0
C40B  1    0.411775    1.325800    0.873493   -21.00000    0.04590    0.04928 =
         0.11196   -0.04280   -0.01415    0.02305
AFIX 137
H40D  2    0.415144    1.339235    0.921958   -21.00000   -1.50000
H40E  2    0.348333    1.337444    0.853128   -21.00000   -1.50000
H40F  2    0.476621    1.369380    0.853685   -21.00000   -1.50000
AFIX   0
C41B  1    0.458562    1.217674    0.792623   -21.00000    0.04590    0.04928 =
         0.11196   -0.04280   -0.01415    0.02305
AFIX 137
H41D  2    0.521458    1.277028    0.790628   -21.00000   -1.50000
H41E  2    0.407408    1.216945    0.755599   -21.00000   -1.50000
H41F  2    0.481170    1.159316    0.788802   -21.00000   -1.50000
AFIX   0
C42B  1    0.320837    1.100949    0.987429   -21.00000    0.06291    0.11659 =
         0.12039   -0.06949    0.01743    0.01912
AFIX  13
H42B  2    0.349615    1.052753    1.010382   -21.00000   -1.20000
AFIX   0
C43B  1    0.229263    1.023226    0.954674   -21.00000    0.06291    0.11659 =
         0.12039   -0.06949    0.01743    0.01912
AFIX 137
H43D  2    0.214009    0.962842    0.980295   -21.00000   -1.50000
H43E  2    0.247177    1.010524    0.908918   -21.00000   -1.50000
H43F  2    0.165857    1.044755    0.953081   -21.00000   -1.50000
AFIX   0
C44B  1    0.309449    1.147250    1.048369   -21.00000    0.06291    0.11659 =
         0.12039   -0.06949    0.01743    0.01912
AFIX 137
H44D  2    0.379377    1.193073    1.063971   -21.00000   -1.50000
H44E  2    0.282446    1.097340    1.082214   -21.00000   -1.50000
H44F  2    0.258630    1.183427    1.041155   -21.00000   -1.50000
AFIX   0
SAME 0.02 0.04 N101 > C105
N111  4    0.605557    0.649008    0.825529   -31.00000    0.02998    0.03968 =
         0.02605   -0.00546    0.00120    0.02933
C111  1    0.702454    0.705513    0.851430   -31.00000    0.04579    0.05785 =
         0.04479   -0.01106   -0.01127    0.03529
AFIX  43
H111  2    0.738965    0.764195    0.829097   -31.00000   -1.20000
AFIX   0
C112  1    0.751000    0.683424    0.907662   -31.00000    0.08425    0.08661 =
         0.05488   -0.01687   -0.02997    0.05512
AFIX  43
H112  2    0.821436    0.723888    0.921415   -31.00000   -1.20000
AFIX   0
C113  1    0.700249    0.605163    0.943690   -31.00000    0.12832    0.08958 =
         0.06391   -0.00656   -0.02993    0.04238
AFIX  43
H113  2    0.735357    0.583313    0.979590   -31.00000   -1.20000
AFIX   0
C114  1    0.594059    0.558539    0.925323   -31.00000    0.14037    0.12563 =
         0.07493    0.03291   -0.04051    0.01334
AFIX  43
H114  2    0.552154    0.506665    0.951789   -31.00000   -1.20000
AFIX   0
C115  1    0.546473    0.585873    0.868522   -31.00000    0.08343    0.09316 =
         0.04645    0.01905   -0.00890    0.00321
AFIX  43
H115  2    0.470946    0.559038    0.860483   -31.00000   -1.20000
AFIX   0
HKLF 4

REM  2016ncs0714_a.res in P-1
REM R1 =  0.0814 for   11197 Fo > 4sig(Fo)  and  0.1224 for all   16242 data
REM    897 parameters refined using    986 restraints

END

WGHT      0.1003      7.2599

REM Highest difference peak  1.161,  deepest hole -0.904,  1-sigma level  0.094
Q1    1   0.5190  0.7208  0.7022  11.00000  0.05    1.16
Q2    1   0.6185  0.2688  0.5413  11.00000  0.05    1.01
Q3    1   0.0227  0.7674  0.8996  11.00000  0.05    0.83
Q4    1  -0.0001  0.4567  1.0419  11.00000  0.05    0.72
Q5    1   0.9459  0.8156  0.8893  11.00000  0.05    0.69
Q6    1   0.4388  1.1257  0.9470  11.00000  0.05    0.68
Q7    1   0.6176  1.3294  1.0008  11.00000  0.05    0.67
Q8    1   0.5366  1.2979  1.0286  11.00000  0.05    0.67
Q9    1  -0.0117  0.8620  0.9248  11.00000  0.05    0.65
Q10   1  -0.0675  0.8997  0.8638  11.00000  0.05    0.63
Q11   1   0.1175  0.5349  1.0119  11.00000  0.05    0.62
Q12   1   0.1337  0.8997  0.9544  11.00000  0.05    0.61
Q13   1   0.0302  0.5155  1.0408  11.00000  0.05    0.57
Q14   1   0.4402  1.2979  0.7681  11.00000  0.05    0.52
Q15   1   0.6845  1.1804  0.9551  11.00000  0.05    0.52
Q16   1   0.2968  0.9886  1.0211  11.00000  0.05    0.50
Q17   1   0.1883  0.9214  0.9783  11.00000  0.05    0.49
Q18   1   0.0810  1.1094  1.0822  11.00000  0.05    0.47
Q19   1   0.2315  1.0465  0.9404  11.00000  0.05    0.46
Q20   1  -0.0226  0.9612  0.9430  11.00000  0.05    0.46
;
_shelx_res_checksum              6210
_olex2_diffrn_ambient_temperature_device 'Oxford Cryosystems'
_olex2_submission_special_instructions 'No special instructions were received'
_oxdiff_exptl_absorpt_empirical_details
;
Empirical correction (ABSPACK) includes:
- Absorption correction using spherical harmonics
- Frame scaling
- Detector area scaling
;
_oxdiff_exptl_absorpt_empirical_full_max 1.501
_oxdiff_exptl_absorpt_empirical_full_min 0.584
loop_
_space_group_symop_operation_xyz
'x, y, z'
'-x, -y, -z'
loop_
_atom_site_label
_atom_site_type_symbol
_atom_site_fract_x
_atom_site_fract_y
_atom_site_fract_z
_atom_site_U_iso_or_equiv
_atom_site_adp_type
_atom_site_occupancy
_atom_site_site_symmetry_order
_atom_site_calc_flag
_atom_site_refinement_flags_posn
_atom_site_refinement_flags_adp
_atom_site_refinement_flags_occupancy
_atom_site_disorder_assembly
_atom_site_disorder_group
Zn1 Zn 0.53849(3) 0.70289(3) 0.74053(2) 0.02221(13) Uani 1 1 d . U . . .
N1 N 0.6500(2) 0.6929(2) 0.67321(16) 0.0223(6) Uani 1 1 d . U . . .
N2 N 0.4339(2) 0.5698(2) 0.70341(16) 0.0244(7) Uani 1 1 d . U . . .
N3 N 0.4073(2) 0.7282(2) 0.78249(16) 0.0239(7) Uani 1 1 d . U . . .
N4 N 0.6240(2) 0.8506(2) 0.75319(16) 0.0238(7) Uani 1 1 d . U . . .
C1 C 0.7466(3) 0.7628(3) 0.66096(19) 0.0227(7) Uani 1 1 d . U . . .
C2 C 0.8018(3) 0.7255(3) 0.6118(2) 0.0262(8) Uani 1 1 d . U . . .
H2 H 0.8701 0.7594 0.5948 0.031 Uiso 1 1 calc R . . . .
C3 C 0.7384(3) 0.6330(3) 0.5943(2) 0.0275(8) Uani 1 1 d . U . . .
H3 H 0.7536 0.5897 0.5629 0.033 Uiso 1 1 calc R . . . .
C4 C 0.6430(3) 0.6131(3) 0.6329(2) 0.0233(8) Uani 1 1 d . U . . .
C5 C 0.5556(3) 0.5259(3) 0.6269(2) 0.0232(8) Uani 1 1 d . U . . .
C6 C 0.4582(3) 0.5074(3) 0.6593(2) 0.0248(8) Uani 1 1 d . U . . .
C7 C 0.3677(3) 0.4192(3) 0.6491(2) 0.0294(9) Uani 1 1 d . U . . .
H7 H 0.3638 0.3642 0.6210 0.035 Uiso 1 1 calc R . . . .
C8 C 0.2888(3) 0.4298(3) 0.6874(2) 0.0301(9) Uani 1 1 d . U . . .
H8 H 0.2189 0.3835 0.6910 0.036 Uiso 1 1 calc R . . . .
C9 C 0.3305(3) 0.5240(3) 0.7217(2) 0.0258(8) Uani 1 1 d . U . . .
C10 C 0.2718(3) 0.5641(3) 0.7648(2) 0.0265(8) Uani 1 1 d . U . . .
C11 C 0.3080(3) 0.6596(3) 0.7924(2) 0.0251(8) Uani 1 1 d . U . . .
C12 C 0.2491(3) 0.7014(3) 0.8357(2) 0.0290(8) Uani 1 1 d . U . . .
H12 H 0.1790 0.6693 0.8508 0.035 Uiso 1 1 calc R . . . .
C13 C 0.3110(3) 0.7948(3) 0.8512(2) 0.0289(8) Uani 1 1 d . U . . .
H13 H 0.2928 0.8410 0.8787 0.035 Uiso 1 1 calc R . . . .
C14 C 0.4104(3) 0.8105(3) 0.8176(2) 0.0248(8) Uani 1 1 d . U . . .
C15 C 0.4967(3) 0.8989(3) 0.8215(2) 0.0264(8) Uani 1 1 d . U . . .
C16 C 0.5959(3) 0.9174(3) 0.7907(2) 0.0280(8) Uani 1 1 d . U . . .
C17 C 0.6817(3) 1.0099(3) 0.7940(2) 0.0370(10) Uani 1 1 d . U . . .
H17 H 0.6822 1.0683 0.8171 0.044 Uiso 1 1 calc R . . . .
C18 C 0.7614(3) 0.9976(3) 0.7580(2) 0.0331(9) Uani 1 1 d . U . . .
H18 H 0.8292 1.0457 0.7514 0.040 Uiso 1 1 calc R . . . .
C19 C 0.7251(3) 0.8987(3) 0.7316(2) 0.0261(8) Uani 1 1 d . U . . .
C20 C 0.7839(3) 0.8582(3) 0.6886(2) 0.0238(8) Uani 1 1 d . U . . .
C21 C 0.5647(3) 0.4494(3) 0.5834(2) 0.0267(8) Uani 1 1 d . U . . .
C22 C 0.5734(3) 0.3838(3) 0.5487(2) 0.0294(9) Uani 1 1 d D U . . .
Si1 Si 0.59886(8) 0.28308(8) 0.50170(6) 0.0278(3) Uani 1 1 d D U . . .
C23 C 0.7048(3) 0.3401(3) 0.4400(2) 0.0365(10) Uani 1 1 d . U . . .
H23A H 0.7485 0.2964 0.4335 0.044 Uiso 1 1 calc R . . . .
H23B H 0.6691 0.3446 0.3962 0.044 Uiso 1 1 calc R . . . .
C24 C 0.7787(3) 0.4416(3) 0.4615(2) 0.0365(10) Uani 1 1 d . U . . .
H24A H 0.8028 0.4399 0.5089 0.044 Uiso 1 1 calc R . . . .
H24B H 0.7377 0.4883 0.4590 0.044 Uiso 1 1 calc R . . . .
C25 C 0.8779(3) 0.4798(3) 0.4188(2) 0.0354(10) Uani 1 1 d . U . . .
H25A H 0.8549 0.4752 0.3707 0.042 Uiso 1 1 calc R . . . .
H25B H 0.9160 0.5499 0.4306 0.042 Uiso 1 1 calc R . . . .
C26 C 0.9511(3) 0.4226(3) 0.4298(2) 0.0361(10) Uani 1 1 d . U . . .
N5 N 1.0077(3) 0.3783(3) 0.4412(2) 0.0489(10) Uani 1 1 d . U . . .
C30 C 0.4731(3) 0.2095(3) 0.4543(2) 0.0345(9) Uani 1 1 d . U . . .
H30 H 0.4475 0.2580 0.4293 0.041 Uiso 1 1 calc R . . . .
C31 C 0.4913(4) 0.1393(3) 0.4008(2) 0.0421(11) Uani 1 1 d . U . . .
H31A H 0.5464 0.1766 0.3706 0.063 Uiso 1 1 calc GR . . . .
H31B H 0.4240 0.1077 0.3749 0.063 Uiso 1 1 calc GR . . . .
H31C H 0.5151 0.0889 0.4227 0.063 Uiso 1 1 calc GR . . . .
C32 C 0.3815(3) 0.1548(4) 0.4984(3) 0.0437(11) Uani 1 1 d . U . . .
H32A H 0.4008 0.1036 0.5225 0.066 Uiso 1 1 calc GR . . . .
H32B H 0.3163 0.1245 0.4704 0.066 Uiso 1 1 calc GR . . . .
H32C H 0.3687 0.2012 0.5308 0.066 Uiso 1 1 calc GR . . . .
C27 C 0.6529(3) 0.2139(3) 0.5647(2) 0.0355(9) Uani 1 1 d . U . . .
H27 H 0.7279 0.2566 0.5770 0.043 Uiso 1 1 calc R . . . .
C28 C 0.5939(5) 0.1943(4) 0.6295(3) 0.0571(14) Uani 1 1 d . U . . .
H28A H 0.5871 0.2558 0.6473 0.086 Uiso 1 1 calc GR . . . .
H28B H 0.6342 0.1682 0.6623 0.086 Uiso 1 1 calc GR . . . .
H28C H 0.5222 0.1462 0.6210 0.086 Uiso 1 1 calc GR . . . .
C29 C 0.6617(4) 0.1181(3) 0.5353(3) 0.0482(12) Uani 1 1 d . U . . .
H29A H 0.5898 0.0732 0.5227 0.072 Uiso 1 1 calc GR . . . .
H29B H 0.6958 0.0874 0.5689 0.072 Uiso 1 1 calc GR . . . .
H29C H 0.7052 0.1324 0.4955 0.072 Uiso 1 1 calc GR . . . .
C33 C 0.4828(3) 0.9805(3) 0.8584(2) 0.0324(9) Uani 1 1 d . U . . .
C34 C 0.4728(4) 1.0498(4) 0.8875(2) 0.0408(10) Uani 1 1 d D U . . .
Si2 Si 0.4679(2) 1.16959(17) 0.92099(13) 0.0329(6) Uani 0.689(5) 1 d D U P A 1
C35 C 0.3337(10) 1.1447(11) 0.9575(6) 0.1010(19) Uani 0.689(5) 1 d D U P A 1
H35A H 0.3252 1.2079 0.9715 0.121 Uiso 0.689(5) 1 calc R . P A 1
H35B H 0.2774 1.1137 0.9225 0.121 Uiso 0.689(5) 1 calc R . P A 1
C36 C 0.3173(10) 1.0787(11) 1.0169(6) 0.1010(19) Uani 0.689(5) 1 d D U P A 1
H36A H 0.3348 1.0187 1.0050 0.121 Uiso 0.689(5) 1 calc R . P A 1
H36B H 0.3663 1.1132 1.0547 0.121 Uiso 0.689(5) 1 calc R . P A 1
C37 C 0.2033(9) 1.0503(10) 1.0380(6) 0.1010(19) Uani 0.689(5) 1 d D U P A 1
H37A H 0.1966 1.0154 1.0810 0.121 Uiso 0.689(5) 1 calc R . P A 1
H37B H 0.1835 1.1104 1.0454 0.121 Uiso 0.689(5) 1 calc R . P A 1
C38 C 0.1321(10) 0.9889(11) 0.9887(6) 0.1010(19) Uani 0.689(5) 1 d D U P A 1
N6 N 0.0595(8) 0.9292(8) 0.9486(5) 0.1010(19) Uani 0.689(5) 1 d D U P A 1
C39 C 0.5773(7) 1.2157(8) 0.9881(5) 0.0415(10) Uani 0.689(5) 1 d D U P A 1
H39 H 0.5621 1.1644 1.0231 0.050 Uiso 0.689(5) 1 calc R . P A 1
C40 C 0.5700(6) 1.3090(5) 1.0222(3) 0.0415(10) Uani 0.689(5) 1 d D U P A 1
H40A H 0.5856 1.3621 0.9900 0.062 Uiso 0.689(5) 1 calc GR . P A 1
H40B H 0.6223 1.3281 1.0602 0.062 Uiso 0.689(5) 1 calc GR . P A 1
H40C H 0.4975 1.2964 1.0384 0.062 Uiso 0.689(5) 1 calc GR . P A 1
C41 C 0.6884(6) 1.2258(5) 0.9637(4) 0.0415(10) Uani 0.689(5) 1 d D U P A 1
H41A H 0.6877 1.1632 0.9434 0.062 Uiso 0.689(5) 1 calc GR . P A 1
H41B H 0.7406 1.2433 1.0018 0.062 Uiso 0.689(5) 1 calc GR . P A 1
H41C H 0.7084 1.2773 0.9304 0.062 Uiso 0.689(5) 1 calc GR . P A 1
C42 C 0.4923(9) 1.2624(8) 0.8509(5) 0.0773(17) Uani 0.689(5) 1 d D U P A 1
H42 H 0.5457 1.3240 0.8707 0.093 Uiso 0.689(5) 1 calc R . P A 1
C43 C 0.5444(9) 1.2362(8) 0.7926(5) 0.0773(17) Uani 0.689(5) 1 d D U P A 1
H43A H 0.6043 1.2146 0.8082 0.116 Uiso 0.689(5) 1 calc GR . P A 1
H43B H 0.5715 1.2938 0.7645 0.116 Uiso 0.689(5) 1 calc GR . P A 1
H43C H 0.4919 1.1829 0.7663 0.116 Uiso 0.689(5) 1 calc GR . P A 1
C44 C 0.4000(9) 1.2903(8) 0.8300(5) 0.0773(17) Uani 0.689(5) 1 d D U P A 1
H44A H 0.3485 1.2358 0.8042 0.116 Uiso 0.689(5) 1 calc GR . P A 1
H44B H 0.4233 1.3484 0.8020 0.116 Uiso 0.689(5) 1 calc GR . P A 1
H44C H 0.3659 1.3056 0.8697 0.116 Uiso 0.689(5) 1 calc GR . P A 1
C45 C 0.1623(3) 0.4996(3) 0.7802(2) 0.0268(8) Uani 1 1 d . U . . .
C46 C 0.1490(3) 0.4108(3) 0.8112(2) 0.0284(8) Uani 1 1 d . U . . .
H46 H 0.2105 0.3931 0.8233 0.034 Uiso 1 1 calc R . . . .
C47 C 0.0476(3) 0.3472(3) 0.8251(2) 0.0278(8) Uani 1 1 d . U . . .
C48 C -0.0408(3) 0.3760(3) 0.8067(2) 0.0296(9) Uani 1 1 d . U . . .
H48 H -0.1107 0.3329 0.8153 0.035 Uiso 1 1 calc R . . . .
C49 C -0.0311(3) 0.4643(3) 0.7767(2) 0.0284(8) Uani 1 1 d . U . . .
C50 C 0.0710(3) 0.5251(3) 0.7632(2) 0.0260(8) Uani 1 1 d . U . . .
H50 H 0.0793 0.5857 0.7419 0.031 Uiso 1 1 calc R . . . .
C51 C 0.0369(3) 0.2484(3) 0.8576(2) 0.0364(10) Uani 1 1 d . U . . .
C52 C 0.1087(4) 0.2655(4) 0.9216(3) 0.0530(13) Uani 1 1 d . U . . .
H52A H 0.1840 0.2949 0.9101 0.080 Uiso 1 1 calc GR . . . .
H52B H 0.0989 0.2026 0.9432 0.080 Uiso 1 1 calc GR . . . .
H52C H 0.0891 0.3101 0.9523 0.080 Uiso 1 1 calc GR . . . .
C53 C 0.0723(4) 0.1841(4) 0.8072(3) 0.0494(12) Uani 1 1 d . U . . .
H53A H 0.0246 0.1714 0.7669 0.074 Uiso 1 1 calc GR . . . .
H53B H 0.0685 0.1216 0.8277 0.074 Uiso 1 1 calc GR . . . .
H53C H 0.1462 0.2184 0.7949 0.074 Uiso 1 1 calc GR . . . .
C54 C -0.0783(4) 0.1935(4) 0.8764(3) 0.0469(12) Uani 1 1 d . U . . .
H54A H -0.1002 0.2320 0.9105 0.070 Uiso 1 1 calc GR . . . .
H54B H -0.0821 0.1293 0.8942 0.070 Uiso 1 1 calc GR . . . .
H54C H -0.1263 0.1841 0.8364 0.070 Uiso 1 1 calc GR . . . .
C55 C -0.1324(3) 0.4902(3) 0.7551(2) 0.0362(10) Uani 1 1 d . U . . .
C56 C -0.1788(4) 0.4339(4) 0.6902(3) 0.0562(14) Uani 1 1 d . U . . .
H56A H -0.1274 0.4564 0.6547 0.084 Uiso 1 1 calc GR . . . .
H56B H -0.2460 0.4455 0.6773 0.084 Uiso 1 1 calc GR . . . .
H56C H -0.1929 0.3634 0.6967 0.084 Uiso 1 1 calc GR . . . .
C57 C -0.2154(4) 0.4611(5) 0.8091(3) 0.0727(19) Uani 1 1 d . U . . .
H57A H -0.2411 0.3894 0.8128 0.109 Uiso 1 1 calc GR . . . .
H57B H -0.2760 0.4839 0.7970 0.109 Uiso 1 1 calc GR . . . .
H57C H -0.1825 0.4914 0.8522 0.109 Uiso 1 1 calc GR . . . .
C58 C -0.1073(4) 0.5999(4) 0.7448(3) 0.0432(11) Uani 1 1 d . U . . .
H58A H -0.0685 0.6366 0.7847 0.065 Uiso 1 1 calc GR . . . .
H58B H -0.1745 0.6144 0.7372 0.065 Uiso 1 1 calc GR . . . .
H58C H -0.0628 0.6195 0.7057 0.065 Uiso 1 1 calc GR . . . .
C59 C 0.8923(3) 0.9234(3) 0.67037(19) 0.0240(8) Uani 1 1 d . U . . .
C60 C 0.9016(3) 1.0068(3) 0.63283(19) 0.0232(8) Uani 1 1 d . U . . .
H60 H 0.8385 1.0202 0.6183 0.028 Uiso 1 1 calc R . . . .
C61 C 1.0018(3) 1.0708(3) 0.61617(19) 0.0219(7) Uani 1 1 d . U . . .
C62 C 1.0924(3) 1.0474(3) 0.63701(19) 0.0241(8) Uani 1 1 d . U . . .
H62 H 1.1612 1.0903 0.6261 0.029 Uiso 1 1 calc R . . . .
C63 C 1.0860(3) 0.9639(3) 0.67311(19) 0.0241(8) Uani 1 1 d . U . . .
C64 C 0.9847(3) 0.9030(3) 0.6901(2) 0.0266(8) Uani 1 1 d . U . . .
H64 H 0.9789 0.8464 0.7158 0.032 Uiso 1 1 calc R . . . .
C65 C 1.0078(3) 1.1618(3) 0.5746(2) 0.0252(8) Uani 1 1 d . U . . .
C66 C 0.9522(3) 1.2253(3) 0.6111(2) 0.0316(9) Uani 1 1 d . U . . .
H66A H 0.8781 1.1855 0.6196 0.047 Uiso 1 1 calc GR . . . .
H66B H 0.9519 1.2808 0.5831 0.047 Uiso 1 1 calc GR . . . .
H66C H 0.9911 1.2503 0.6538 0.047 Uiso 1 1 calc GR . . . .
C67 C 1.1239(3) 1.2251(3) 0.5639(2) 0.0294(9) Uani 1 1 d . U . . .
H67A H 1.1619 1.2451 0.6075 0.044 Uiso 1 1 calc GR . . . .
H67B H 1.1245 1.2837 0.5392 0.044 Uiso 1 1 calc GR . . . .
H67C H 1.1597 1.1871 0.5382 0.044 Uiso 1 1 calc GR . . . .
C68 C 0.9530(3) 1.1271(3) 0.5055(2) 0.0315(9) Uani 1 1 d . U . . .
H68A H 0.9914 1.0891 0.4822 0.047 Uiso 1 1 calc GR . . . .
H68B H 0.9542 1.1844 0.4790 0.047 Uiso 1 1 calc GR . . . .
H68C H 0.8785 1.0858 0.5110 0.047 Uiso 1 1 calc GR . . . .
C69 C 1.1868(3) 0.9410(3) 0.6977(2) 0.0311(9) Uani 1 1 d . U . . .
C70 C 1.2862(4) 1.0005(4) 0.6606(3) 0.0572(15) Uani 1 1 d . U . . .
H70A H 1.2728 0.9875 0.6122 0.086 Uiso 1 1 calc GR . . . .
H70B H 1.3480 0.9812 0.6756 0.086 Uiso 1 1 calc GR . . . .
H70C H 1.3013 1.0708 0.6703 0.086 Uiso 1 1 calc GR . . . .
C71 C 1.2051(4) 0.9692(4) 0.7724(2) 0.0450(11) Uani 1 1 d . U . . .
H71A H 1.2102 1.0383 0.7788 0.067 Uiso 1 1 calc GR . . . .
H71B H 1.2720 0.9599 0.7890 0.067 Uiso 1 1 calc GR . . . .
H71C H 1.1448 0.9274 0.7972 0.067 Uiso 1 1 calc GR . . . .
C72 C 1.1724(4) 0.8321(3) 0.6873(3) 0.0423(11) Uani 1 1 d . U . . .
H72A H 1.1119 0.7928 0.7130 0.063 Uiso 1 1 calc GR . . . .
H72B H 1.2380 0.8195 0.7027 0.063 Uiso 1 1 calc GR . . . .
H72C H 1.1579 0.8142 0.6395 0.063 Uiso 1 1 calc GR . . . .
N101 N 0.5936(15) 0.6585(16) 0.8322(12) 0.029(4) Uani 0.43(3) 1 d D U P B 1
C101 C 0.6968(17) 0.685(2) 0.8543(13) 0.084(9) Uani 0.43(3) 1 d D U P B 1
H101 H 0.7497 0.7271 0.8273 0.100 Uiso 0.43(3) 1 calc R . P B 1
C102 C 0.7303(17) 0.6548(19) 0.9142(13) 0.093(10) Uani 0.43(3) 1 d D U P B 1
H102 H 0.7998 0.6884 0.9334 0.111 Uiso 0.43(3) 1 calc R . P B 1
C103 C 0.6639(15) 0.5776(13) 0.9448(8) 0.043(4) Uani 0.43(3) 1 d D U P B 1
H103 H 0.6843 0.5553 0.9862 0.051 Uiso 0.43(3) 1 calc R . P B 1
C104 C 0.5658(14) 0.5324(12) 0.9140(8) 0.044(4) Uani 0.43(3) 1 d D U P B 1
H104 H 0.5160 0.4771 0.9336 0.053 Uiso 0.43(3) 1 calc R . P B 1
C105 C 0.5390(12) 0.5678(12) 0.8536(9) 0.038(3) Uani 0.43(3) 1 d D U P B 1
H105 H 0.4804 0.5269 0.8265 0.046 Uiso 0.43(3) 1 calc R . P B 1
Cl22 Cl 0.0129(4) 0.6301(5) 0.9450(2) 0.137(2) Uani 0.5 1 d D U P C -1
C201 C 0.074(2) 0.5617(12) 1.0008(10) 0.147(6) Uani 0.5 1 d D U P C -1
H20A H 0.1218 0.5332 0.9762 0.177 Uiso 0.5 1 calc R . P C -1
H20B H 0.1159 0.6038 1.0386 0.177 Uiso 0.5 1 calc R . P C -1
Cl21 Cl -0.0405(13) 0.4685(6) 1.0289(6) 0.272(7) Uani 0.5 1 d D U P C -1
Si2B Si 0.4375(7) 1.1447(7) 0.9324(5) 0.082(2) Uani 0.311(5) 1 d D U P A 2
C35B C 0.5622(15) 1.217(3) 0.9806(13) 0.082(2) Uani 0.311(5) 1 d D U P A 2
H35C H 0.5480 1.2712 1.0051 0.098 Uiso 0.311(5) 1 calc R . P A 2
H35D H 0.5790 1.1735 1.0145 0.098 Uiso 0.311(5) 1 calc R . P A 2
C36B C 0.6570(14) 1.2582(17) 0.9405(12) 0.082(2) Uani 0.311(5) 1 d D U P A 2
H36C H 0.6727 1.2045 0.9159 0.098 Uiso 0.311(5) 1 calc R . P A 2
H36D H 0.6422 1.3030 0.9071 0.098 Uiso 0.311(5) 1 calc R . P A 2
C37B C 0.7497(14) 1.3120(16) 0.9831(12) 0.082(2) Uani 0.311(5) 1 d D U P A 2
H37C H 0.7656 1.2668 1.0158 0.098 Uiso 0.311(5) 1 calc R . P A 2
H37D H 0.8131 1.3382 0.9553 0.098 Uiso 0.311(5) 1 calc R . P A 2
C38B C 0.7301(17) 1.3909(15) 1.0181(12) 0.082(2) Uani 0.311(5) 1 d D U P A 2
N6B N 0.7175(14) 1.4643(13) 1.0497(10) 0.082(2) Uani 0.311(5) 1 d D U P A 2
C39B C 0.4042(14) 1.2172(11) 0.8604(8) 0.068(3) Uani 0.311(5) 1 d D U P A 2
H39B H 0.3262 1.1829 0.8495 0.082 Uiso 0.311(5) 1 calc R . P A 2
C40B C 0.4118(14) 1.3258(11) 0.8735(12) 0.068(3) Uani 0.311(5) 1 d D U P A 2
H40D H 0.4151 1.3392 0.9220 0.102 Uiso 0.311(5) 1 calc GR . P A 2
H40E H 0.3483 1.3374 0.8531 0.102 Uiso 0.311(5) 1 calc GR . P A 2
H40F H 0.4766 1.3694 0.8537 0.102 Uiso 0.311(5) 1 calc GR . P A 2
C41B C 0.4586(14) 1.2177(13) 0.7926(9) 0.068(3) Uani 0.311(5) 1 d D U P A 2
H41D H 0.5215 1.2770 0.7906 0.102 Uiso 0.311(5) 1 calc GR . P A 2
H41E H 0.4074 1.2169 0.7556 0.102 Uiso 0.311(5) 1 calc GR . P A 2
H41F H 0.4812 1.1593 0.7888 0.102 Uiso 0.311(5) 1 calc GR . P A 2
C42B C 0.3208(16) 1.1009(19) 0.9874(11) 0.103(5) Uani 0.311(5) 1 d D U P A 2
H42B H 0.3496 1.0528 1.0104 0.123 Uiso 0.311(5) 1 calc R . P A 2
C43B C 0.2293(15) 1.0232(18) 0.9547(13) 0.103(5) Uani 0.311(5) 1 d D U P A 2
H43D H 0.2140 0.9628 0.9803 0.154 Uiso 0.311(5) 1 calc GR . P A 2
H43E H 0.2472 1.0105 0.9089 0.154 Uiso 0.311(5) 1 calc GR . P A 2
H43F H 0.1659 1.0448 0.9531 0.154 Uiso 0.311(5) 1 calc GR . P A 2
C44B C 0.3094(18) 1.147(2) 1.0484(12) 0.103(5) Uani 0.311(5) 1 d D U P A 2
H44D H 0.3794 1.1931 1.0640 0.154 Uiso 0.311(5) 1 calc GR . P A 2
H44E H 0.2824 1.0973 1.0822 0.154 Uiso 0.311(5) 1 calc GR . P A 2
H44F H 0.2586 1.1834 1.0412 0.154 Uiso 0.311(5) 1 calc GR . P A 2
N111 N 0.6056(11) 0.6490(13) 0.8255(9) 0.028(3) Uani 0.57(3) 1 d D U P B 2
C111 C 0.7025(10) 0.7055(13) 0.8514(7) 0.045(3) Uani 0.57(3) 1 d D U P B 2
H111 H 0.7390 0.7642 0.8291 0.055 Uiso 0.57(3) 1 calc R . P B 2
C112 C 0.7510(15) 0.6834(17) 0.9077(8) 0.070(4) Uani 0.57(3) 1 d D U P B 2
H112 H 0.8214 0.7239 0.9214 0.084 Uiso 0.57(3) 1 calc R . P B 2
C113 C 0.700(2) 0.6052(18) 0.9437(9) 0.093(6) Uani 0.57(3) 1 d D U P B 2
H113 H 0.7354 0.5833 0.9796 0.112 Uiso 0.57(3) 1 calc R . P B 2
C114 C 0.594(2) 0.559(2) 0.9253(10) 0.122(9) Uani 0.57(3) 1 d D U P B 2
H114 H 0.5522 0.5067 0.9518 0.146 Uiso 0.57(3) 1 calc R . P B 2
C115 C 0.5465(14) 0.5859(16) 0.8685(10) 0.081(7) Uani 0.57(3) 1 d D U P B 2
H115 H 0.4709 0.5590 0.8605 0.097 Uiso 0.57(3) 1 calc R . P B 2
loop_
_atom_site_aniso_label
_atom_site_aniso_U_11
_atom_site_aniso_U_22
_atom_site_aniso_U_33
_atom_site_aniso_U_23
_atom_site_aniso_U_13
_atom_site_aniso_U_12
Zn1 0.0154(2) 0.0205(2) 0.0307(3) -0.00102(17) 0.00321(16) 0.00557(16)
N1 0.0160(14) 0.0192(14) 0.0325(17) 0.0004(12) 0.0034(12) 0.0063(11)
N2 0.0167(14) 0.0209(15) 0.0341(17) -0.0007(13) 0.0032(12) 0.0039(12)
N3 0.0156(14) 0.0211(15) 0.0346(18) -0.0023(13) 0.0033(12) 0.0052(12)
N4 0.0170(14) 0.0218(15) 0.0324(17) -0.0037(13) 0.0027(12) 0.0061(12)
C1 0.0151(16) 0.0233(17) 0.0314(19) 0.0008(14) 0.0013(14) 0.0083(13)
C2 0.0201(17) 0.0253(18) 0.035(2) 0.0013(16) 0.0071(15) 0.0100(15)
C3 0.0216(18) 0.0258(19) 0.038(2) 0.0017(16) 0.0073(16) 0.0112(15)
C4 0.0199(16) 0.0206(16) 0.033(2) 0.0012(14) 0.0035(14) 0.0103(13)
C5 0.0163(16) 0.0211(17) 0.033(2) -0.0005(15) 0.0021(14) 0.0074(13)
C6 0.0200(16) 0.0196(17) 0.035(2) 0.0007(15) 0.0038(15) 0.0068(14)
C7 0.0211(18) 0.0233(18) 0.043(2) -0.0053(17) 0.0051(16) 0.0063(15)
C8 0.0195(17) 0.0250(19) 0.043(2) -0.0051(17) 0.0044(16) 0.0038(15)
C9 0.0165(16) 0.0246(18) 0.036(2) -0.0002(16) 0.0024(14) 0.0065(14)
C10 0.0158(16) 0.0269(18) 0.037(2) 0.0021(16) 0.0020(15) 0.0072(14)
C11 0.0169(16) 0.0278(18) 0.033(2) 0.0008(15) 0.0046(14) 0.0094(14)
C12 0.0188(17) 0.032(2) 0.038(2) 0.0020(17) 0.0045(16) 0.0091(15)
C13 0.0255(18) 0.034(2) 0.032(2) -0.0012(17) 0.0043(16) 0.0155(16)
C14 0.0206(17) 0.0254(17) 0.031(2) -0.0011(15) 0.0014(14) 0.0111(14)
C15 0.0238(17) 0.0265(18) 0.031(2) -0.0029(15) 0.0020(15) 0.0110(15)
C16 0.0206(17) 0.0244(18) 0.038(2) -0.0056(16) 0.0031(15) 0.0061(14)
C17 0.027(2) 0.0245(19) 0.056(3) -0.0107(19) 0.0080(19) 0.0033(16)
C18 0.0223(18) 0.0240(19) 0.048(3) -0.0076(17) 0.0086(17) 0.0006(15)
C19 0.0170(16) 0.0236(18) 0.035(2) -0.0028(15) 0.0011(15) 0.0025(14)
C20 0.0181(16) 0.0206(17) 0.034(2) 0.0021(15) 0.0030(14) 0.0071(13)
C21 0.0151(17) 0.0227(18) 0.041(2) 0.0025(16) 0.0051(15) 0.0041(14)
C22 0.0186(18) 0.0220(18) 0.047(2) 0.0012(16) 0.0073(17) 0.0048(15)
Si1 0.0220(5) 0.0220(5) 0.0410(7) -0.0034(5) 0.0046(5) 0.0090(4)
C23 0.032(2) 0.037(2) 0.042(2) -0.0012(19) 0.0062(18) 0.0134(18)
C24 0.033(2) 0.034(2) 0.045(3) 0.0054(19) 0.0118(19) 0.0135(18)
C25 0.036(2) 0.030(2) 0.040(2) 0.0051(18) 0.0055(18) 0.0108(18)
C26 0.031(2) 0.033(2) 0.041(2) 0.0012(19) 0.0102(18) 0.0060(18)
N5 0.040(2) 0.049(2) 0.063(3) 0.010(2) 0.016(2) 0.0194(19)
C30 0.036(2) 0.028(2) 0.043(2) -0.0011(18) -0.0064(18) 0.0166(17)
C31 0.045(3) 0.038(2) 0.041(3) -0.003(2) -0.003(2) 0.010(2)
C32 0.024(2) 0.040(3) 0.064(3) -0.013(2) -0.002(2) 0.0085(19)
C27 0.028(2) 0.031(2) 0.049(2) -0.0020(18) -0.0062(18) 0.0138(17)
C28 0.061(3) 0.057(3) 0.056(3) 0.013(3) -0.001(3) 0.023(3)
C29 0.040(3) 0.034(2) 0.074(3) -0.005(2) -0.017(2) 0.018(2)
C33 0.0241(19) 0.034(2) 0.040(2) -0.0047(18) 0.0019(17) 0.0105(17)
C34 0.033(2) 0.045(2) 0.046(3) -0.011(2) 0.0024(19) 0.0151(19)
Si2 0.0392(14) 0.0301(11) 0.0359(11) -0.0118(8) -0.0004(9) 0.0211(10)
C35 0.086(4) 0.121(5) 0.090(4) 0.021(3) 0.025(3) 0.023(3)
C36 0.086(4) 0.121(5) 0.090(4) 0.021(3) 0.025(3) 0.023(3)
C37 0.086(4) 0.121(5) 0.090(4) 0.021(3) 0.025(3) 0.023(3)
C38 0.086(4) 0.121(5) 0.090(4) 0.021(3) 0.025(3) 0.023(3)
N6 0.086(4) 0.121(5) 0.090(4) 0.021(3) 0.025(3) 0.023(3)
C39 0.051(2) 0.037(2) 0.037(2) -0.0073(17) -0.0057(17) 0.0156(19)
C40 0.051(2) 0.037(2) 0.037(2) -0.0073(17) -0.0057(17) 0.0156(19)
C41 0.051(2) 0.037(2) 0.037(2) -0.0073(17) -0.0057(17) 0.0156(19)
C42 0.093(5) 0.072(4) 0.070(3) 0.020(3) 0.008(3) 0.029(3)
C43 0.093(5) 0.072(4) 0.070(3) 0.020(3) 0.008(3) 0.029(3)
C44 0.093(5) 0.072(4) 0.070(3) 0.020(3) 0.008(3) 0.029(3)
C45 0.0177(16) 0.0277(19) 0.035(2) -0.0010(16) 0.0045(15) 0.0069(14)
C46 0.0178(17) 0.0294(19) 0.038(2) -0.0008(16) 0.0009(15) 0.0077(15)
C47 0.0227(18) 0.0275(19) 0.032(2) -0.0013(16) 0.0021(15) 0.0071(15)
C48 0.0195(18) 0.032(2) 0.036(2) 0.0021(17) 0.0057(16) 0.0065(15)
C49 0.0204(17) 0.035(2) 0.032(2) 0.0012(17) 0.0058(15) 0.0121(15)
C50 0.0203(17) 0.0297(19) 0.029(2) 0.0004(16) 0.0059(15) 0.0094(15)
C51 0.027(2) 0.031(2) 0.049(3) 0.0069(18) 0.0010(18) 0.0070(17)
C52 0.046(3) 0.049(3) 0.058(3) 0.018(2) -0.007(2) 0.007(2)
C53 0.046(3) 0.035(2) 0.070(3) 0.004(2) 0.008(2) 0.016(2)
C54 0.036(2) 0.035(2) 0.064(3) 0.013(2) 0.007(2) 0.0035(19)
C55 0.0181(18) 0.046(2) 0.047(2) 0.0112(19) 0.0054(17) 0.0126(17)
C56 0.042(3) 0.052(3) 0.073(3) 0.003(3) -0.019(2) 0.015(2)
C57 0.042(3) 0.101(5) 0.095(4) 0.049(4) 0.036(3) 0.046(3)
C58 0.032(2) 0.050(3) 0.055(3) 0.002(2) -0.001(2) 0.022(2)
C59 0.0184(16) 0.0237(18) 0.0292(19) -0.0019(15) 0.0034(14) 0.0058(14)
C60 0.0192(16) 0.0195(17) 0.033(2) -0.0021(15) -0.0006(14) 0.0089(14)
C61 0.0202(16) 0.0182(16) 0.0264(18) -0.0043(14) 0.0024(14) 0.0054(13)
C62 0.0174(16) 0.0205(17) 0.032(2) -0.0035(15) 0.0016(14) 0.0034(14)
C63 0.0195(17) 0.0239(18) 0.0291(19) -0.0017(15) -0.0003(14) 0.0077(14)
C64 0.0240(17) 0.0228(18) 0.035(2) 0.0018(16) 0.0018(15) 0.0097(15)
C65 0.0197(17) 0.0220(17) 0.034(2) 0.0024(15) 0.0016(15) 0.0068(14)
C66 0.030(2) 0.025(2) 0.042(2) 0.0029(18) 0.0071(18) 0.0120(17)
C67 0.0247(19) 0.0251(19) 0.039(2) 0.0029(17) 0.0054(16) 0.0088(16)
C68 0.029(2) 0.030(2) 0.034(2) -0.0003(17) 0.0000(16) 0.0079(17)
C69 0.0205(18) 0.035(2) 0.040(2) 0.0045(17) 0.0008(16) 0.0118(16)
C70 0.026(2) 0.070(3) 0.083(4) 0.032(3) 0.012(2) 0.025(2)
C71 0.041(3) 0.052(3) 0.049(3) -0.004(2) -0.013(2) 0.026(2)
C72 0.035(2) 0.043(2) 0.057(3) -0.002(2) -0.003(2) 0.024(2)
N101 0.040(6) 0.034(5) 0.023(5) 0.000(4) 0.011(4) 0.023(5)
C101 0.056(7) 0.101(15) 0.087(11) 0.052(12) -0.009(6) 0.016(7)
C102 0.067(8) 0.089(13) 0.097(12) 0.056(12) -0.029(7) -0.007(9)
C103 0.059(7) 0.033(7) 0.050(6) 0.002(5) 0.006(5) 0.033(5)
C104 0.060(7) 0.041(7) 0.039(6) 0.010(5) 0.007(5) 0.026(5)
C105 0.056(6) 0.040(5) 0.034(6) 0.008(4) 0.015(4) 0.034(5)
Cl22 0.106(3) 0.239(6) 0.096(3) -0.014(4) 0.031(3) 0.095(4)
C201 0.236(14) 0.090(12) 0.094(12) -0.045(8) -0.027(10) 0.030(10)
Cl21 0.433(17) 0.095(5) 0.249(11) -0.022(5) 0.177(11) 0.017(7)
Si2B 0.062(4) 0.083(4) 0.099(5) -0.046(3) 0.008(3) 0.022(3)
C35B 0.062(4) 0.083(4) 0.099(5) -0.046(3) 0.008(3) 0.022(3)
C36B 0.062(4) 0.083(4) 0.099(5) -0.046(3) 0.008(3) 0.022(3)
C37B 0.062(4) 0.083(4) 0.099(5) -0.046(3) 0.008(3) 0.022(3)
C38B 0.062(4) 0.083(4) 0.099(5) -0.046(3) 0.008(3) 0.022(3)
N6B 0.062(4) 0.083(4) 0.099(5) -0.046(3) 0.008(3) 0.022(3)
C39B 0.046(6) 0.049(5) 0.112(7) -0.043(5) -0.014(5) 0.023(5)
C40B 0.046(6) 0.049(5) 0.112(7) -0.043(5) -0.014(5) 0.023(5)
C41B 0.046(6) 0.049(5) 0.112(7) -0.043(5) -0.014(5) 0.023(5)
C42B 0.063(7) 0.117(10) 0.120(9) -0.069(7) 0.017(6) 0.019(6)
C43B 0.063(7) 0.117(10) 0.120(9) -0.069(7) 0.017(6) 0.019(6)
C44B 0.063(7) 0.117(10) 0.120(9) -0.069(7) 0.017(6) 0.019(6)
N111 0.030(4) 0.040(5) 0.026(4) -0.005(3) 0.001(3) 0.029(3)
C111 0.046(5) 0.058(6) 0.045(6) -0.011(4) -0.011(4) 0.035(4)
C112 0.084(8) 0.087(9) 0.055(6) -0.017(5) -0.030(5) 0.055(7)
C113 0.128(10) 0.090(11) 0.064(8) -0.007(6) -0.030(7) 0.042(9)
C114 0.140(10) 0.126(15) 0.075(10) 0.033(10) -0.041(8) 0.013(10)
C115 0.083(7) 0.093(11) 0.046(7) 0.019(8) -0.009(5) 0.003(7)
loop_
_atom_type_symbol
_atom_type_description
_atom_type_scat_dispersion_real
_atom_type_scat_dispersion_imag
_atom_type_scat_source
C C 0.0033 0.0016 'International Tables Vol C Tables 4.2.6.8 and 6.1.1.4'
H H 0.0000 0.0000 'International Tables Vol C Tables 4.2.6.8 and 6.1.1.4'
Cl Cl 0.1484 0.1585 'International Tables Vol C Tables 4.2.6.8 and 6.1.1.4'
N N 0.0061 0.0033 'International Tables Vol C Tables 4.2.6.8 and 6.1.1.4'
Si Si 0.0817 0.0704 'International Tables Vol C Tables 4.2.6.8 and 6.1.1.4'
Zn Zn 0.2839 1.4301 'International Tables Vol C Tables 4.2.6.8 and 6.1.1.4'
loop_
_geom_angle_atom_site_label_1
_geom_angle_atom_site_label_2
_geom_angle_atom_site_label_3
_geom_angle
N1 Zn1 N2 89.56(12)
N1 Zn1 N3 162.38(12)
N1 Zn1 N4 88.30(12)
N1 Zn1 N101 103.5(7)
N1 Zn1 N111 96.6(5)
N2 Zn1 N3 87.69(12)
N2 Zn1 N101 100.8(6)
N2 Zn1 N111 98.4(5)
N3 Zn1 N101 94.1(7)
N3 Zn1 N111 101.0(5)
N4 Zn1 N2 163.00(13)
N4 Zn1 N3 89.26(12)
N4 Zn1 N101 96.1(6)
N4 Zn1 N111 98.6(5)
C1 N1 Zn1 127.4(2)
C4 N1 Zn1 126.2(2)
C4 N1 C1 106.3(3)
C6 N2 Zn1 125.9(2)
C6 N2 C9 106.9(3)
C9 N2 Zn1 127.0(3)
C11 N3 Zn1 127.0(2)
C14 N3 Zn1 125.3(2)
C14 N3 C11 106.5(3)
C16 N4 Zn1 126.4(2)
C16 N4 C19 106.3(3)
C19 N4 Zn1 126.9(2)
N1 C1 C2 109.9(3)
N1 C1 C20 125.7(3)
C20 C1 C2 124.3(3)
C1 C2 H2 126.4
C3 C2 C1 107.2(3)
C3 C2 H2 126.4
C2 C3 H3 126.7
C2 C3 C4 106.7(3)
C4 C3 H3 126.7
N1 C4 C3 109.9(3)
N1 C4 C5 126.0(3)
C5 C4 C3 124.0(3)
C4 C5 C6 125.4(3)
C4 C5 C21 117.8(3)
C6 C5 C21 116.8(3)
N2 C6 C5 126.1(3)
N2 C6 C7 109.9(3)
C5 C6 C7 124.1(4)
C6 C7 H7 126.7
C8 C7 C6 106.7(3)
C8 C7 H7 126.7
C7 C8 H8 126.3
C7 C8 C9 107.3(3)
C9 C8 H8 126.3
N2 C9 C8 109.2(3)
N2 C9 C10 125.8(3)
C10 C9 C8 125.0(3)
C9 C10 C45 116.6(3)
C11 C10 C9 125.1(3)
C11 C10 C45 118.3(3)
N3 C11 C10 125.1(3)
N3 C11 C12 109.3(3)
C10 C11 C12 125.6(3)
C11 C12 H12 126.2
C13 C12 C11 107.7(3)
C13 C12 H12 126.2
C12 C13 H13 126.8
C12 C13 C14 106.3(3)
C14 C13 H13 126.8
N3 C14 C13 110.2(3)
N3 C14 C15 125.8(3)
C15 C14 C13 124.0(4)
C14 C15 C16 126.1(4)
C14 C15 C33 117.8(3)
C16 C15 C33 116.0(4)
N4 C16 C15 125.0(3)
N4 C16 C17 110.2(3)
C15 C16 C17 124.8(4)
C16 C17 H17 126.7
C18 C17 C16 106.6(4)
C18 C17 H17 126.7
C17 C18 H18 126.3
C17 C18 C19 107.4(3)
C19 C18 H18 126.3
N4 C19 C18 109.6(3)
N4 C19 C20 125.6(3)
C20 C19 C18 124.8(3)
C1 C20 C19 124.7(3)
C1 C20 C59 118.1(3)
C19 C20 C59 117.2(3)
C22 C21 C5 177.9(5)
C21 C22 Si1 173.8(4)
C22 Si1 C23 107.60(19)
C22 Si1 C30 109.13(18)
C22 Si1 C27 106.2(2)
C30 Si1 C23 108.7(2)
C30 Si1 C27 115.5(2)
C27 Si1 C23 109.4(2)
Si1 C23 H23A 108.8
Si1 C23 H23B 108.8
H23A C23 H23B 107.7
C24 C23 Si1 113.8(3)
C24 C23 H23A 108.8
C24 C23 H23B 108.8
C23 C24 H24A 108.8
C23 C24 H24B 108.8
C23 C24 C25 113.8(4)
H24A C24 H24B 107.7
C25 C24 H24A 108.8
C25 C24 H24B 108.8
C24 C25 H25A 109.5
C24 C25 H25B 109.5
H25A C25 H25B 108.0
C26 C25 C24 110.9(4)
C26 C25 H25A 109.5
C26 C25 H25B 109.5
N5 C26 C25 177.1(5)
Si1 C30 H30 105.9
C31 C30 Si1 113.4(3)
C31 C30 H30 105.9
C32 C30 Si1 114.3(3)
C32 C30 H30 105.9
C32 C30 C31 110.5(4)
C30 C31 H31A 109.5
C30 C31 H31B 109.5
C30 C31 H31C 109.5
H31A C31 H31B 109.5
H31A C31 H31C 109.5
H31B C31 H31C 109.5
C30 C32 H32A 109.5
C30 C32 H32B 109.5
C30 C32 H32C 109.5
H32A C32 H32B 109.5
H32A C32 H32C 109.5
H32B C32 H32C 109.5
Si1 C27 H27 106.2
C28 C27 Si1 114.8(3)
C28 C27 H27 106.2
C28 C27 C29 110.1(4)
C29 C27 Si1 112.5(3)
C29 C27 H27 106.2
C27 C28 H28A 109.5
C27 C28 H28B 109.5
C27 C28 H28C 109.5
H28A C28 H28B 109.5
H28A C28 H28C 109.5
H28B C28 H28C 109.5
C27 C29 H29A 109.5
C27 C29 H29B 109.5
C27 C29 H29C 109.5
H29A C29 H29B 109.5
H29A C29 H29C 109.5
H29B C29 H29C 109.5
C34 C33 C15 178.1(5)
C33 C34 Si2 170.7(5)
C33 C34 Si2B 171.8(5)
C34 Si2 C35 106.6(5)
C34 Si2 C39 108.1(4)
C34 Si2 C42 109.8(4)
C35 Si2 C39 110.3(6)
C35 Si2 C42 112.7(5)
C39 Si2 C42 109.1(5)
Si2 C35 H35A 108.9
Si2 C35 H35B 108.9
H35A C35 H35B 107.7
C36 C35 Si2 113.3(9)
C36 C35 H35A 108.9
C36 C35 H35B 108.9
C35 C36 H36A 109.5
C35 C36 H36B 109.5
H36A C36 H36B 108.1
C37 C36 C35 110.6(11)
C37 C36 H36A 109.5
C37 C36 H36B 109.5
C36 C37 H37A 109.4
C36 C37 H37B 109.4
H37A C37 H37B 108.0
C38 C37 C36 111.0(11)
C38 C37 H37A 109.4
C38 C37 H37B 109.4
N6 C38 C37 173.8(11)
Si2 C39 H39 106.3
C40 C39 Si2 110.3(6)
C40 C39 H39 106.3
C41 C39 Si2 113.3(6)
C41 C39 H39 106.3
C41 C39 C40 113.8(7)
C39 C40 H40A 109.5
C39 C40 H40B 109.5
C39 C40 H40C 109.5
H40A C40 H40B 109.5
H40A C40 H40C 109.5
H40B C40 H40C 109.5
C39 C41 H41A 109.5
C39 C41 H41B 109.5
C39 C41 H41C 109.5
H41A C41 H41B 109.5
H41A C41 H41C 109.5
H41B C41 H41C 109.5
Si2 C42 H42 105.1
C43 C42 Si2 114.0(7)
C43 C42 H42 105.1
C44 C42 Si2 115.1(7)
C44 C42 H42 105.1
C44 C42 C43 111.1(9)
C42 C43 H43A 109.5
C42 C43 H43B 109.5
C42 C43 H43C 109.5
H43A C43 H43B 109.5
H43A C43 H43C 109.5
H43B C43 H43C 109.5
C42 C44 H44A 109.5
C42 C44 H44B 109.5
C42 C44 H44C 109.5
H44A C44 H44B 109.5
H44A C44 H44C 109.5
H44B C44 H44C 109.5
C46 C45 C10 119.7(3)
C46 C45 C50 118.6(3)
C50 C45 C10 121.8(4)
C45 C46 H46 119.3
C45 C46 C47 121.5(4)
C47 C46 H46 119.3
C46 C47 C48 117.6(4)
C46 C47 C51 119.5(3)
C48 C47 C51 122.9(3)
C47 C48 H48 118.6
C49 C48 C47 122.8(4)
C49 C48 H48 118.6
C48 C49 C50 117.8(4)
C48 C49 C55 120.3(4)
C50 C49 C55 121.7(4)
C45 C50 H50 119.2
C49 C50 C45 121.7(4)
C49 C50 H50 119.2
C47 C51 C53 108.3(4)
C52 C51 C47 109.9(4)
C52 C51 C53 109.7(4)
C54 C51 C47 112.3(4)
C54 C51 C52 107.9(4)
C54 C51 C53 108.7(4)
C51 C52 H52A 109.5
C51 C52 H52B 109.5
C51 C52 H52C 109.5
H52A C52 H52B 109.5
H52A C52 H52C 109.5
H52B C52 H52C 109.5
C51 C53 H53A 109.5
C51 C53 H53B 109.5
C51 C53 H53C 109.5
H53A C53 H53B 109.5
H53A C53 H53C 109.5
H53B C53 H53C 109.5
C51 C54 H54A 109.5
C51 C54 H54B 109.5
C51 C54 H54C 109.5
H54A C54 H54B 109.5
H54A C54 H54C 109.5
H54B C54 H54C 109.5
C56 C55 C49 108.1(4)
C56 C55 C57 109.7(5)
C56 C55 C58 109.7(4)
C57 C55 C49 110.3(4)
C58 C55 C49 112.1(3)
C58 C55 C57 107.0(4)
C55 C56 H56A 109.5
C55 C56 H56B 109.5
C55 C56 H56C 109.5
H56A C56 H56B 109.5
H56A C56 H56C 109.5
H56B C56 H56C 109.5
C55 C57 H57A 109.5
C55 C57 H57B 109.5
C55 C57 H57C 109.5
H57A C57 H57B 109.5
H57A C57 H57C 109.5
H57B C57 H57C 109.5
C55 C58 H58A 109.5
C55 C58 H58B 109.5
C55 C58 H58C 109.5
H58A C58 H58B 109.5
H58A C58 H58C 109.5
H58B C58 H58C 109.5
C60 C59 C20 119.8(3)
C64 C59 C20 121.2(3)
C64 C59 C60 119.0(3)
C59 C60 H60 119.3
C59 C60 C61 121.4(3)
C61 C60 H60 119.3
C60 C61 C65 119.4(3)
C62 C61 C60 117.7(3)
C62 C61 C65 122.9(3)
C61 C62 H62 118.7
C63 C62 C61 122.5(3)
C63 C62 H62 118.7
C62 C63 C64 118.1(3)
C62 C63 C69 121.9(3)
C64 C63 C69 119.9(3)
C59 C64 C63 121.3(4)
C59 C64 H64 119.4
C63 C64 H64 119.4
C66 C65 C61 109.7(3)
C67 C65 C61 111.8(3)
C67 C65 C66 108.1(3)
C67 C65 C68 107.9(3)
C68 C65 C61 108.7(3)
C68 C65 C66 110.6(3)
C65 C66 H66A 109.5
C65 C66 H66B 109.5
C65 C66 H66C 109.5
H66A C66 H66B 109.5
H66A C66 H66C 109.5
H66B C66 H66C 109.5
C65 C67 H67A 109.5
C65 C67 H67B 109.5
C65 C67 H67C 109.5
H67A C67 H67B 109.5
H67A C67 H67C 109.5
H67B C67 H67C 109.5
C65 C68 H68A 109.5
C65 C68 H68B 109.5
C65 C68 H68C 109.5
H68A C68 H68B 109.5
H68A C68 H68C 109.5
H68B C68 H68C 109.5
C70 C69 C63 111.6(3)
C71 C69 C63 107.3(3)
C71 C69 C70 108.7(4)
C72 C69 C63 111.0(3)
C72 C69 C70 108.1(4)
C72 C69 C71 110.1(4)
C69 C70 H70A 109.5
C69 C70 H70B 109.5
C69 C70 H70C 109.5
H70A C70 H70B 109.5
H70A C70 H70C 109.5
H70B C70 H70C 109.5
C69 C71 H71A 109.5
C69 C71 H71B 109.5
C69 C71 H71C 109.5
H71A C71 H71B 109.5
H71A C71 H71C 109.5
H71B C71 H71C 109.5
C69 C72 H72A 109.5
C69 C72 H72B 109.5
C69 C72 H72C 109.5
H72A C72 H72B 109.5
H72A C72 H72C 109.5
H72B C72 H72C 109.5
C101 N101 Zn1 125.0(12)
C101 N101 C105 110.3(15)
C105 N101 Zn1 117.3(13)
N101 C101 H101 118.2
N101 C101 C102 123.7(17)
C102 C101 H101 118.2
C101 C102 H102 120.3
C103 C102 C101 119.5(15)
C103 C102 H102 120.3
C102 C103 H103 121.5
C102 C103 C104 117.0(12)
C104 C103 H103 121.5
C103 C104 H104 120.2
C103 C104 C105 119.6(12)
C105 C104 H104 120.2
N101 C105 C104 122.2(15)
N101 C105 H105 118.9
C104 C105 H105 118.9
Cl22 C201 H20A 111.4
Cl22 C201 H20B 111.4
H20A C201 H20B 109.3
Cl21 C201 Cl22 101.6(13)
Cl21 C201 H20A 111.4
Cl21 C201 H20B 111.4
C34 Si2B C35B 105.1(12)
C34 Si2B C39B 101.6(7)
C34 Si2B C42B 116.0(9)
C35B Si2B C39B 112.0(12)
C35B Si2B C42B 111.8(11)
C42B Si2B C39B 110.0(12)
Si2B C35B H35C 108.4
Si2B C35B H35D 108.4
H35C C35B H35D 107.5
C36B C35B Si2B 115.3(17)
C36B C35B H35C 108.4
C36B C35B H35D 108.4
C35B C36B H36C 109.5
C35B C36B H36D 109.5
H36C C36B H36D 108.1
C37B C36B C35B 110.7(17)
C37B C36B H36C 109.5
C37B C36B H36D 109.5
C36B C37B H37C 109.5
C36B C37B H37D 109.5
H37C C37B H37D 108.1
C38B C37B C36B 110.7(16)
C38B C37B H37C 109.5
C38B C37B H37D 109.5
N6B C38B C37B 177(2)
Si2B C39B H39B 104.1
C40B C39B Si2B 119.0(13)
C40B C39B H39B 104.1
C40B C39B C41B 104.7(14)
C41B C39B Si2B 118.8(11)
C41B C39B H39B 104.1
C39B C40B H40D 109.5
C39B C40B H40E 109.5
C39B C40B H40F 109.5
H40D C40B H40E 109.5
H40D C40B H40F 109.5
H40E C40B H40F 109.5
C39B C41B H41D 109.5
C39B C41B H41E 109.5
C39B C41B H41F 109.5
H41D C41B H41E 109.5
H41D C41B H41F 109.5
H41E C41B H41F 109.5
Si2B C42B H42B 93.4
C43B C42B Si2B 112.6(13)
C43B C42B H42B 93.4
C44B C42B Si2B 125.2(15)
C44B C42B H42B 93.4
C44B C42B C43B 121.2(16)
C42B C43B H43D 109.5
C42B C43B H43E 109.5
C42B C43B H43F 109.5
H43D C43B H43E 109.5
H43D C43B H43F 109.5
H43E C43B H43F 109.5
C42B C44B H44D 109.5
C42B C44B H44E 109.5
C42B C44B H44F 109.5
H44D C44B H44E 109.5
H44D C44B H44F 109.5
H44E C44B H44F 109.5
C111 N111 Zn1 117.9(10)
C115 N111 Zn1 123.5(9)
C115 N111 C111 114.1(12)
N111 C111 H111 118.0
N111 C111 C112 124.0(12)
C112 C111 H111 118.0
C111 C112 H112 119.7
C113 C112 C111 120.6(13)
C113 C112 H112 119.7
C112 C113 H113 122.2
C112 C113 C114 115.6(13)
C114 C113 H113 122.2
C113 C114 H114 119.3
C113 C114 C115 121.4(14)
C115 C114 H114 119.3
N111 C115 C114 120.9(15)
N111 C115 H115 119.6
C114 C115 H115 119.6
loop_
_geom_bond_atom_site_label_1
_geom_bond_atom_site_label_2
_geom_bond_distance
Zn1 N1 2.061(3)
Zn1 N2 2.072(3)
Zn1 N3 2.078(3)
Zn1 N4 2.063(3)
Zn1 N101 2.126(16)
Zn1 N111 2.152(12)
N1 C1 1.373(5)
N1 C4 1.369(5)
N2 C6 1.366(5)
N2 C9 1.371(5)
N3 C11 1.381(5)
N3 C14 1.356(5)
N4 C16 1.360(5)
N4 C19 1.374(5)
C1 C2 1.437(5)
C1 C20 1.397(5)
C2 H2 0.9500
C2 C3 1.355(5)
C3 H3 0.9500
C3 C4 1.446(5)
C4 C5 1.401(5)
C5 C6 1.405(5)
C5 C21 1.429(5)
C6 C7 1.438(5)
C7 H7 0.9500
C7 C8 1.357(5)
C8 H8 0.9500
C8 C9 1.439(5)
C9 C10 1.411(5)
C10 C11 1.397(6)
C10 C45 1.485(5)
C11 C12 1.430(5)
C12 H12 0.9500
C12 C13 1.351(6)
C13 H13 0.9500
C13 C14 1.444(5)
C14 C15 1.403(5)
C15 C16 1.411(5)
C15 C33 1.440(6)
C16 C17 1.438(5)
C17 H17 0.9500
C17 C18 1.348(6)
C18 H18 0.9500
C18 C19 1.432(5)
C19 C20 1.415(5)
C20 C59 1.491(5)
C21 C22 1.201(5)
C22 Si1 1.841(4)
Si1 C23 1.880(4)
Si1 C30 1.868(4)
Si1 C27 1.872(4)
C23 H23A 0.9900
C23 H23B 0.9900
C23 C24 1.514(6)
C24 H24A 0.9900
C24 H24B 0.9900
C24 C25 1.535(6)
C25 H25A 0.9900
C25 H25B 0.9900
C25 C26 1.469(6)
C26 N5 1.147(6)
C30 H30 1.0000
C30 C31 1.536(6)
C30 C32 1.524(6)
C31 H31A 0.9800
C31 H31B 0.9800
C31 H31C 0.9800
C32 H32A 0.9800
C32 H32B 0.9800
C32 H32C 0.9800
C27 H27 1.0000
C27 C28 1.514(7)
C27 C29 1.529(6)
C28 H28A 0.9800
C28 H28B 0.9800
C28 H28C 0.9800
C29 H29A 0.9800
C29 H29B 0.9800
C29 H29C 0.9800
C33 C34 1.192(6)
C34 Si2 1.861(5)
C34 Si2B 1.813(9)
Si2 C35 1.862(12)
Si2 C39 1.879(8)
Si2 C42 1.907(9)
C35 H35A 0.9900
C35 H35B 0.9900
C35 C36 1.504(16)
C36 H36A 0.9900
C36 H36B 0.9900
C36 C37 1.500(15)
C37 H37A 0.9900
C37 H37B 0.9900
C37 C38 1.416(15)
C38 N6 1.299(14)
C39 H39 1.0000
C39 C40 1.528(12)
C39 C41 1.519(11)
C40 H40A 0.9800
C40 H40B 0.9800
C40 H40C 0.9800
C41 H41A 0.9800
C41 H41B 0.9800
C41 H41C 0.9800
C42 H42 1.0000
C42 C43 1.476(13)
C42 C44 1.448(13)
C43 H43A 0.9800
C43 H43B 0.9800
C43 H43C 0.9800
C44 H44A 0.9800
C44 H44B 0.9800
C44 H44C 0.9800
C45 C46 1.389(6)
C45 C50 1.398(5)
C46 H46 0.9500
C46 C47 1.390(5)
C47 C48 1.396(5)
C47 C51 1.536(6)
C48 H48 0.9500
C48 C49 1.381(6)
C49 C50 1.383(5)
C49 C55 1.545(5)
C50 H50 0.9500
C51 C52 1.530(7)
C51 C53 1.539(7)
C51 C54 1.528(6)
C52 H52A 0.9800
C52 H52B 0.9800
C52 H52C 0.9800
C53 H53A 0.9800
C53 H53B 0.9800
C53 H53C 0.9800
C54 H54A 0.9800
C54 H54B 0.9800
C54 H54C 0.9800
C55 C56 1.517(7)
C55 C57 1.525(7)
C55 C58 1.522(6)
C56 H56A 0.9800
C56 H56B 0.9800
C56 H56C 0.9800
C57 H57A 0.9800
C57 H57B 0.9800
C57 H57C 0.9800
C58 H58A 0.9800
C58 H58B 0.9800
C58 H58C 0.9800
C59 C60 1.395(5)
C59 C64 1.388(5)
C60 H60 0.9500
C60 C61 1.396(5)
C61 C62 1.392(5)
C61 C65 1.539(5)
C62 H62 0.9500
C62 C63 1.388(5)
C63 C64 1.394(5)
C63 C69 1.535(5)
C64 H64 0.9500
C65 C66 1.535(5)
C65 C67 1.528(5)
C65 C68 1.533(6)
C66 H66A 0.9800
C66 H66B 0.9800
C66 H66C 0.9800
C67 H67A 0.9800
C67 H67B 0.9800
C67 H67C 0.9800
C68 H68A 0.9800
C68 H68B 0.9800
C68 H68C 0.9800
C69 C70 1.533(6)
C69 C71 1.528(6)
C69 C72 1.525(6)
C70 H70A 0.9800
C70 H70B 0.9800
C70 H70C 0.9800
C71 H71A 0.9800
C71 H71B 0.9800
C71 H71C 0.9800
C72 H72A 0.9800
C72 H72B 0.9800
C72 H72C 0.9800
N101 C101 1.343(15)
N101 C105 1.350(14)
C101 H101 0.9500
C101 C102 1.383(15)
C102 H102 0.9500
C102 C103 1.340(16)
C103 H103 0.9500
C103 C104 1.364(17)
C104 H104 0.9500
C104 C105 1.392(13)
C105 H105 0.9500
Cl22 C201 1.827(15)
C201 H20A 0.9900
C201 H20B 0.9900
C201 Cl21 1.777(19)
Si2B C35B 1.858(19)
Si2B C39B 1.907(16)
Si2B C42B 1.862(16)
C35B H35C 0.9900
C35B H35D 0.9900
C35B C36B 1.47(2)
C36B H36C 0.9900
C36B H36D 0.9900
C36B C37B 1.45(2)
C37B H37C 0.9900
C37B H37D 0.9900
C37B C38B 1.422(18)
C38B N6B 1.282(17)
C39B H39B 1.0000
C39B C40B 1.549(17)
C39B C41B 1.550(18)
C40B H40D 0.9800
C40B H40E 0.9800
C40B H40F 0.9800
C41B H41D 0.9800
C41B H41E 0.9800
C41B H41F 0.9800
C42B H42B 1.0000
C42B C43B 1.48(2)
C42B C44B 1.414(19)
C43B H43D 0.9800
C43B H43E 0.9800
C43B H43F 0.9800
C44B H44D 0.9800
C44B H44E 0.9800
C44B H44F 0.9800
N111 C111 1.352(12)
N111 C115 1.331(13)
C111 H111 0.9500
C111 C112 1.364(12)
C112 H112 0.9500
C112 C113 1.340(17)
C113 H113 0.9500
C113 C114 1.375(17)
C114 H114 0.9500
C114 C115 1.398(14)
C115 H115 0.9500
loop_
_geom_torsion_atom_site_label_1
_geom_torsion_atom_site_label_2
_geom_torsion_atom_site_label_3
_geom_torsion_atom_site_label_4
_geom_torsion
Zn1 N1 C1 C2 178.1(2)
Zn1 N1 C1 C20 -5.4(6)
Zn1 N1 C4 C3 -178.1(2)
Zn1 N1 C4 C5 4.4(6)
Zn1 N2 C6 C5 -5.6(6)
Zn1 N2 C6 C7 175.7(3)
Zn1 N2 C9 C8 -175.9(3)
Zn1 N2 C9 C10 6.8(6)
Zn1 N3 C11 C10 -12.3(6)
Zn1 N3 C11 C12 167.1(3)
Zn1 N3 C14 C13 -167.8(3)
Zn1 N3 C14 C15 12.2(6)
Zn1 N4 C16 C15 -7.5(6)
Zn1 N4 C16 C17 172.8(3)
Zn1 N4 C19 C18 -172.3(3)
Zn1 N4 C19 C20 9.2(6)
Zn1 N101 C101 C102 -180(2)
Zn1 N101 C105 C104 -177.8(13)
Zn1 N111 C111 C112 175.6(12)
Zn1 N111 C115 C114 -175.7(17)
N1 C1 C2 C3 0.1(4)
N1 C1 C20 C19 -2.8(6)
N1 C1 C20 C59 178.9(4)
N1 C4 C5 C6 2.9(7)
N1 C4 C5 C21 -178.2(4)
N2 C6 C7 C8 0.3(5)
N2 C9 C10 C11 4.2(7)
N2 C9 C10 C45 -177.4(4)
N3 C11 C12 C13 0.9(5)
N3 C14 C15 C16 -1.1(7)
N3 C14 C15 C33 176.6(4)
N4 C16 C17 C18 0.0(5)
N4 C19 C20 C1 0.8(7)
N4 C19 C20 C59 179.1(4)
C1 N1 C4 C3 0.4(4)
C1 N1 C4 C5 -177.2(4)
C1 C2 C3 C4 0.2(4)
C1 C20 C59 C60 113.9(4)
C1 C20 C59 C64 -66.2(5)
C2 C1 C20 C19 173.1(4)
C2 C1 C20 C59 -5.2(6)
C2 C3 C4 N1 -0.3(5)
C2 C3 C4 C5 177.3(4)
C3 C4 C5 C6 -174.3(4)
C3 C4 C5 C21 4.6(6)
C4 N1 C1 C2 -0.3(4)
C4 N1 C1 C20 176.2(4)
C4 C5 C6 N2 -2.2(7)
C4 C5 C6 C7 176.3(4)
C5 C6 C7 C8 -178.5(4)
C6 N2 C9 C8 -0.2(4)
C6 N2 C9 C10 -177.5(4)
C6 C7 C8 C9 -0.4(5)
C7 C8 C9 N2 0.4(5)
C7 C8 C9 C10 177.7(4)
C8 C9 C10 C11 -172.7(4)
C8 C9 C10 C45 5.7(6)
C9 N2 C6 C5 178.7(4)
C9 N2 C6 C7 0.0(4)
C9 C10 C11 N3 -1.3(7)
C9 C10 C11 C12 179.5(4)
C9 C10 C45 C46 60.0(5)
C9 C10 C45 C50 -118.9(4)
C10 C11 C12 C13 -179.8(4)
C10 C45 C46 C47 -178.5(4)
C10 C45 C50 C49 179.0(4)
C11 N3 C14 C13 0.2(4)
C11 N3 C14 C15 -179.8(4)
C11 C10 C45 C46 -121.4(4)
C11 C10 C45 C50 59.6(5)
C11 C12 C13 C14 -0.7(5)
C12 C13 C14 N3 0.3(5)
C12 C13 C14 C15 -179.6(4)
C13 C14 C15 C16 178.9(4)
C13 C14 C15 C33 -3.5(6)
C14 N3 C11 C10 180.0(4)
C14 N3 C11 C12 -0.7(4)
C14 C15 C16 N4 -1.5(7)
C14 C15 C16 C17 178.0(4)
C15 C16 C17 C18 -179.6(4)
C16 N4 C19 C18 1.4(5)
C16 N4 C19 C20 -177.1(4)
C16 C17 C18 C19 0.8(5)
C17 C18 C19 N4 -1.4(5)
C17 C18 C19 C20 177.1(4)
C18 C19 C20 C1 -177.5(4)
C18 C19 C20 C59 0.9(6)
C19 N4 C16 C15 178.7(4)
C19 N4 C16 C17 -0.9(5)
C19 C20 C59 C60 -64.6(5)
C19 C20 C59 C64 115.4(4)
C20 C1 C2 C3 -176.4(4)
C20 C59 C60 C61 178.5(3)
C20 C59 C64 C63 180.0(4)
C21 C5 C6 N2 178.8(4)
C21 C5 C6 C7 -2.6(6)
C22 Si1 C23 C24 26.5(4)
C22 Si1 C30 C31 166.4(3)
C22 Si1 C30 C32 -65.7(3)
C22 Si1 C27 C28 44.0(4)
C22 Si1 C27 C29 171.0(3)
Si1 C23 C24 C25 168.6(3)
C23 Si1 C30 C31 49.3(4)
C23 Si1 C30 C32 177.2(3)
C23 Si1 C27 C28 159.9(4)
C23 Si1 C27 C29 -73.1(4)
C23 C24 C25 C26 -68.3(5)
C30 Si1 C23 C24 144.6(3)
C30 Si1 C27 C28 -77.1(4)
C30 Si1 C27 C29 49.9(4)
C27 Si1 C23 C24 -88.5(4)
C27 Si1 C30 C31 -74.1(4)
C27 Si1 C30 C32 53.9(4)
C33 C15 C16 N4 -179.3(4)
C33 C15 C16 C17 0.3(6)
C34 Si2 C35 C36 64.7(11)
C34 Si2 C39 C40 -174.4(5)
C34 Si2 C39 C41 56.7(7)
C34 Si2B C35B C36B 56(3)
C34 Si2B C42B C43B -45(3)
C34 Si2B C42B C44B 147(3)
Si2 C35 C36 C37 -172.3(10)
C35 Si2 C39 C40 -58.1(8)
C35 Si2 C39 C41 172.9(7)
C35 C36 C37 C38 67.5(17)
C39 Si2 C35 C36 -52.5(12)
C42 Si2 C35 C36 -174.8(10)
C42 Si2 C39 C40 66.2(7)
C42 Si2 C39 C41 -62.7(8)
C45 C10 C11 N3 -179.6(4)
C45 C10 C11 C12 1.1(6)
C45 C46 C47 C48 -0.1(6)
C45 C46 C47 C51 178.2(4)
C46 C45 C50 C49 0.0(6)
C46 C47 C48 C49 -0.9(6)
C46 C47 C51 C52 53.3(5)
C46 C47 C51 C53 -66.5(5)
C46 C47 C51 C54 173.5(4)
C47 C48 C49 C50 1.4(6)
C47 C48 C49 C55 177.7(4)
C48 C47 C51 C52 -128.5(4)
C48 C47 C51 C53 111.8(5)
C48 C47 C51 C54 -8.3(6)
C48 C49 C50 C45 -1.0(6)
C48 C49 C55 C56 -77.8(5)
C48 C49 C55 C57 42.1(6)
C48 C49 C55 C58 161.3(4)
C50 C45 C46 C47 0.6(6)
C50 C49 C55 C56 98.4(5)
C50 C49 C55 C57 -141.7(5)
C50 C49 C55 C58 -22.6(6)
C51 C47 C48 C49 -179.1(4)
C55 C49 C50 C45 -177.2(4)
C59 C60 C61 C62 1.5(5)
C59 C60 C61 C65 180.0(3)
C60 C59 C64 C63 -0.1(6)
C60 C61 C62 C63 0.0(6)
C60 C61 C65 C66 57.7(5)
C60 C61 C65 C67 177.6(3)
C60 C61 C65 C68 -63.4(4)
C61 C62 C63 C64 -1.5(6)
C61 C62 C63 C69 -177.9(4)
C62 C61 C65 C66 -123.9(4)
C62 C61 C65 C67 -4.0(5)
C62 C61 C65 C68 115.0(4)
C62 C63 C64 C59 1.5(6)
C62 C63 C69 C70 -17.2(6)
C62 C63 C69 C71 101.9(4)
C62 C63 C69 C72 -137.8(4)
C64 C59 C60 C61 -1.5(6)
C64 C63 C69 C70 166.4(4)
C64 C63 C69 C71 -74.5(5)
C64 C63 C69 C72 45.8(5)
C65 C61 C62 C63 -178.4(4)
C69 C63 C64 C59 178.0(4)
N101 C101 C102 C103 17(5)
C101 N101 C105 C104 31(4)
C101 C102 C103 C104 1(4)
C102 C103 C104 C105 0(3)
C103 C104 C105 N101 -17(3)
C105 N101 C101 C102 -31(5)
Si2B C35B C36B C37B -179(2)
C35B Si2B C42B C43B -165(2)
C35B Si2B C42B C44B 27(4)
C35B C36B C37B C38B -60(3)
C39B Si2B C35B C36B -53(3)
C39B Si2B C42B C43B 70(2)
C39B Si2B C42B C44B -98(3)
C42B Si2B C35B C36B -177(2)
N111 C111 C112 C113 -4(3)
C111 N111 C115 C114 -20(4)
C111 C112 C113 C114 -8(3)
C112 C113 C114 C115 6(3)
C113 C114 C115 N111 9(4)
C115 N111 C111 C112 19(3)
