#------------------------------------------------------------------------------
#$Date: 2019-05-14 03:53:04 +0300 (Tue, 14 May 2019) $
#$Revision: 215122 $
#$URL: file:///home/coder/svn-repositories/cod/cif/1/55/10/1551033.cif $
#------------------------------------------------------------------------------
#
# This file is available in the Crystallography Open Database (COD),
# http://www.crystallography.net/
#
# All data on this site have been placed in the public domain by the
# contributors.
#
data_1551033
loop_
_publ_author_name
'Osuka, Atsuhiro'
'Shimizu, Daiki'
'Furukawa, Ko'
'Adinarayana, Bellamkonda'
_publ_section_title
;
 Stable radical versus reversible \s-bond formation of
 (porphyrinyl)dicyanomethyl radicals
;
_journal_name_full               'Chemical Science'
_journal_paper_doi               10.1039/C9SC01631G
_journal_year                    2019
_chemical_formula_moiety         'C110 H100 I2 N12 Ni2'
_chemical_formula_sum            'C110 H100 I2 N12 Ni2'
_chemical_formula_weight         1961.2
_space_group_crystal_system      triclinic
_space_group_IT_number           2
_space_group_name_Hall           '-P 1'
_space_group_name_H-M_alt        'P -1'
_symmetry_space_group_name_Hall  '-P 1'
_symmetry_space_group_name_H-M   'P -1'
_atom_sites_solution_hydrogens   geom
_audit_creation_method           SHELXL-2014/7
_audit_update_record
;
2019-03-05 deposited with the CCDC.    2019-05-13 downloaded from the CCDC.
;
_cell_angle_alpha                82.3860(10)
_cell_angle_beta                 73.3520(10)
_cell_angle_gamma                69.5290(10)
_cell_formula_units_Z            2
_cell_length_a                   16.4887(2)
_cell_length_b                   17.6517(2)
_cell_length_c                   18.6605(2)
_cell_measurement_reflns_used    2166
_cell_measurement_temperature    93(2)
_cell_measurement_theta_max      72.9
_cell_measurement_theta_min      28.1
_cell_volume                     4871.78(10)
_computing_structure_refinement  'SHELXL-2014/7 (Sheldrick, 2014)'
_diffrn_ambient_temperature      93(2)
_diffrn_detector_area_resol_mean 5.8140
_diffrn_measured_fraction_theta_full 0.977
_diffrn_measured_fraction_theta_max 0.977
_diffrn_measurement_device_type  'Rigaku XtaLAB P200'
_diffrn_measurement_method       \w
_diffrn_radiation_type           CuK\a
_diffrn_radiation_wavelength     1.54184
_diffrn_reflns_av_R_equivalents  0.0581
_diffrn_reflns_av_unetI/netI     0.0445
_diffrn_reflns_Laue_measured_fraction_full 0.977
_diffrn_reflns_Laue_measured_fraction_max 0.977
_diffrn_reflns_limit_h_max       19
_diffrn_reflns_limit_h_min       -19
_diffrn_reflns_limit_k_max       20
_diffrn_reflns_limit_k_min       -20
_diffrn_reflns_limit_l_max       19
_diffrn_reflns_limit_l_min       -21
_diffrn_reflns_number            58669
_diffrn_reflns_point_group_measured_fraction_full 0.977
_diffrn_reflns_point_group_measured_fraction_max 0.977
_diffrn_reflns_theta_full        62.996
_diffrn_reflns_theta_max         62.996
_diffrn_reflns_theta_min         2.674
_exptl_absorpt_coefficient_mu    5.869
_exptl_absorpt_correction_T_max  1.000
_exptl_absorpt_correction_T_min  0.579
_exptl_absorpt_correction_type   multi-scan
_exptl_crystal_colour            Colorless
_exptl_crystal_density_diffrn    1.337
_exptl_crystal_description       Prism
_exptl_crystal_F_000             2012
_refine_diff_density_max         2.544
_refine_diff_density_min         -1.453
_refine_diff_density_rms         0.091
_refine_ls_extinction_method     none
_refine_ls_goodness_of_fit_ref   1.047
_refine_ls_hydrogen_treatment    constr
_refine_ls_matrix_type           full
_refine_ls_number_parameters     1238
_refine_ls_number_reflns         15394
_refine_ls_number_restraints     185
_refine_ls_restrained_S_all      1.054
_refine_ls_R_factor_all          0.0870
_refine_ls_R_factor_gt           0.0686
_refine_ls_shift/su_max          0.001
_refine_ls_shift/su_mean         0.000
_refine_ls_structure_factor_coef Fsqd
_refine_ls_weighting_details
'w=1/[\s^2^(Fo^2^)+(0.1101P)^2^+8.9933P] where P=(Fo^2^+2Fc^2^)/3'
_refine_ls_weighting_scheme      calc
_refine_ls_wR_factor_gt          0.1871
_refine_ls_wR_factor_ref         0.2004
_reflns_Friedel_coverage         0.000
_reflns_number_gt                11598
_reflns_number_total             15394
_reflns_threshold_expression     'I > 2\s(I)'
_cod_data_source_file            c9sc01631g2.cif
_cod_data_source_block           180828adi
_cod_depositor_comments
;
The following automatic conversions were performed:

'_exptl_absorpt_correction_type' value 'Multi-scan' changed to
'multi-scan' according to
/home/data/users/saulius/crontab/automatic-downloads/rss-feeds/RSC/lib/dictionaries/cif_core.dic
dictionary named 'cif_core.dic' version 2.4.2 from 2011-04-26.

Automatic conversion script
Id: cif_fix_values 4973 2017-02-22 13:04:09Z antanas 
;
_cod_database_code               1551033
_shelx_shelxl_version_number     2014/7
_shelx_space_group_comment
;
The symmetry employed for this shelxl refinement is uniquely defined
by the following loop, which should always be used as a source of
symmetry information in preference to the above space-group names.
They are only intended as comments.
;
_shelx_res_file
;

    180828adi.res created by SHELXL-2014/7

TITL 180828adi_a.res in P-1
REM  Yadorkari-X generated
CELL 1.54184 16.4887 17.6517 18.6605 82.3860 73.3520 69.5290
ZERR 2.0 0.0002 0.0002 0.0002 0.0010 0.0010 0.0010
LATT 1
REM  SPGR P-1 triclinic
SFAC C H N Ni I
UNIT 200 100 16 2 2
TEMP -180.0
L.S. 200
FMAP 2
PLAN -20
ACTA
CONF
LIST 4
BOND $H
MERG 2
OMIT -10.000000 126.000000
OMIT    0   -1    3
OMIT    0   -1    2
OMIT    0    2    1
OMIT   -5    2    3
OMIT    0   -5    3
OMIT    1   -4    2
OMIT   -4   -4    4
OMIT   -3    1    4
OMIT    1    3    2
OMIT    1    8    6
OMIT   -7   -1    3
OMIT   -6    4    0
OMIT    4   -7    1
OMIT   -1    8    1
OMIT   -6    0    2
OMIT    3    0    0
OMIT   -7   -1    5
OMIT   -2   -1    5
OMIT   -6  -11    1
OMIT    6    1    5
OMIT    0    3    0
OMIT   -5    2    2
OMIT   12    4   15
OMIT    7    3   12

DFIX 1.54 0.01 C170 C183 C183 C174 C183 C177 C183 C178
SADI 0.01 C170 C174 C170 C177 C170 C178
DFIX 1.54 0.01 C168 C172 C172 C173 C172 C182 C172 C179
SADI 0.01 C168 C173 C168 C179 C168 C182
SIMU 0.01 C183 C174 C177 C178
ISOR 0.01 C183 C174 C177 C178
SIMU 0.01 C172 C173 C179 C182
ISOR 0.01 C172 C173 C179 C182
SIMU 0.01 C149 C153 C160 C166
ISOR 0.01 C149 C153 C160 C166
SIMU 0.01 C183 C174 C177 C178
ISOR 0.01 C183 C174 C177 C178
SADI 0.01 C174 C177 C177 C178 C178 C174
SIMU 0.01 C121 C150 C161 C164
ISOR 0.01 C121 C150 C161 C164
EADP C130 C181
EADP C135 C170

WGHT    0.110100    8.993300
FVAR       0.95134   0.65738
I1    5    0.825557    0.306866    0.583601    11.00000    0.09442    0.03043 =
         0.06350   -0.00014    0.00057   -0.00445
I2    5    0.402460    0.579097    0.544297    11.00000    0.09195    0.06454 =
         0.06453    0.00793    0.00840   -0.00816
NI1   4    0.647072    0.666489    0.636671    11.00000    0.05464    0.02363 =
         0.04297    0.00221   -0.00534   -0.01056
NI2   4    0.148206    0.643356    0.855011    11.00000    0.04964    0.04297 =
         0.06858   -0.01650    0.00028   -0.00872
N1    3    0.589066    0.608352    0.720870    11.00000    0.05392    0.02585 =
         0.04386    0.00006   -0.00639   -0.01096
N2    3    0.714451    0.566776    0.585808    11.00000    0.06008    0.02688 =
         0.04630    0.00391   -0.00746   -0.01247
N3    3    0.585327    0.766002    0.689001    11.00000    0.05925    0.02527 =
         0.04848    0.00449   -0.00817   -0.01359
N4    3    0.700064    0.725042    0.551561    11.00000    0.05798    0.02818 =
         0.04613    0.00084   -0.00601   -0.01468
N9    3    0.248284    0.547882    0.864541    11.00000    0.04555    0.05029 =
         0.05363   -0.01713    0.00167   -0.01322
N10   3    0.193923    0.641719    0.748488    11.00000    0.05299    0.03852 =
         0.06805   -0.00692   -0.00657   -0.00928
N11   3    0.103195    0.645823    0.961276    11.00000    0.05206    0.04889 =
         0.07255   -0.02873    0.00690   -0.01385
N5    3    0.499172    0.423018    0.980735    11.00000    0.08597    0.04412 =
         0.05147    0.00192   -0.01488   -0.02515
C52   1    0.607978    0.525668    0.731616    11.00000    0.05188    0.02772 =
         0.04555    0.00497   -0.01148   -0.01276
N6    3    0.531705    0.378048    0.664407    11.00000    0.06037    0.06249 =
         0.05626   -0.01701   -0.00483   -0.01059
N7    3    0.705985    0.309013    0.806147    11.00000    0.06653    0.03683 =
         0.06465    0.00471   -0.01129   -0.01406
C55   1    0.520570    0.640310    0.782249    11.00000    0.05244    0.03127 =
         0.04541    0.00151   -0.00600   -0.01319
N8    3    0.502895    0.243544    0.865117    11.00000    0.07665    0.04287 =
         0.06922   -0.00639   -0.00591   -0.01988
C57   1    0.653595    0.858898    0.603039    11.00000    0.05817    0.03003 =
         0.05487    0.00708   -0.01312   -0.01428
C58   1    0.549502    0.506960    0.800119    11.00000    0.05794    0.02760 =
         0.04359    0.00350   -0.01154   -0.01352
C59   1    0.495296    0.578354    0.831124    11.00000    0.05398    0.03210 =
         0.04641   -0.00161   -0.00306   -0.01313
AFIX  43
H1    2    0.449347    0.585805    0.876582    11.00000   -1.20000
AFIX   0
C60   1    0.696636    0.805054    0.545854    11.00000    0.05979    0.03081 =
         0.05296    0.00276   -0.01272   -0.01495
N12   3    0.048082    0.737043    0.844306    11.00000    0.06019    0.04233 =
         0.09101   -0.02258   -0.00183   -0.00973
C62   1    0.516973    0.779958    0.755298    11.00000    0.05976    0.02685 =
         0.05153    0.00153   -0.00801   -0.01116
C63   1    0.521138    0.425700    0.916812    11.00000    0.05995    0.02649 =
         0.05954    0.00180   -0.01056   -0.01526
C64   1    0.662916    0.941666    0.593849    11.00000    0.06413    0.02094 =
         0.05427    0.00166   -0.00353   -0.01070
C65   1    0.639362    0.360108    0.817423    11.00000    0.06237    0.02665 =
         0.04943    0.00204   -0.01151   -0.01588
C66   1    0.549363    0.423750    0.834688    11.00000    0.05517    0.02802 =
         0.05071    0.00240   -0.00495   -0.01263
C67   1    0.827816    0.592136    0.382195    11.00000    0.07366    0.03550 =
         0.04282    0.00163   -0.00435   -0.02130
C68   1    0.426781    0.759209    0.934319    11.00000    0.05598    0.03322 =
         0.05527    0.00125   -0.00336   -0.01308
C69   1    0.598454    0.840323    0.668920    11.00000    0.06423    0.02482 =
         0.05291    0.00215   -0.01382   -0.01145
C70   1    0.700681    0.963784    0.639917    11.00000    0.06621    0.02461 =
         0.05860    0.00027   -0.00868   -0.00634
AFIX  43
H2    2    0.724846    0.925006    0.675262    11.00000   -1.20000
AFIX   0
C71   1    0.345356    0.544995    0.738031    11.00000    0.05434    0.03914 =
         0.05841   -0.00881    0.00187   -0.01393
AFIX  43
H3    2    0.404615    0.525622    0.706925    11.00000   -1.20000
AFIX   0
C72   1    0.723386    0.489503    0.616341    11.00000    0.05613    0.02885 =
         0.05125    0.00361   -0.00886   -0.00823
C73   1    0.409179    0.748324    0.868085    11.00000    0.05295    0.02429 =
         0.05110   -0.00175   -0.00094   -0.00761
C74   1    0.765785    0.555931    0.513249    11.00000    0.06346    0.03304 =
         0.04566    0.00105   -0.00535   -0.01316
C75   1    0.747087    0.696365    0.481317    11.00000    0.06301    0.03611 =
         0.04693    0.00423   -0.00708   -0.01766
C76   1    0.484090    0.722548    0.798775    11.00000    0.05874    0.03162 =
         0.04677   -0.00146   -0.00471   -0.01140
C77   1    0.328326    0.516259    0.811395    11.00000    0.05466    0.04453 =
         0.05335   -0.01333   -0.00670   -0.01647
C78   1    0.670155    1.096144    0.582444    11.00000    0.06184    0.02863 =
         0.08571    0.00939   -0.00984   -0.01305
AFIX  43
H4    2    0.673047    1.149390    0.578660    11.00000   -1.20000
AFIX   0
C79   1    0.705125    1.042378    0.636914    11.00000    0.06820    0.03092 =
         0.07133   -0.00243   -0.00618   -0.01343
C80   1    0.538761    0.899703    0.722775    11.00000    0.06945    0.02304 =
         0.05645    0.00059   -0.00490   -0.00883
AFIX  43
H5    2    0.535880    0.954487    0.722094    11.00000   -1.20000
AFIX   0
C81   1    0.383633    0.444369    0.842097    11.00000    0.04956    0.04139 =
         0.05305   -0.01290   -0.00400   -0.01154
C82   1    0.280212    0.600412    0.708142    11.00000    0.05522    0.03942 =
         0.05918   -0.00730   -0.00102   -0.01114
C83   1    0.777453    0.616746    0.460549    11.00000    0.06322    0.03751 =
         0.04709   -0.00145   -0.00538   -0.01991
C84   1    0.507570    0.385710    0.727654    11.00000    0.04796    0.04389 =
         0.05123   -0.00743   -0.00495   -0.00973
C85   1    0.479773    0.392168    0.809488    11.00000    0.05600    0.03670 =
         0.05160   -0.00262   -0.00568   -0.01382
C86   1    0.740687    0.825230    0.472061    11.00000    0.07520    0.03777 =
         0.05033    0.00152   -0.00225   -0.02506
AFIX  43
H6    2    0.747532    0.876302    0.454816    11.00000   -1.20000
AFIX   0
C87   1    0.491837    0.307936    0.840721    11.00000    0.05565    0.04140 =
         0.05398   -0.01159    0.00028   -0.01507
C88   1    0.192538    0.510275    0.996501    11.00000    0.05030    0.05515 =
         0.05557   -0.01678    0.00285   -0.02217
C89   1    0.253057    0.496244    0.926067    11.00000    0.05438    0.05244 =
         0.05105   -0.00924   -0.00471   -0.02143
C90   1    0.673858    0.469640    0.682928    11.00000    0.06016    0.02523 =
         0.05093    0.00214   -0.00952   -0.00835
AFIX  43
H7    2    0.685152    0.413897    0.696900    11.00000   -1.20000
AFIX   0
C91   1    0.631655    1.076419    0.533816    11.00000    0.05837    0.02873 =
         0.06891    0.00908   -0.00617   -0.01435
C92   1    0.627724    0.997318    0.540326    11.00000    0.06214    0.03245 =
         0.06433    0.00802   -0.01261   -0.01467
AFIX  43
H8    2    0.601179    0.981537    0.508410    11.00000   -1.20000
AFIX   0
C93   1    0.204807    0.443208    1.055668    11.00000    0.04979    0.06070 =
         0.04625   -0.01757    0.00115   -0.01602
C94   1    0.784244    0.430490    0.562716    11.00000    0.06861    0.03390 =
         0.05167   -0.00421   -0.00462   -0.01071
C95   1    0.809251    0.470636    0.498853    11.00000    0.07490    0.03159 =
         0.05185   -0.00549   -0.00180   -0.01005
AFIX  43
H9    2    0.847989    0.447626    0.453002    11.00000   -1.20000
AFIX   0
C96   1    0.322244    0.760625    0.864883    11.00000    0.05577    0.03376 =
         0.06511   -0.00176   -0.00489   -0.01103
C97   1    0.355253    0.782242    0.997376    11.00000    0.06134    0.04905 =
         0.05281   -0.00447   -0.00592   -0.00813
AFIX  43
H10   2    0.366552    0.790341    1.042439    11.00000   -1.20000
AFIX   0
C98   1    0.487896    0.862869    0.774190    11.00000    0.06369    0.02824 =
         0.05624   -0.00524   -0.00203   -0.00460
AFIX  43
H11   2    0.440858    0.887536    0.815807    11.00000   -1.20000
AFIX   0
C99   1    0.172687    0.380603    1.054724    11.00000    0.04574    0.05703 =
         0.05555   -0.01365   -0.00507   -0.01060
C100  1    0.126422    0.584084    1.013557    11.00000    0.05314    0.05498 =
         0.06394   -0.02363    0.00516   -0.02004
C101  1    0.288254    0.619723    0.629423    11.00000    0.06859    0.04185 =
         0.06245    0.00098   -0.00179   -0.00618
C102  1    0.921330    0.568267    0.360409    11.00000    0.06473    0.04557 =
         0.05071    0.00928   -0.00719   -0.02341
C103  1    0.519869    0.748015    0.937880    11.00000    0.06131    0.05286 =
         0.05461    0.00008   -0.00664   -0.01993
AFIX  33
H30   2    0.561773    0.731903    0.889001    11.00000   -1.50000
H31   2    0.522218    0.798975    0.951119    11.00000   -1.50000
H32   2    0.536539    0.705844    0.975849    11.00000   -1.50000
AFIX   0
C104  1    0.965015    0.533837    0.290867    11.00000    0.06328    0.04998 =
         0.05790    0.00242    0.00332   -0.01698
AFIX  43
H12   2    1.028608    0.516839    0.275214    11.00000   -1.20000
AFIX   0
C105  1    0.149172    0.682865    0.695612    11.00000    0.07140    0.03717 =
         0.08001   -0.00240   -0.01178   -0.01635
C106  1    0.770844    0.759005    0.431193    11.00000    0.08153    0.03826 =
         0.05197    0.00162    0.00107   -0.02493
AFIX  43
H13   2    0.801634    0.754486    0.379615    11.00000   -1.20000
AFIX   0
C107  1    0.334953    0.430661    0.911593    11.00000    0.05133    0.04621 =
         0.04642   -0.00893   -0.00300   -0.01268
AFIX  43
H14   2    0.352391    0.385612    0.944435    11.00000   -1.20000
AFIX   0
C108  1    0.207729    0.666962    0.621197    11.00000    0.08255    0.03745 =
         0.06628    0.00677   -0.01408   -0.01641
AFIX  43
H15   2    0.192123    0.686277    0.575331    11.00000   -1.20000
AFIX   0
C109  1    0.826205    0.552605    0.264974    11.00000    0.07784    0.05157 =
         0.05891   -0.01252   -0.00750   -0.02223
AFIX  43
H16   2    0.793500    0.548842    0.231908    11.00000   -1.20000
AFIX   0
C110  1    0.247995    0.443917    1.109298    11.00000    0.05447    0.08401 =
         0.04680   -0.01902    0.00217   -0.02813
C111  1    0.779653    0.587305    0.333535    11.00000    0.07220    0.04391 =
         0.05336   -0.00345   -0.00724   -0.02094
C112  1    0.917790    0.523580    0.243373    11.00000    0.07928    0.05129 =
         0.05520   -0.00244    0.00364   -0.02998
C113  1    0.591599    1.139727    0.477627    11.00000    0.07841    0.04204 =
         0.08847    0.02195   -0.02898   -0.02347
C114  1    0.268201    0.793689    0.996362    11.00000    0.06096    0.05859 =
         0.05394   -0.00020   -0.00085   -0.00566
C115  1    0.252564    0.783095    0.930755    11.00000    0.05214    0.04998 =
         0.07694    0.00360   -0.00183   -0.01137
AFIX  43
H17   2    0.192897    0.791134    0.929574    11.00000   -1.20000
AFIX   0
C116  1    0.186882    0.315977    1.107571    11.00000    0.05701    0.06360 =
         0.07129   -0.00848   -0.00213   -0.01886
AFIX  43
H120  2    0.165542    0.272625    1.106960    11.00000   -1.20000
AFIX   0
C117  1    0.301949    0.753337    0.792869    11.00000    0.06154    0.05868 =
         0.07645   -0.01568   -0.01493   -0.00962
AFIX  33
H33   2    0.237467    0.764062    0.801727    11.00000   -1.50000
H34   2    0.320371    0.792675    0.755404    11.00000   -1.50000
H35   2    0.334802    0.698532    0.774614    11.00000   -1.50000
AFIX   0
C118  1    0.064881    0.738853    0.709278    11.00000    0.06611    0.03764 =
         0.09944    0.00134   -0.02301   -0.01185
C119  1    0.036958    0.710298    1.004244    11.00000    0.05316    0.06074 =
         0.09165   -0.04108    0.01903   -0.02200
C120  1    0.231475    0.314652    1.160422    11.00000    0.04469    0.08265 =
         0.05983   -0.00444   -0.00785   -0.01201
C121  1    0.744890    1.068772    0.689404    11.00000    0.09669    0.04399 =
         0.09238   -0.01029   -0.03050   -0.03019
C122  1    0.121603    0.381278    0.999020    11.00000    0.07129    0.05649 =
         0.08020   -0.01160   -0.01509   -0.02510
AFIX  33
H36   2    0.104514    0.332327    1.006976    11.00000   -1.50000
H37   2    0.067578    0.429130    1.005865    11.00000   -1.50000
H38   2    0.159574    0.382816    0.948078    11.00000   -1.50000
AFIX   0
C123  1   -0.011861    0.789405    0.898854    11.00000    0.05779    0.05233 =
         0.11759   -0.02912    0.00345   -0.00986
C124  1    0.259889    0.378780    1.161336    11.00000    0.05820    0.09806 =
         0.05562   -0.01542   -0.00055   -0.02720
AFIX  43
H121  2    0.288702    0.378985    1.198667    11.00000   -1.20000
AFIX   0
C125  1   -0.016449    0.778648    0.974553    11.00000    0.05390    0.04683 =
         0.12549   -0.04146    0.01075   -0.01080
C126  1    0.020728    0.766809    0.779520    11.00000    0.05501    0.04297 =
         0.11792   -0.00654   -0.01884   -0.00889
C127  1    0.678316    0.615892    0.355646    11.00000    0.07523    0.07333 =
         0.08039   -0.02993   -0.01456   -0.01114
AFIX  33
H39   2    0.656130    0.638742    0.405415    11.00000   -1.50000
H40   2    0.655712    0.657398    0.319201    11.00000   -1.50000
H41   2    0.657441    0.570060    0.356650    11.00000   -1.50000
AFIX   0
C128  1    0.043664    0.849372    0.609391    11.00000    0.07268    0.04445 =
         0.12679    0.00842   -0.03311   -0.01397
C129  1    0.075531    0.609400    1.087505    11.00000    0.07232    0.06996 =
         0.06924   -0.02656    0.01514   -0.03296
AFIX  43
H18   2    0.077940    0.577418    1.132480    11.00000   -1.20000
AFIX   0
C131  1    0.026427    0.779354    0.643681    11.00000    0.06487    0.04410 =
         0.11393    0.00369   -0.02043   -0.01299
C132  1   -0.024562    0.746411    0.617794    11.00000    0.06590    0.04228 =
         0.10133   -0.00070   -0.01006   -0.01671
C133  1    0.023580    0.686924    1.081607    11.00000    0.07160    0.06949 =
         0.09085   -0.04643    0.02518   -0.02967
AFIX  43
H19   2   -0.015253    0.720234    1.122045    11.00000   -1.20000
AFIX   0
C134  1    0.285816    0.510349    1.110826    11.00000    0.08034    0.10598 =
         0.07266   -0.03266   -0.01077   -0.04591
AFIX  33
H42   2    0.313410    0.499667    1.152779    11.00000   -1.50000
H43   2    0.331082    0.511794    1.063779    11.00000   -1.50000
H44   2    0.237421    0.562559    1.116909    11.00000   -1.50000
AFIX   0
C136  1   -0.058355    0.784858    0.556843    11.00000    0.06836    0.06827 =
         0.09625    0.00576   -0.02466   -0.01739
AFIX  43
H20   2   -0.093838    0.762758    0.539418    11.00000   -1.20000
AFIX   0
C137  1    0.974345    0.575842    0.410380    11.00000    0.08179    0.08462 =
         0.06069    0.00657   -0.01977   -0.02715
AFIX  33
H45   2    0.933408    0.601190    0.456720    11.00000   -1.50000
H46   2    1.012978    0.521984    0.422279    11.00000   -1.50000
H47   2    1.011412    0.609319    0.384911    11.00000   -1.50000
AFIX   0
C138  1   -0.075156    0.852794    0.865331    11.00000    0.06123    0.05256 =
         0.16338   -0.03224   -0.01431   -0.00451
AFIX  43
H21   2   -0.121948    0.897394    0.890604    11.00000   -1.20000
AFIX   0
C139  1    0.010256    0.884557    0.547947    11.00000    0.07433    0.04356 =
         0.13612    0.02129   -0.02846   -0.01289
AFIX  43
H22   2    0.023308    0.931188    0.523276    11.00000   -1.20000
AFIX   0
C140  1   -0.042296    0.852560    0.521712    11.00000    0.06423    0.05805 =
         0.11527    0.02044   -0.02507   -0.01389
C141  1   -0.040849    0.668616    0.651430    11.00000    0.08542    0.05948 =
         0.10046    0.00548   -0.02360   -0.02672
AFIX  33
H48   2   -0.078119    0.655469    0.625699    11.00000   -1.50000
H49   2    0.016630    0.624708    0.645671    11.00000   -1.50000
H50   2   -0.071617    0.675234    0.704727    11.00000   -1.50000
AFIX   0
C142  1    0.967021    0.478294    0.171887    11.00000    0.10113    0.08108 =
         0.07040   -0.02694    0.01763   -0.04545
AFIX  33
H51   2    1.031772    0.462301    0.165748    11.00000   -1.50000
H52   2    0.950025    0.429888    0.174353    11.00000   -1.50000
H53   2    0.951178    0.513337    0.129220    11.00000   -1.50000
AFIX   0
C143  1    0.191521    0.820053    1.065563    11.00000    0.05932    0.11090 =
         0.06964   -0.00237    0.00336    0.00735
AFIX  33
H54   2    0.215082    0.824490    1.106881    11.00000   -1.50000
H55   2    0.149528    0.872722    1.055158    11.00000   -1.50000
H56   2    0.160348    0.780003    1.079418    11.00000   -1.50000
AFIX   0
C145  1    0.249363    0.242016    1.214714    11.00000    0.07712    0.09070 =
         0.08010    0.01129   -0.02568   -0.01931
AFIX  33
H57   2    0.223925    0.202965    1.205168    11.00000   -1.50000
H58   2    0.314144    0.216382    1.207706    11.00000   -1.50000
H59   2    0.221528    0.259966    1.266200    11.00000   -1.50000
AFIX   0
C146  1   -0.056939    0.838211    0.793969    11.00000    0.06797    0.05305 =
         0.14510   -0.01865   -0.02587   -0.00317
AFIX  43
H23   2   -0.088908    0.868906    0.758940    11.00000   -1.20000
AFIX   0
C147  1    0.574808    1.102528    0.418265    11.00000    0.15849    0.07126 =
         0.10529    0.04651   -0.06610   -0.03982
AFIX  33
H66   2    0.630656    1.062282    0.392733    11.00000   -1.50000
H67   2    0.529649    1.076186    0.441154    11.00000   -1.50000
H68   2    0.553100    1.144707    0.381955    11.00000   -1.50000
AFIX   0
C148  1   -0.077007    0.893083    0.456537    11.00000    0.09296    0.09622 =
         0.12869    0.03045   -0.04561   -0.03627
AFIX  33
H60   2   -0.057770    0.940568    0.439838    11.00000   -1.50000
H61   2   -0.053561    0.855318    0.415689    11.00000   -1.50000
H62   2   -0.142622    0.910135    0.471026    11.00000   -1.50000
AFIX   0
C150  1    0.687380    1.149955    0.720465    11.00000    0.11689    0.06690 =
         0.09095   -0.03163   -0.01900   -0.01522
AFIX  33
H69   2    0.678717    1.189978    0.679212    11.00000   -1.50000
H70   2    0.629076    1.147029    0.750603    11.00000   -1.50000
H71   2    0.716718    1.165976    0.751903    11.00000   -1.50000
AFIX   0
C151  1    0.659643    1.182612    0.434573    11.00000    0.12949    0.07214 =
         0.14042    0.05154   -0.05685   -0.05276
AFIX  33
H72   2    0.715250    1.142418    0.408604    11.00000   -1.50000
H73   2    0.634376    1.222059    0.397920    11.00000   -1.50000
H74   2    0.672404    1.210523    0.469926    11.00000   -1.50000
AFIX   0
C152  1    0.095714    0.888824    0.638887    11.00000    0.10929    0.05914 =
         0.17727    0.01993   -0.05825   -0.04129
AFIX  33
H63   2    0.114403    0.856767    0.681953    11.00000   -1.50000
H64   2    0.148782    0.891445    0.599411    11.00000   -1.50000
H65   2    0.057485    0.943672    0.654296    11.00000   -1.50000
AFIX   0
C157  1    0.507134    1.201174    0.517026    11.00000    0.10384    0.10749 =
         0.12580    0.02682   -0.02834    0.03427
AFIX  33
H75   2    0.518850    1.225205    0.555829    11.00000   -1.50000
H76   2    0.485253    1.243605    0.480969    11.00000   -1.50000
H77   2    0.461802    1.175084    0.540168    11.00000   -1.50000
AFIX   0
C161  1    0.834629    1.075659    0.646083    11.00000    0.09776    0.14741 =
         0.17093   -0.08590   -0.02368   -0.03759
AFIX  33
H78   2    0.827168    1.113649    0.603246    11.00000   -1.50000
H79   2    0.859585    1.095398    0.678674    11.00000   -1.50000
H80   2    0.875477    1.022408    0.628166    11.00000   -1.50000
AFIX   0
C164  1    0.755305    1.011090    0.754802    11.00000    0.23435    0.08858 =
         0.16664    0.01807   -0.12962   -0.06280
AFIX  33
H81   2    0.792686    0.956875    0.737003    11.00000   -1.50000
H82   2    0.783858    1.028719    0.785840    11.00000   -1.50000
H83   2    0.696216    1.009772    0.784540    11.00000   -1.50000
PART 1
AFIX   0
C130  1   -0.070081    0.874628    1.077225    21.00000    0.06707    0.02663 =
         0.07917   -0.00176    0.00146   -0.00483
AFIX  43
H24   2   -0.010633    0.861281    1.081622    21.00000   -1.20000
AFIX   0
C135  1   -0.144966    0.929648    1.125485    21.00000    0.07727    0.05279 =
         0.11284   -0.04036    0.02009   -0.02406
C144  1   -0.090187    0.841724    1.023049    21.00000    0.05487    0.05467 =
         0.09698   -0.04794    0.02607   -0.02436
C149  1   -0.120433    0.977552    1.168928    21.00000    0.09895    0.08407 =
         0.08723   -0.02507   -0.02470   -0.00241
C153  1   -0.072086    1.034627    1.120041    21.00000    0.10254    0.09277 =
         0.12934   -0.05297   -0.05272   -0.01766
AFIX  33
H102  2   -0.057517    1.064848    1.152234    21.00000   -1.50000
H103  2   -0.016766    1.002663    1.085790    21.00000   -1.50000
H104  2   -0.111289    1.072593    1.091072    21.00000   -1.50000
AFIX   0
C154  1   -0.406870    0.918481    1.148360    21.00000    0.07096    0.06014 =
         0.16962   -0.03599    0.02873   -0.02229
AFIX  33
H84   2   -0.402185    0.956993    1.179014    21.00000   -1.50000
H85   2   -0.469753    0.930897    1.148741    21.00000   -1.50000
H86   2   -0.384144    0.863399    1.168829    21.00000   -1.50000
AFIX   0
C155  1   -0.233660    0.947113    1.117976    21.00000    0.04645    0.04849 =
         0.08714   -0.02677   -0.00731   -0.00505
AFIX  43
H25   2   -0.281482    0.987765    1.147640    21.00000   -1.20000
AFIX   0
C156  1   -0.182435    0.853431    1.021371    21.00000    0.05475    0.04551 =
         0.06677   -0.01943   -0.00750   -0.01671
AFIX  43
H26   2   -0.193101    0.824262    0.987725    21.00000   -1.20000
AFIX   0
C158  1   -0.252700    0.906455    1.068431    21.00000    0.05414    0.04811 =
         0.07237   -0.01900   -0.00516   -0.01024
C159  1   -0.350840    0.925041    1.067007    21.00000    0.05672    0.06170 =
         0.10439   -0.04116   -0.00933   -0.01368
C160  1   -0.196389    1.034431    1.229592    21.00000    0.10076    0.10230 =
         0.12465   -0.04595   -0.01611   -0.00619
AFIX  33
H105  2   -0.170011    1.062375    1.253890    21.00000   -1.50000
H106  2   -0.239932    1.074397    1.205570    21.00000   -1.50000
H107  2   -0.226614    1.002009    1.267162    21.00000   -1.50000
AFIX   0
C162  1   -0.358892    0.864624    1.020019    21.00000    0.06191    0.08595 =
         0.12907   -0.05956   -0.00612   -0.02452
AFIX  33
H87   2   -0.337291    0.809787    1.041363    21.00000   -1.50000
H88   2   -0.421769    0.877775    1.020020    21.00000   -1.50000
H89   2   -0.322778    0.867580    0.968554    21.00000   -1.50000
AFIX   0
C166  1   -0.050914    0.921043    1.214729    21.00000    0.16050    0.13367 =
         0.10398   -0.00713   -0.02331    0.01544
AFIX  33
H108  2   -0.035958    0.954923    1.243093    21.00000   -1.50000
H109  2   -0.078071    0.884477    1.249350    21.00000   -1.50000
H110  2    0.003743    0.889220    1.179716    21.00000   -1.50000
AFIX   0
C165  1   -0.384754    1.011302    1.033579    21.00000    0.09000    0.05485 =
         0.18551   -0.04981   -0.04799   -0.00213
AFIX  33
H90   2   -0.379544    1.049943    1.063764    21.00000   -1.50000
H91   2   -0.348651    1.014323    0.982120    21.00000   -1.50000
H92   2   -0.447642    1.024518    1.033586    21.00000   -1.50000
PART 2
AFIX  66
C171  1   -0.089366    0.828566    1.043458   -21.00000    0.08437    0.03014 =
         0.22585   -0.02821    0.03962   -0.01216
C181  1   -0.074514    0.893509    1.065913   -21.00000    0.06707    0.02663 =
         0.07917   -0.00176    0.00146   -0.00483
AFIX  43
H27   2   -0.024038    0.908831    1.038713   -21.00000   -1.20000
AFIX  65
C170  1   -0.133516    0.936031    1.128166   -21.00000    0.07727    0.05279 =
         0.11284   -0.04036    0.02009   -0.02406
C169  1   -0.207370    0.913612    1.167965   -21.00000    0.07831    0.06206 =
         0.09315   -0.01909    0.00293    0.00281
AFIX  43
H28   2   -0.247695    0.942675    1.210512   -21.00000   -1.20000
AFIX  65
C168  1   -0.222223    0.848671    1.145510   -21.00000    0.08991    0.06296 =
         0.08218   -0.01847    0.02121   -0.02594
C167  1   -0.163222    0.806147    1.083258   -21.00000    0.05607    0.04974 =
         0.09830   -0.00480    0.01974   -0.00639
AFIX  43
H29   2   -0.173373    0.761762    1.067911   -21.00000   -1.20000
AFIX   0
C173  1   -0.313529    0.823284    1.274599   -21.00000    0.11153    0.08706 =
         0.06001   -0.01003   -0.00563   -0.04469
AFIX  33
H93   2   -0.255286    0.788516    1.282090   -21.00000   -1.50000
H94   2   -0.328351    0.876995    1.293515   -21.00000   -1.50000
H95   2   -0.359697    0.799400    1.301699   -21.00000   -1.50000
AFIX   0
C172  1   -0.309175    0.831117    1.189774   -21.00000    0.10897    0.11566 =
         0.10784   -0.00564   -0.01696   -0.04087
C174  1   -0.070799    0.899200    1.232213   -21.00000    0.10124    0.07770 =
         0.07397   -0.01710   -0.00328   -0.02647
AFIX  33
H111  2   -0.058493    0.916024    1.274872   -21.00000   -1.50000
H112  2   -0.107717    0.864035    1.250163   -21.00000   -1.50000
H113  2   -0.014144    0.869635    1.197865   -21.00000   -1.50000
AFIX   0
C178  1   -0.218604    1.018303    1.232775   -21.00000    0.08833    0.07687 =
         0.09356   -0.04138   -0.01293   -0.02822
AFIX  33
H114  2   -0.219365    1.045837    1.275366   -21.00000   -1.50000
H115  2   -0.248364    1.058205    1.198667   -21.00000   -1.50000
H116  2   -0.250243    0.978906    1.250874   -21.00000   -1.50000
AFIX   0
C179  1   -0.385983    0.880242    1.153091   -21.00000    0.13356    0.13588 =
         0.13703   -0.01691   -0.02884   -0.05493
AFIX  33
H96   2   -0.441156    0.869302    1.180944   -21.00000   -1.50000
H97   2   -0.395370    0.938125    1.153931   -21.00000   -1.50000
H98   2   -0.370053    0.864400    1.101173   -21.00000   -1.50000
AFIX   0
C177  1   -0.067058    1.028391    1.147595   -21.00000    0.09099    0.07228 =
         0.05963   -0.02548   -0.03923   -0.02054
AFIX  33
H117  2   -0.054695    1.056739    1.182858   -21.00000   -1.50000
H118  2   -0.010366    0.995074    1.115895   -21.00000   -1.50000
H119  2   -0.101516    1.068041    1.116176   -21.00000   -1.50000
AFIX   0
C182  1   -0.299682    0.742769    1.177579   -21.00000    0.07547    0.13617 =
         0.09408    0.02308   -0.01512   -0.05311
AFIX  33
H99   2   -0.252028    0.705164    1.198889   -21.00000   -1.50000
H100  2   -0.356404    0.733092    1.202302   -21.00000   -1.50000
H101  2   -0.284621    0.734293    1.123850   -21.00000   -1.50000
AFIX   0
C183  1   -0.121026    0.974288    1.191049   -21.00000    0.08121    0.06621 =
         0.06149   -0.01945   -0.01786   -0.01371
PART 0

HKLF 4 1 1 0 0 0 1 0 0 0 1

REM  180828adi_a.res in P-1
REM R1 =  0.0686 for   11598 Fo > 4sig(Fo)  and  0.0870 for all   15394 data
REM   1238 parameters refined using    185 restraints

END

WGHT      0.1101      8.9577

REM Highest difference peak  2.544,  deepest hole -1.453,  1-sigma level  0.091
Q1    1   0.4430  0.5787  0.5778  11.00000  0.05    2.54
Q2    1   0.7726  0.3075  0.5487  11.00000  0.05    2.24
Q3    1   0.3967  0.5383  0.5346  11.00000  0.05    1.14
Q4    1  -0.2828  0.7006  1.1669  11.00000  0.05    0.80
Q5    1   0.4048  0.5978  0.5192  11.00000  0.05    0.68
Q6    1   0.8077  0.9981  0.7232  11.00000  0.05    0.67
Q7    1   0.1863  0.6363  0.8921  11.00000  0.05    0.64
Q8    1  -0.3410  0.9885  0.9496  11.00000  0.05    0.60
Q9    1   0.6122  1.2193  0.4880  11.00000  0.05    0.54
Q10   1   0.1144  0.6071  0.8607  11.00000  0.05    0.51
Q11   1   0.6036  0.6725  0.6015  11.00000  0.05    0.51
Q12   1   0.7960  0.3110  0.6393  11.00000  0.05    0.49
Q13   1  -0.4838  1.0154  0.9891  11.00000  0.05    0.46
Q14   1  -0.5000  1.0000  1.0000  10.50000  0.05    0.46
Q15   1  -0.0117  0.9641  1.2029  11.00000  0.05    0.44
Q16   1  -0.2230  0.7540  1.2037  11.00000  0.05    0.43
Q17   1  -0.3617  0.8803  1.2629  11.00000  0.05    0.43
Q18   1   0.7167  1.0199  0.7810  11.00000  0.05    0.41
Q19   1   0.8483  1.0249  0.6763  11.00000  0.05    0.40
Q20   1  -0.2909  0.8134  1.2827  11.00000  0.05    0.36
;
_shelx_res_checksum              7984
loop_
_space_group_symop_operation_xyz
'x, y, z'
'-x, -y, -z'
loop_
_atom_site_label
_atom_site_type_symbol
_atom_site_fract_x
_atom_site_fract_y
_atom_site_fract_z
_atom_site_U_iso_or_equiv
_atom_site_adp_type
_atom_site_occupancy
_atom_site_site_symmetry_order
_atom_site_calc_flag
_atom_site_refinement_flags_posn
_atom_site_refinement_flags_adp
_atom_site_refinement_flags_occupancy
_atom_site_disorder_assembly
_atom_site_disorder_group
I1 I 0.82556(3) 0.30687(2) 0.58360(3) 0.07198(18) Uani 1 1 d . . . . .
I2 I 0.40246(4) 0.57910(3) 0.54430(3) 0.0858(2) Uani 1 1 d . . . . .
Ni1 Ni 0.64707(6) 0.66649(5) 0.63667(5) 0.0430(2) Uani 1 1 d . . . . .
Ni2 Ni 0.14821(7) 0.64336(6) 0.85501(6) 0.0575(3) Uani 1 1 d . . . . .
N1 N 0.5891(3) 0.6084(2) 0.7209(3) 0.0433(10) Uani 1 1 d . . . . .
N2 N 0.7145(3) 0.5668(3) 0.5858(3) 0.0468(11) Uani 1 1 d . . . . .
N3 N 0.5853(3) 0.7660(3) 0.6890(3) 0.0463(11) Uani 1 1 d . . . . .
N4 N 0.7001(3) 0.7250(3) 0.5516(3) 0.0458(11) Uani 1 1 d . . . . .
N9 N 0.2483(3) 0.5479(3) 0.8645(3) 0.0522(12) Uani 1 1 d . . . . .
N10 N 0.1939(3) 0.6417(3) 0.7485(3) 0.0563(13) Uani 1 1 d . . . . .
N11 N 0.1032(3) 0.6458(3) 0.9613(3) 0.0610(14) Uani 1 1 d . . . . .
N5 N 0.4992(4) 0.4230(3) 0.9807(3) 0.0605(14) Uani 1 1 d . . . . .
C52 C 0.6080(4) 0.5257(3) 0.7316(3) 0.0427(12) Uani 1 1 d . . . . .
N6 N 0.5317(4) 0.3780(3) 0.6644(3) 0.0631(14) Uani 1 1 d . . . . .
N7 N 0.7060(4) 0.3090(3) 0.8061(3) 0.0587(13) Uani 1 1 d . . . . .
C55 C 0.5206(4) 0.6403(3) 0.7822(3) 0.0449(13) Uani 1 1 d . . . . .
N8 N 0.5029(4) 0.2435(3) 0.8651(3) 0.0653(15) Uani 1 1 d . . . . .
C57 C 0.6536(4) 0.8589(3) 0.6030(3) 0.0489(14) Uani 1 1 d . . . . .
C58 C 0.5495(4) 0.5070(3) 0.8001(3) 0.0440(13) Uani 1 1 d . . . . .
C59 C 0.4953(4) 0.5784(3) 0.8311(3) 0.0466(13) Uani 1 1 d . . . . .
H1 H 0.4493 0.5858 0.8766 0.056 Uiso 1 1 calc R U . . .
C60 C 0.6966(4) 0.8051(3) 0.5459(3) 0.0487(14) Uani 1 1 d . . . . .
N12 N 0.0481(4) 0.7370(3) 0.8443(4) 0.0684(16) Uani 1 1 d . . . . .
C62 C 0.5170(4) 0.7800(3) 0.7553(3) 0.0486(14) Uani 1 1 d . . . . .
C63 C 0.5211(4) 0.4257(3) 0.9168(4) 0.0498(14) Uani 1 1 d . . . . .
C64 C 0.6629(4) 0.9417(3) 0.5938(3) 0.0502(15) Uani 1 1 d . . . . .
C65 C 0.6394(4) 0.3601(3) 0.8174(3) 0.0468(13) Uani 1 1 d . . . . .
C66 C 0.5494(4) 0.4237(3) 0.8347(3) 0.0472(13) Uani 1 1 d . . . . .
C67 C 0.8278(4) 0.5921(3) 0.3822(3) 0.0524(15) Uani 1 1 d . . . . .
C68 C 0.4268(4) 0.7592(3) 0.9343(3) 0.0513(15) Uani 1 1 d . . . . .
C69 C 0.5985(4) 0.8403(3) 0.6689(3) 0.0488(14) Uani 1 1 d . . . . .
C70 C 0.7007(4) 0.9638(3) 0.6399(4) 0.0540(15) Uani 1 1 d . . . . .
H2 H 0.7248 0.9250 0.6753 0.065 Uiso 1 1 calc R U . . .
C71 C 0.3454(4) 0.5450(3) 0.7380(4) 0.0540(15) Uani 1 1 d . . . . .
H3 H 0.4046 0.5256 0.7069 0.065 Uiso 1 1 calc R U . . .
C72 C 0.7234(4) 0.4895(3) 0.6163(3) 0.0486(14) Uani 1 1 d . . . . .
C73 C 0.4092(4) 0.7483(3) 0.8681(3) 0.0469(14) Uani 1 1 d . . . . .
C74 C 0.7658(4) 0.5559(3) 0.5132(3) 0.0503(14) Uani 1 1 d . . . . .
C75 C 0.7471(4) 0.6964(3) 0.4813(3) 0.0504(14) Uani 1 1 d . . . . .
C76 C 0.4841(4) 0.7225(3) 0.7988(3) 0.0486(14) Uani 1 1 d . . . . .
C77 C 0.3283(4) 0.5163(4) 0.8114(3) 0.0513(14) Uani 1 1 d . . . . .
C78 C 0.6702(4) 1.0961(4) 0.5824(4) 0.0624(18) Uani 1 1 d . . . . .
H4 H 0.6730 1.1494 0.5787 0.075 Uiso 1 1 calc R U . . .
C79 C 0.7051(5) 1.0424(3) 0.6369(4) 0.0602(17) Uani 1 1 d . . . . .
C80 C 0.5388(4) 0.8997(3) 0.7228(3) 0.0541(15) Uani 1 1 d . . . . .
H5 H 0.5359 0.9545 0.7221 0.065 Uiso 1 1 calc R U . . .
C81 C 0.3836(4) 0.4444(3) 0.8421(3) 0.0499(14) Uani 1 1 d . . . . .
C82 C 0.2802(4) 0.6004(4) 0.7081(4) 0.0550(15) Uani 1 1 d . . . . .
C83 C 0.7775(4) 0.6167(3) 0.4605(3) 0.0503(14) Uani 1 1 d . . . . .
C84 C 0.5076(4) 0.3857(4) 0.7277(4) 0.0503(14) Uani 1 1 d . . . . .
C85 C 0.4798(4) 0.3922(3) 0.8095(3) 0.0502(14) Uani 1 1 d . . . . .
C86 C 0.7407(4) 0.8252(4) 0.4721(3) 0.0560(16) Uani 1 1 d . . . . .
H6 H 0.7475 0.8763 0.4548 0.067 Uiso 1 1 calc R U . . .
C87 C 0.4918(4) 0.3079(4) 0.8407(4) 0.0528(15) Uani 1 1 d . . . . .
C88 C 0.1925(4) 0.5103(4) 0.9965(4) 0.0545(15) Uani 1 1 d . . . . .
C89 C 0.2531(4) 0.4962(4) 0.9261(3) 0.0528(14) Uani 1 1 d . . . . .
C90 C 0.6739(4) 0.4696(3) 0.6829(3) 0.0484(14) Uani 1 1 d . . . . .
H7 H 0.6852 0.4139 0.6969 0.058 Uiso 1 1 calc R U . . .
C91 C 0.6317(4) 1.0764(3) 0.5338(4) 0.0553(16) Uani 1 1 d . . . . .
C92 C 0.6277(4) 0.9973(3) 0.5403(4) 0.0550(15) Uani 1 1 d . . . . .
H8 H 0.6012 0.9815 0.5084 0.066 Uiso 1 1 calc R U . . .
C93 C 0.2048(4) 0.4432(4) 1.0557(3) 0.0543(15) Uani 1 1 d . . . . .
C94 C 0.7842(4) 0.4305(3) 0.5627(3) 0.0552(15) Uani 1 1 d . . . . .
C95 C 0.8093(5) 0.4706(3) 0.4989(4) 0.0576(16) Uani 1 1 d . . . . .
H9 H 0.8480 0.4476 0.4530 0.069 Uiso 1 1 calc R U . . .
C96 C 0.3222(4) 0.7606(3) 0.8649(4) 0.0549(15) Uani 1 1 d . . . . .
C97 C 0.3553(4) 0.7822(4) 0.9974(4) 0.0588(16) Uani 1 1 d . . . . .
H10 H 0.3666 0.7903 1.0424 0.071 Uiso 1 1 calc R U . . .
C98 C 0.4879(4) 0.8629(3) 0.7742(4) 0.0549(15) Uani 1 1 d . . . . .
H11 H 0.4409 0.8875 0.8158 0.066 Uiso 1 1 calc R U . . .
C99 C 0.1727(4) 0.3806(4) 1.0547(4) 0.0551(15) Uani 1 1 d . . . . .
C100 C 0.1264(4) 0.5841(4) 1.0136(4) 0.0591(16) Uani 1 1 d . . . . .
C101 C 0.2883(5) 0.6197(4) 0.6294(4) 0.0645(18) Uani 1 1 d . . . . .
C102 C 0.9213(4) 0.5683(4) 0.3604(4) 0.0550(15) Uani 1 1 d . . . . .
C103 C 0.5199(4) 0.7480(4) 0.9379(4) 0.0580(16) Uani 1 1 d . . . . .
H30 H 0.5618 0.7319 0.8890 0.087 Uiso 1 1 calc R U . . .
H31 H 0.5222 0.7990 0.9511 0.087 Uiso 1 1 calc R U . . .
H32 H 0.5365 0.7058 0.9758 0.087 Uiso 1 1 calc R U . . .
C104 C 0.9650(5) 0.5338(4) 0.2909(4) 0.0621(17) Uani 1 1 d . . . . .
H12 H 1.0286 0.5168 0.2752 0.075 Uiso 1 1 calc R U . . .
C105 C 0.1492(5) 0.6829(4) 0.6956(4) 0.0650(18) Uani 1 1 d . . . . .
C106 C 0.7708(5) 0.7590(4) 0.4312(4) 0.0602(17) Uani 1 1 d . . . . .
H13 H 0.8016 0.7545 0.3796 0.072 Uiso 1 1 calc R U . . .
C107 C 0.3350(4) 0.4307(4) 0.9116(3) 0.0503(14) Uani 1 1 d . . . . .
H14 H 0.3524 0.3856 0.9444 0.060 Uiso 1 1 calc R U . . .
C108 C 0.2077(5) 0.6670(4) 0.6212(4) 0.0650(18) Uani 1 1 d . . . . .
H15 H 0.1921 0.6863 0.5753 0.078 Uiso 1 1 calc R U . . .
C109 C 0.8262(5) 0.5526(4) 0.2650(4) 0.0637(17) Uani 1 1 d . . . . .
H16 H 0.7935 0.5488 0.2319 0.076 Uiso 1 1 calc R U . . .
C110 C 0.2480(4) 0.4439(5) 1.1093(4) 0.0620(17) Uani 1 1 d . . . . .
C111 C 0.7797(5) 0.5873(4) 0.3335(4) 0.0578(16) Uani 1 1 d . . . . .
C112 C 0.9178(5) 0.5236(4) 0.2434(4) 0.0642(18) Uani 1 1 d . . . . .
C113 C 0.5916(5) 1.1397(4) 0.4776(5) 0.069(2) Uani 1 1 d . . . . .
C114 C 0.2682(5) 0.7937(4) 0.9964(4) 0.0649(18) Uani 1 1 d . . . . .
C115 C 0.2526(4) 0.7831(4) 0.9308(4) 0.0650(18) Uani 1 1 d . . . . .
H17 H 0.1929 0.7911 0.9296 0.078 Uiso 1 1 calc R U . . .
C116 C 0.1869(5) 0.3160(4) 1.1076(4) 0.0668(18) Uani 1 1 d . . . . .
H120 H 0.1655 0.2726 1.1070 0.080 Uiso 1 1 calc R U . . .
C117 C 0.3019(5) 0.7533(4) 0.7929(4) 0.0677(18) Uani 1 1 d . . . . .
H33 H 0.2375 0.7641 0.8017 0.102 Uiso 1 1 calc R U . . .
H34 H 0.3204 0.7927 0.7554 0.102 Uiso 1 1 calc R U . . .
H35 H 0.3348 0.6985 0.7746 0.102 Uiso 1 1 calc R U . . .
C118 C 0.0649(5) 0.7389(4) 0.7093(5) 0.0692(19) Uani 1 1 d . . . . .
C119 C 0.0370(5) 0.7103(4) 1.0042(5) 0.072(2) Uani 1 1 d . . . . .
C120 C 0.2315(4) 0.3147(5) 1.1604(4) 0.0659(18) Uani 1 1 d . . . . .
C121 C 0.7449(6) 1.0688(4) 0.6894(5) 0.0736(19) Uani 1 1 d . U . . .
C122 C 0.1216(5) 0.3813(4) 0.9990(4) 0.0683(18) Uani 1 1 d . . . . .
H36 H 0.1045 0.3323 1.0070 0.102 Uiso 1 1 calc R U . . .
H37 H 0.0676 0.4291 1.0059 0.102 Uiso 1 1 calc R U . . .
H38 H 0.1596 0.3828 0.9481 0.102 Uiso 1 1 calc R U . . .
C123 C -0.0119(5) 0.7894(4) 0.8989(6) 0.081(2) Uani 1 1 d . . . . .
C124 C 0.2599(5) 0.3788(5) 1.1613(4) 0.072(2) Uani 1 1 d . . . . .
H121 H 0.2887 0.3790 1.1987 0.086 Uiso 1 1 calc R U . . .
C125 C -0.0164(5) 0.7786(4) 0.9746(6) 0.081(3) Uani 1 1 d . . . . .
C126 C 0.0207(5) 0.7668(4) 0.7795(6) 0.074(2) Uani 1 1 d . . . . .
C127 C 0.6783(5) 0.6159(5) 0.3556(5) 0.079(2) Uani 1 1 d . . . . .
H39 H 0.6561 0.6387 0.4054 0.118 Uiso 1 1 calc R U . . .
H40 H 0.6557 0.6574 0.3192 0.118 Uiso 1 1 calc R U . . .
H41 H 0.6574 0.5701 0.3567 0.118 Uiso 1 1 calc R U . . .
C128 C 0.0437(5) 0.8494(4) 0.6094(5) 0.082(2) Uani 1 1 d . . . . .
C129 C 0.0755(5) 0.6094(5) 1.0875(4) 0.073(2) Uani 1 1 d . . . . .
H18 H 0.0779 0.5774 1.1325 0.087 Uiso 1 1 calc R U . . .
C131 C 0.0264(5) 0.7794(4) 0.6437(5) 0.077(2) Uani 1 1 d . . . . .
C132 C -0.0246(5) 0.7464(4) 0.6178(5) 0.073(2) Uani 1 1 d . . . . .
C133 C 0.0236(5) 0.6869(5) 1.0816(5) 0.081(2) Uani 1 1 d . . . . .
H19 H -0.0153 0.7202 1.1220 0.098 Uiso 1 1 calc R U . . .
C134 C 0.2858(6) 0.5103(6) 1.1108(5) 0.081(2) Uani 1 1 d . . . . .
H42 H 0.3134 0.4997 1.1528 0.122 Uiso 1 1 calc R U . . .
H43 H 0.3311 0.5118 1.0638 0.122 Uiso 1 1 calc R U . . .
H44 H 0.2374 0.5626 1.1169 0.122 Uiso 1 1 calc R U . . .
C136 C -0.0584(5) 0.7849(5) 0.5568(5) 0.079(2) Uani 1 1 d . . . . .
H20 H -0.0938 0.7628 0.5394 0.095 Uiso 1 1 calc R U . . .
C137 C 0.9743(5) 0.5758(5) 0.4104(4) 0.076(2) Uani 1 1 d . . . . .
H45 H 0.9334 0.6012 0.4567 0.115 Uiso 1 1 calc R U . . .
H46 H 1.0130 0.5220 0.4223 0.115 Uiso 1 1 calc R U . . .
H47 H 1.0114 0.6093 0.3849 0.115 Uiso 1 1 calc R U . . .
C138 C -0.0752(5) 0.8528(5) 0.8653(7) 0.097(3) Uani 1 1 d . . . . .
H21 H -0.1219 0.8974 0.8906 0.116 Uiso 1 1 calc R U . . .
C139 C 0.0103(5) 0.8846(4) 0.5479(6) 0.089(3) Uani 1 1 d . . . . .
H22 H 0.0233 0.9312 0.5233 0.106 Uiso 1 1 calc R U . . .
C140 C -0.0423(5) 0.8526(5) 0.5217(5) 0.083(2) Uani 1 1 d . . . . .
C141 C -0.0408(6) 0.6686(5) 0.6514(5) 0.082(2) Uani 1 1 d . . . . .
H48 H -0.0781 0.6555 0.6257 0.123 Uiso 1 1 calc R U . . .
H49 H 0.0166 0.6247 0.6457 0.123 Uiso 1 1 calc R U . . .
H50 H -0.0716 0.6752 0.7047 0.123 Uiso 1 1 calc R U . . .
C142 C 0.9670(6) 0.4783(5) 0.1719(4) 0.086(3) Uani 1 1 d . . . . .
H51 H 1.0318 0.4623 0.1657 0.129 Uiso 1 1 calc R U . . .
H52 H 0.9500 0.4299 0.1744 0.129 Uiso 1 1 calc R U . . .
H53 H 0.9512 0.5133 0.1292 0.129 Uiso 1 1 calc R U . . .
C143 C 0.1915(5) 0.8201(6) 1.0656(5) 0.094(3) Uani 1 1 d . . . . .
H54 H 0.2151 0.8245 1.1069 0.141 Uiso 1 1 calc R U . . .
H55 H 0.1495 0.8727 1.0552 0.141 Uiso 1 1 calc R U . . .
H56 H 0.1603 0.7800 1.0794 0.141 Uiso 1 1 calc R U . . .
C145 C 0.2494(6) 0.2420(5) 1.2147(5) 0.085(2) Uani 1 1 d . . . . .
H57 H 0.2239 0.2030 1.2052 0.128 Uiso 1 1 calc R U . . .
H58 H 0.3141 0.2164 1.2077 0.128 Uiso 1 1 calc R U . . .
H59 H 0.2215 0.2600 1.2662 0.128 Uiso 1 1 calc R U . . .
C146 C -0.0569(6) 0.8382(5) 0.7940(7) 0.092(3) Uani 1 1 d . . . . .
H23 H -0.0889 0.8689 0.7589 0.111 Uiso 1 1 calc R U . . .
C147 C 0.5748(8) 1.1025(5) 0.4183(6) 0.109(3) Uani 1 1 d . . . . .
H66 H 0.6307 1.0623 0.3927 0.163 Uiso 1 1 calc R U . . .
H67 H 0.5296 1.0762 0.4412 0.163 Uiso 1 1 calc R U . . .
H68 H 0.5531 1.1447 0.3820 0.163 Uiso 1 1 calc R U . . .
C148 C -0.0770(6) 0.8931(6) 0.4565(6) 0.104(3) Uani 1 1 d . . . . .
H60 H -0.0578 0.9406 0.4398 0.156 Uiso 1 1 calc R U . . .
H61 H -0.0536 0.8553 0.4157 0.156 Uiso 1 1 calc R U . . .
H62 H -0.1426 0.9101 0.4710 0.156 Uiso 1 1 calc R U . . .
C150 C 0.6874(7) 1.1500(5) 0.7205(5) 0.095(3) Uani 1 1 d . U . . .
H69 H 0.6787 1.1900 0.6792 0.142 Uiso 1 1 calc R U . . .
H70 H 0.6291 1.1470 0.7506 0.142 Uiso 1 1 calc R U . . .
H71 H 0.7167 1.1660 0.7519 0.142 Uiso 1 1 calc R U . . .
C151 C 0.6596(7) 1.1826(5) 0.4346(6) 0.109(3) Uani 1 1 d . . . . .
H72 H 0.7152 1.1424 0.4086 0.164 Uiso 1 1 calc R U . . .
H73 H 0.6344 1.2221 0.3979 0.164 Uiso 1 1 calc R U . . .
H74 H 0.6724 1.2105 0.4699 0.164 Uiso 1 1 calc R U . . .
C152 C 0.0957(7) 0.8888(5) 0.6389(7) 0.109(3) Uani 1 1 d . . . . .
H63 H 0.1144 0.8568 0.6820 0.164 Uiso 1 1 calc R U . . .
H64 H 0.1488 0.8914 0.5994 0.164 Uiso 1 1 calc R U . . .
H65 H 0.0575 0.9437 0.6543 0.164 Uiso 1 1 calc R U . . .
C157 C 0.5071(7) 1.2012(7) 0.5170(6) 0.135(5) Uani 1 1 d . . . . .
H75 H 0.5188 1.2252 0.5558 0.202 Uiso 1 1 calc R U . . .
H76 H 0.4853 1.2436 0.4810 0.202 Uiso 1 1 calc R U . . .
H77 H 0.4618 1.1751 0.5402 0.202 Uiso 1 1 calc R U . . .
C161 C 0.8346(7) 1.0757(8) 0.6461(7) 0.134(4) Uani 1 1 d . U . . .
H78 H 0.8272 1.1136 0.6032 0.201 Uiso 1 1 calc R U . . .
H79 H 0.8596 1.0954 0.6787 0.201 Uiso 1 1 calc R U . . .
H80 H 0.8755 1.0224 0.6282 0.201 Uiso 1 1 calc R U . . .
C164 C 0.7553(10) 1.0111(7) 0.7548(7) 0.146(4) Uani 1 1 d . U . . .
H81 H 0.7927 0.9569 0.7370 0.218 Uiso 1 1 calc R U . . .
H82 H 0.7839 1.0287 0.7858 0.218 Uiso 1 1 calc R U . . .
H83 H 0.6962 1.0098 0.7845 0.218 Uiso 1 1 calc R U . . .
C130 C -0.0701(10) 0.8746(8) 1.0772(9) 0.065(3) Uani 0.657(7) 1 d . . P A 1
H24 H -0.0106 0.8613 1.0816 0.078 Uiso 0.657(7) 1 calc R U P A 1
C135 C -0.1450(11) 0.9296(10) 1.1255(11) 0.086(3) Uani 0.657(7) 1 d . . P A 1
C144 C -0.0902(9) 0.8417(11) 1.0230(14) 0.073(5) Uani 0.657(7) 1 d . . P A 1
C149 C -0.1204(12) 0.9776(11) 1.1689(11) 0.095(5) Uani 0.657(7) 1 d . U P A 1
C153 C -0.0721(13) 1.0346(12) 1.1200(11) 0.102(6) Uani 0.657(7) 1 d . U P A 1
H102 H -0.0575 1.0648 1.1522 0.154 Uiso 0.657(7) 1 calc R U P A 1
H103 H -0.0168 1.0027 1.0858 0.154 Uiso 0.657(7) 1 calc R U P A 1
H104 H -0.1113 1.0726 1.0911 0.154 Uiso 0.657(7) 1 calc R U P A 1
C154 C -0.4069(10) 0.9185(9) 1.1484(12) 0.110(6) Uani 0.657(7) 1 d . . P A 1
H84 H -0.4022 0.9570 1.1790 0.165 Uiso 0.657(7) 1 calc R U P A 1
H85 H -0.4698 0.9309 1.1487 0.165 Uiso 0.657(7) 1 calc R U P A 1
H86 H -0.3841 0.8634 1.1688 0.165 Uiso 0.657(7) 1 calc R U P A 1
C155 C -0.2337(7) 0.9471(6) 1.1180(7) 0.063(3) Uani 0.657(7) 1 d . . P A 1
H25 H -0.2815 0.9878 1.1476 0.076 Uiso 0.657(7) 1 calc R U P A 1
C156 C -0.1824(6) 0.8534(6) 1.0214(6) 0.056(3) Uani 0.657(7) 1 d . . P A 1
H26 H -0.1931 0.8243 0.9877 0.067 Uiso 0.657(7) 1 calc R U P A 1
C158 C -0.2527(7) 0.9065(6) 1.0684(6) 0.061(3) Uani 0.657(7) 1 d . . P A 1
C159 C -0.3508(7) 0.9250(7) 1.0670(7) 0.075(3) Uani 0.657(7) 1 d . . P A 1
C160 C -0.1964(13) 1.0344(13) 1.2296(13) 0.115(7) Uani 0.657(7) 1 d . U P A 1
H105 H -0.1700 1.0624 1.2539 0.173 Uiso 0.657(7) 1 calc R U P A 1
H106 H -0.2399 1.0744 1.2056 0.173 Uiso 0.657(7) 1 calc R U P A 1
H107 H -0.2266 1.0020 1.2672 0.173 Uiso 0.657(7) 1 calc R U P A 1
C162 C -0.3589(8) 0.8646(8) 1.0200(9) 0.091(4) Uani 0.657(7) 1 d . . P A 1
H87 H -0.3373 0.8098 1.0414 0.136 Uiso 0.657(7) 1 calc R U P A 1
H88 H -0.4218 0.8778 1.0200 0.136 Uiso 0.657(7) 1 calc R U P A 1
H89 H -0.3228 0.8676 0.9686 0.136 Uiso 0.657(7) 1 calc R U P A 1
C166 C -0.0509(17) 0.9210(16) 1.2147(13) 0.152(8) Uani 0.657(7) 1 d . U P A 1
H108 H -0.0360 0.9549 1.2431 0.229 Uiso 0.657(7) 1 calc R U P A 1
H109 H -0.0781 0.8845 1.2494 0.229 Uiso 0.657(7) 1 calc R U P A 1
H110 H 0.0037 0.8892 1.1797 0.229 Uiso 0.657(7) 1 calc R U P A 1
C165 C -0.3848(10) 1.0113(7) 1.0336(10) 0.109(6) Uani 0.657(7) 1 d . . P A 1
H90 H -0.3795 1.0499 1.0638 0.163 Uiso 0.657(7) 1 calc R U P A 1
H91 H -0.3487 1.0143 0.9821 0.163 Uiso 0.657(7) 1 calc R U P A 1
H92 H -0.4476 1.0245 1.0336 0.163 Uiso 0.657(7) 1 calc R U P A 1
C171 C -0.0894(14) 0.8286(15) 1.0435(12) 0.13(3) Uani 0.343(7) 1 d G . P A 2
C181 C -0.0745(15) 0.8935(17) 1.0659(15) 0.065(3) Uani 0.343(7) 1 d G . P A 2
H27 H -0.0240 0.9088 1.0387 0.078 Uiso 0.343(7) 1 calc R U P A 2
C170 C -0.1335(16) 0.9360(13) 1.1282(14) 0.086(3) Uani 0.343(7) 1 d DG . P A 2
C169 C -0.2074(13) 0.9136(10) 1.1680(10) 0.089(8) Uani 0.343(7) 1 d G . P A 2
H28 H -0.2477 0.9427 1.2105 0.107 Uiso 0.343(7) 1 calc R U P A 2
C168 C -0.2222(9) 0.8487(9) 1.1455(8) 0.086(8) Uani 0.343(7) 1 d DG . P A 2
C167 C -0.1632(11) 0.8061(9) 1.0833(9) 0.080(7) Uani 0.343(7) 1 d G . P A 2
H29 H -0.1734 0.7618 1.0679 0.096 Uiso 0.343(7) 1 calc R U P A 2
C173 C -0.3135(17) 0.8233(16) 1.2746(8) 0.086(6) Uani 0.343(7) 1 d D U P A 2
H93 H -0.2553 0.7885 1.2821 0.129 Uiso 0.343(7) 1 calc R U P A 2
H94 H -0.3284 0.8770 1.2935 0.129 Uiso 0.343(7) 1 calc R U P A 2
H95 H -0.3597 0.7994 1.3017 0.129 Uiso 0.343(7) 1 calc R U P A 2
C172 C -0.3092(12) 0.8311(12) 1.1898(9) 0.112(7) Uani 0.343(7) 1 d D U P A 2
C174 C -0.0708(19) 0.8992(16) 1.2322(15) 0.088(8) Uani 0.343(7) 1 d D U P A 2
H111 H -0.0585 0.9160 1.2749 0.132 Uiso 0.343(7) 1 calc R U P A 2
H112 H -0.1077 0.8640 1.2502 0.132 Uiso 0.343(7) 1 calc R U P A 2
H113 H -0.0141 0.8696 1.1979 0.132 Uiso 0.343(7) 1 calc R U P A 2
C178 C -0.2186(15) 1.0183(17) 1.2328(17) 0.085(8) Uani 0.343(7) 1 d D U P A 2
H114 H -0.2194 1.0458 1.2754 0.127 Uiso 0.343(7) 1 calc R U P A 2
H115 H -0.2484 1.0582 1.1987 0.127 Uiso 0.343(7) 1 calc R U P A 2
H116 H -0.2502 0.9789 1.2509 0.127 Uiso 0.343(7) 1 calc R U P A 2
C179 C -0.3860(16) 0.880(2) 1.153(3) 0.133(11) Uani 0.343(7) 1 d D U P A 2
H96 H -0.4412 0.8693 1.1809 0.199 Uiso 0.343(7) 1 calc R U P A 2
H97 H -0.3954 0.9381 1.1539 0.199 Uiso 0.343(7) 1 calc R U P A 2
H98 H -0.3701 0.8644 1.1012 0.199 Uiso 0.343(7) 1 calc R U P A 2
C177 C -0.0671(18) 1.0284(15) 1.1476(14) 0.069(7) Uani 0.343(7) 1 d D U P A 2
H117 H -0.0547 1.0567 1.1829 0.104 Uiso 0.343(7) 1 calc R U P A 2
H118 H -0.0104 0.9951 1.1159 0.104 Uiso 0.343(7) 1 calc R U P A 2
H119 H -0.1015 1.0680 1.1162 0.104 Uiso 0.343(7) 1 calc R U P A 2
C182 C -0.2997(16) 0.7428(13) 1.1776(15) 0.101(7) Uani 0.343(7) 1 d D U P A 2
H99 H -0.2520 0.7052 1.1989 0.152 Uiso 0.343(7) 1 calc R U P A 2
H100 H -0.3564 0.7331 1.2023 0.152 Uiso 0.343(7) 1 calc R U P A 2
H101 H -0.2846 0.7343 1.1238 0.152 Uiso 0.343(7) 1 calc R U P A 2
C183 C -0.1210(13) 0.9743(11) 1.1910(12) 0.071(7) Uani 0.343(7) 1 d D U P A 2
loop_
_atom_site_aniso_label
_atom_site_aniso_U_11
_atom_site_aniso_U_22
_atom_site_aniso_U_33
_atom_site_aniso_U_23
_atom_site_aniso_U_13
_atom_site_aniso_U_12
I1 0.0944(4) 0.0304(2) 0.0635(3) -0.00014(17) 0.0006(2) -0.0044(2)
I2 0.0920(4) 0.0645(3) 0.0645(3) 0.0079(2) 0.0084(3) -0.0082(3)
Ni1 0.0546(5) 0.0236(4) 0.0430(5) 0.0022(4) -0.0053(4) -0.0106(4)
Ni2 0.0496(6) 0.0430(6) 0.0686(7) -0.0165(5) 0.0003(5) -0.0087(4)
N1 0.054(3) 0.026(2) 0.044(3) 0.0001(18) -0.006(2) -0.0110(19)
N2 0.060(3) 0.027(2) 0.046(3) 0.0039(19) -0.007(2) -0.012(2)
N3 0.059(3) 0.025(2) 0.048(3) 0.0045(19) -0.008(2) -0.014(2)
N4 0.058(3) 0.028(2) 0.046(3) 0.0008(19) -0.006(2) -0.015(2)
N9 0.046(3) 0.050(3) 0.054(3) -0.017(2) 0.002(2) -0.013(2)
N10 0.053(3) 0.039(3) 0.068(3) -0.007(2) -0.007(3) -0.009(2)
N11 0.052(3) 0.049(3) 0.073(4) -0.029(3) 0.007(3) -0.014(2)
N5 0.086(4) 0.044(3) 0.051(4) 0.002(2) -0.015(3) -0.025(3)
C52 0.052(3) 0.028(3) 0.046(3) 0.005(2) -0.011(2) -0.013(2)
N6 0.060(3) 0.062(3) 0.056(4) -0.017(3) -0.005(3) -0.011(3)
N7 0.067(3) 0.037(3) 0.065(3) 0.005(2) -0.011(3) -0.014(3)
C55 0.052(3) 0.031(3) 0.045(3) 0.002(2) -0.006(3) -0.013(2)
N8 0.077(4) 0.043(3) 0.069(4) -0.006(3) -0.006(3) -0.020(3)
C57 0.058(3) 0.030(3) 0.055(4) 0.007(2) -0.013(3) -0.014(3)
C58 0.058(3) 0.028(3) 0.044(3) 0.004(2) -0.012(3) -0.014(2)
C59 0.054(3) 0.032(3) 0.046(3) -0.002(2) -0.003(3) -0.013(2)
C60 0.060(3) 0.031(3) 0.053(3) 0.003(2) -0.013(3) -0.015(3)
N12 0.060(3) 0.042(3) 0.091(4) -0.023(3) -0.002(3) -0.010(3)
C62 0.060(3) 0.027(3) 0.052(3) 0.002(2) -0.008(3) -0.011(2)
C63 0.060(4) 0.026(3) 0.060(4) 0.002(3) -0.011(3) -0.015(2)
C64 0.064(4) 0.021(3) 0.054(4) 0.002(2) -0.004(3) -0.011(2)
C65 0.062(4) 0.027(3) 0.049(3) 0.002(2) -0.012(3) -0.016(3)
C66 0.055(3) 0.028(3) 0.051(3) 0.002(2) -0.005(3) -0.013(2)
C67 0.074(4) 0.036(3) 0.043(3) 0.002(2) -0.004(3) -0.021(3)
C68 0.056(3) 0.033(3) 0.055(4) 0.001(3) -0.003(3) -0.013(3)
C69 0.064(4) 0.025(3) 0.053(3) 0.002(2) -0.014(3) -0.011(2)
C70 0.066(4) 0.025(3) 0.059(4) 0.000(3) -0.009(3) -0.006(3)
C71 0.054(3) 0.039(3) 0.058(4) -0.009(3) 0.002(3) -0.014(3)
C72 0.056(3) 0.029(3) 0.051(3) 0.004(2) -0.009(3) -0.008(2)
C73 0.053(3) 0.024(3) 0.051(3) -0.002(2) -0.001(3) -0.008(2)
C74 0.063(4) 0.033(3) 0.046(3) 0.001(2) -0.005(3) -0.013(3)
C75 0.063(4) 0.036(3) 0.047(3) 0.004(2) -0.007(3) -0.018(3)
C76 0.059(3) 0.032(3) 0.047(3) -0.001(2) -0.005(3) -0.011(2)
C77 0.055(3) 0.045(3) 0.053(4) -0.013(3) -0.007(3) -0.016(3)
C78 0.062(4) 0.029(3) 0.086(5) 0.009(3) -0.010(4) -0.013(3)
C79 0.068(4) 0.031(3) 0.071(4) -0.002(3) -0.006(3) -0.013(3)
C80 0.069(4) 0.023(3) 0.056(4) 0.001(2) -0.005(3) -0.009(3)
C81 0.050(3) 0.041(3) 0.053(4) -0.013(3) -0.004(3) -0.012(3)
C82 0.055(4) 0.039(3) 0.059(4) -0.007(3) -0.001(3) -0.011(3)
C83 0.063(4) 0.038(3) 0.047(3) -0.001(2) -0.005(3) -0.020(3)
C84 0.048(3) 0.044(3) 0.051(4) -0.007(3) -0.005(3) -0.010(3)
C85 0.056(3) 0.037(3) 0.052(4) -0.003(3) -0.006(3) -0.014(3)
C86 0.075(4) 0.038(3) 0.050(4) 0.002(3) -0.002(3) -0.025(3)
C87 0.056(3) 0.041(3) 0.054(4) -0.012(3) 0.000(3) -0.015(3)
C88 0.050(3) 0.055(4) 0.056(4) -0.017(3) 0.003(3) -0.022(3)
C89 0.054(3) 0.052(3) 0.051(4) -0.009(3) -0.005(3) -0.021(3)
C90 0.060(3) 0.025(3) 0.051(3) 0.002(2) -0.010(3) -0.008(2)
C91 0.058(4) 0.029(3) 0.069(4) 0.009(3) -0.006(3) -0.014(3)
C92 0.062(4) 0.032(3) 0.064(4) 0.008(3) -0.013(3) -0.015(3)
C93 0.050(3) 0.061(4) 0.046(3) -0.018(3) 0.001(3) -0.016(3)
C94 0.069(4) 0.034(3) 0.052(4) -0.004(3) -0.005(3) -0.011(3)
C95 0.075(4) 0.032(3) 0.052(4) -0.005(3) -0.002(3) -0.010(3)
C96 0.056(4) 0.034(3) 0.065(4) -0.002(3) -0.005(3) -0.011(3)
C97 0.061(4) 0.049(4) 0.053(4) -0.004(3) -0.006(3) -0.008(3)
C98 0.064(4) 0.028(3) 0.056(4) -0.005(3) -0.002(3) -0.005(3)
C99 0.046(3) 0.057(4) 0.056(4) -0.014(3) -0.005(3) -0.011(3)
C100 0.053(4) 0.055(4) 0.064(4) -0.024(3) 0.005(3) -0.020(3)
C101 0.069(4) 0.042(3) 0.062(4) 0.001(3) -0.002(3) -0.006(3)
C102 0.065(4) 0.046(3) 0.051(4) 0.009(3) -0.007(3) -0.023(3)
C103 0.061(4) 0.053(4) 0.055(4) 0.000(3) -0.007(3) -0.020(3)
C104 0.063(4) 0.050(4) 0.058(4) 0.002(3) 0.003(3) -0.017(3)
C105 0.071(4) 0.037(3) 0.080(5) -0.002(3) -0.012(4) -0.016(3)
C106 0.082(4) 0.038(3) 0.052(4) 0.002(3) 0.001(3) -0.025(3)
C107 0.051(3) 0.046(3) 0.046(3) -0.009(3) -0.003(3) -0.013(3)
C108 0.083(5) 0.037(3) 0.066(4) 0.007(3) -0.014(4) -0.016(3)
C109 0.078(5) 0.052(4) 0.059(4) -0.013(3) -0.007(3) -0.022(3)
C110 0.054(4) 0.084(5) 0.047(4) -0.019(3) 0.002(3) -0.028(3)
C111 0.072(4) 0.044(3) 0.053(4) -0.003(3) -0.007(3) -0.021(3)
C112 0.079(5) 0.051(4) 0.055(4) -0.002(3) 0.004(3) -0.030(3)
C113 0.078(5) 0.042(3) 0.088(5) 0.022(3) -0.029(4) -0.023(3)
C114 0.061(4) 0.059(4) 0.054(4) 0.000(3) -0.001(3) -0.006(3)
C115 0.052(4) 0.050(4) 0.077(5) 0.004(3) -0.002(3) -0.011(3)
C116 0.057(4) 0.064(4) 0.071(5) -0.008(4) -0.002(3) -0.019(3)
C117 0.062(4) 0.059(4) 0.076(5) -0.016(4) -0.015(4) -0.010(3)
C118 0.066(4) 0.038(3) 0.099(6) 0.001(4) -0.023(4) -0.012(3)
C119 0.053(4) 0.061(4) 0.092(6) -0.041(4) 0.019(4) -0.022(3)
C120 0.045(3) 0.083(5) 0.060(4) -0.004(4) -0.008(3) -0.012(3)
C121 0.097(5) 0.044(3) 0.092(5) -0.010(3) -0.031(4) -0.030(3)
C122 0.071(4) 0.056(4) 0.080(5) -0.012(4) -0.015(4) -0.025(3)
C123 0.058(4) 0.052(4) 0.118(7) -0.029(4) 0.003(4) -0.010(3)
C124 0.058(4) 0.098(6) 0.056(4) -0.015(4) -0.001(3) -0.027(4)
C125 0.054(4) 0.047(4) 0.125(8) -0.041(4) 0.011(4) -0.011(3)
C126 0.055(4) 0.043(4) 0.118(7) -0.007(4) -0.019(4) -0.009(3)
C127 0.075(5) 0.073(5) 0.080(5) -0.030(4) -0.015(4) -0.011(4)
C128 0.073(5) 0.044(4) 0.127(7) 0.008(4) -0.033(5) -0.014(3)
C129 0.072(5) 0.070(5) 0.069(5) -0.027(4) 0.015(4) -0.033(4)
C131 0.065(4) 0.044(4) 0.114(7) 0.004(4) -0.020(4) -0.013(3)
C132 0.066(4) 0.042(4) 0.101(6) -0.001(4) -0.010(4) -0.017(3)
C133 0.072(5) 0.069(5) 0.091(6) -0.046(4) 0.025(4) -0.030(4)
C134 0.080(5) 0.106(6) 0.073(5) -0.033(5) -0.011(4) -0.046(5)
C136 0.068(5) 0.068(5) 0.096(6) 0.006(4) -0.025(4) -0.017(4)
C137 0.082(5) 0.085(5) 0.061(4) 0.007(4) -0.020(4) -0.027(4)
C138 0.061(5) 0.053(5) 0.163(10) -0.032(6) -0.014(6) -0.005(4)
C139 0.074(5) 0.044(4) 0.136(8) 0.021(4) -0.028(5) -0.013(4)
C140 0.064(4) 0.058(4) 0.115(7) 0.020(4) -0.025(4) -0.014(4)
C141 0.085(5) 0.059(4) 0.100(6) 0.005(4) -0.024(5) -0.027(4)
C142 0.101(6) 0.081(5) 0.070(5) -0.027(4) 0.018(4) -0.045(5)
C143 0.059(4) 0.111(7) 0.070(5) -0.002(5) 0.003(4) 0.007(4)
C145 0.077(5) 0.091(6) 0.080(5) 0.011(4) -0.026(4) -0.019(4)
C146 0.068(5) 0.053(4) 0.145(9) -0.019(5) -0.026(5) -0.003(4)
C147 0.158(9) 0.071(6) 0.105(7) 0.047(5) -0.066(7) -0.040(6)
C148 0.093(6) 0.096(7) 0.129(8) 0.030(6) -0.046(6) -0.036(5)
C150 0.117(6) 0.067(5) 0.091(6) -0.032(4) -0.019(5) -0.015(4)
C151 0.129(8) 0.072(6) 0.140(9) 0.052(6) -0.057(7) -0.053(6)
C152 0.109(7) 0.059(5) 0.177(11) 0.020(6) -0.058(7) -0.041(5)
C157 0.104(7) 0.107(8) 0.126(9) 0.027(7) -0.028(7) 0.034(6)
C161 0.098(6) 0.147(8) 0.171(9) -0.086(7) -0.024(6) -0.038(6)
C164 0.234(10) 0.089(6) 0.167(9) 0.018(6) -0.130(8) -0.063(7)
C130 0.067(5) 0.027(8) 0.079(7) -0.002(6) 0.001(4) -0.005(5)
C135 0.077(6) 0.053(5) 0.113(7) -0.040(5) 0.020(5) -0.024(4)
C144 0.055(10) 0.055(9) 0.097(9) -0.048(8) 0.026(7) -0.024(7)
C149 0.099(7) 0.084(7) 0.087(8) -0.025(6) -0.025(6) -0.002(6)
C153 0.103(9) 0.093(9) 0.129(12) -0.053(9) -0.053(9) -0.018(7)
C154 0.071(8) 0.060(8) 0.170(17) -0.036(9) 0.029(9) -0.022(7)
C155 0.046(5) 0.048(6) 0.087(8) -0.027(6) -0.007(5) -0.005(4)
C156 0.055(6) 0.046(5) 0.067(6) -0.019(5) -0.008(5) -0.017(4)
C158 0.054(6) 0.048(5) 0.072(7) -0.019(5) -0.005(5) -0.010(4)
C159 0.057(6) 0.062(7) 0.104(9) -0.041(6) -0.009(6) -0.014(5)
C160 0.101(10) 0.102(11) 0.125(11) -0.046(9) -0.016(9) -0.006(9)
C162 0.062(7) 0.086(9) 0.129(12) -0.060(8) -0.006(7) -0.025(6)
C166 0.161(13) 0.134(13) 0.104(11) -0.007(10) -0.023(10) 0.015(11)
C165 0.090(9) 0.055(7) 0.186(17) -0.050(9) -0.048(10) -0.002(6)
C171 0.08(3) 0.030(15) 0.23(7) -0.03(2) 0.04(3) -0.012(15)
C181 0.067(5) 0.027(8) 0.079(7) -0.002(6) 0.001(4) -0.005(5)
C170 0.077(6) 0.053(5) 0.113(7) -0.040(5) 0.020(5) -0.024(4)
C169 0.078(16) 0.062(15) 0.093(19) -0.019(14) 0.003(15) 0.003(12)
C168 0.090(16) 0.063(14) 0.082(16) -0.018(12) 0.021(13) -0.026(12)
C167 0.056(12) 0.050(12) 0.098(18) -0.005(12) 0.020(11) -0.006(10)
C173 0.112(12) 0.087(12) 0.060(10) -0.010(9) -0.006(9) -0.045(10)
C172 0.109(9) 0.116(10) 0.108(9) -0.006(8) -0.017(7) -0.041(7)
C174 0.101(13) 0.078(12) 0.074(13) -0.017(10) -0.003(10) -0.026(10)
C178 0.088(13) 0.077(12) 0.094(13) -0.041(10) -0.013(11) -0.028(10)
C179 0.134(15) 0.136(16) 0.137(16) -0.017(13) -0.029(13) -0.055(13)
C177 0.091(12) 0.072(12) 0.060(11) -0.025(10) -0.039(10) -0.021(9)
C182 0.075(11) 0.136(14) 0.094(12) 0.023(11) -0.015(10) -0.053(10)
C183 0.081(9) 0.066(9) 0.061(9) -0.019(7) -0.018(7) -0.014(7)
loop_
_atom_type_symbol
_atom_type_description
_atom_type_scat_dispersion_real
_atom_type_scat_dispersion_imag
_atom_type_scat_source
C C 0.0181 0.0091 'International Tables Vol C Tables 4.2.6.8 and 6.1.1.4'
H H 0.0000 0.0000 'International Tables Vol C Tables 4.2.6.8 and 6.1.1.4'
N N 0.0311 0.0180 'International Tables Vol C Tables 4.2.6.8 and 6.1.1.4'
Ni Ni -3.0029 0.5091 'International Tables Vol C Tables 4.2.6.8 and 6.1.1.4'
I I -0.3257 6.8362 'International Tables Vol C Tables 4.2.6.8 and 6.1.1.4'
loop_
_geom_angle_atom_site_label_1
_geom_angle_atom_site_label_2
_geom_angle_atom_site_label_3
_geom_angle
N2 Ni1 N3 176.9(2)
N2 Ni1 N4 89.69(19)
N3 Ni1 N4 89.76(19)
N2 Ni1 N1 90.53(18)
N3 Ni1 N1 90.15(18)
N4 Ni1 N1 177.5(2)
N11 Ni2 N10 179.4(2)
N11 Ni2 N12 90.2(3)
N10 Ni2 N12 89.7(3)
N11 Ni2 N9 90.4(2)
N10 Ni2 N9 89.7(2)
N12 Ni2 N9 178.8(2)
C55 N1 C52 104.5(4)
C55 N1 Ni1 128.0(3)
C52 N1 Ni1 127.5(4)
C74 N2 C72 104.9(5)
C74 N2 Ni1 128.5(4)
C72 N2 Ni1 126.5(4)
C69 N3 C62 104.4(4)
C69 N3 Ni1 127.7(4)
C62 N3 Ni1 127.9(3)
C75 N4 C60 104.2(4)
C75 N4 Ni1 127.1(4)
C60 N4 Ni1 128.7(4)
C89 N9 C77 105.8(5)
C89 N9 Ni2 126.2(4)
C77 N9 Ni2 128.0(4)
C105 N10 C82 105.4(6)
C105 N10 Ni2 127.4(4)
C82 N10 Ni2 127.2(5)
C100 N11 C119 104.6(6)
C100 N11 Ni2 127.7(4)
C119 N11 Ni2 127.7(6)
C90 C52 N1 124.1(5)
C90 C52 C58 125.4(5)
N1 C52 C58 110.5(5)
N1 C55 C76 125.0(5)
N1 C55 C59 111.5(5)
C76 C55 C59 123.3(5)
C69 C57 C60 121.8(5)
C69 C57 C64 117.8(5)
C60 C57 C64 120.4(5)
C59 C58 C52 106.8(5)
C59 C58 C66 125.2(5)
C52 C58 C66 128.0(5)
C58 C59 C55 106.7(5)
C58 C59 H1 126.7
C55 C59 H1 126.7
C57 C60 N4 124.7(5)
C57 C60 C86 124.5(5)
N4 C60 C86 110.7(5)
C123 N12 C126 105.0(7)
C123 N12 Ni2 127.8(6)
C126 N12 Ni2 127.2(5)
C76 C62 N3 125.8(5)
C76 C62 C98 124.0(6)
N3 C62 C98 110.1(5)
N5 C63 C66 176.3(6)
C70 C64 C92 120.3(5)
C70 C64 C57 120.0(5)
C92 C64 C57 119.6(6)
N7 C65 C66 176.7(6)
C63 C66 C65 104.7(5)
C63 C66 C58 110.8(5)
C65 C66 C58 113.8(5)
C63 C66 C85 106.6(5)
C65 C66 C85 108.3(4)
C58 C66 C85 112.2(5)
C111 C67 C102 121.0(6)
C111 C67 C83 118.2(6)
C102 C67 C83 120.6(6)
C97 C68 C73 118.5(6)
C97 C68 C103 120.1(6)
C73 C68 C103 121.4(5)
C57 C69 N3 125.9(5)
C57 C69 C80 123.1(5)
N3 C69 C80 110.6(5)
C64 C70 C79 122.0(6)
C64 C70 H2 119.0
C79 C70 H2 119.0
C82 C71 C77 122.7(6)
C82 C71 H3 118.6
C77 C71 H3 118.6
C90 C72 N2 126.2(5)
C90 C72 C94 122.9(5)
N2 C72 C94 110.3(5)
C96 C73 C68 121.0(5)
C96 C73 C76 118.4(6)
C68 C73 C76 120.6(5)
N2 C74 C83 125.9(5)
N2 C74 C95 110.6(5)
C83 C74 C95 123.5(6)
N4 C75 C83 126.5(5)
N4 C75 C106 111.2(5)
C83 C75 C106 122.0(6)
C62 C76 C55 122.3(5)
C62 C76 C73 118.9(5)
C55 C76 C73 118.8(5)
C71 C77 N9 123.7(6)
C71 C77 C81 126.4(6)
N9 C77 C81 109.4(5)
C91 C78 C79 124.0(6)
C91 C78 H4 118.0
C79 C78 H4 118.0
C78 C79 C70 116.2(7)
C78 C79 C121 121.1(6)
C70 C79 C121 122.7(6)
C98 C80 C69 106.8(5)
C98 C80 H5 126.6
C69 C80 H5 126.6
C107 C81 C77 106.9(5)
C107 C81 C85 123.1(5)
C77 C81 C85 130.0(5)
C71 C82 N10 125.2(6)
C71 C82 C101 125.3(6)
N10 C82 C101 109.3(6)
C74 C83 C75 120.5(6)
C74 C83 C67 117.3(5)
C75 C83 C67 122.1(5)
N6 C84 C85 177.4(7)
C84 C85 C87 105.7(5)
C84 C85 C81 115.8(5)
C87 C85 C81 108.6(5)
C84 C85 C66 108.7(5)
C87 C85 C66 107.1(5)
C81 C85 C66 110.5(5)
C106 C86 C60 107.7(5)
C106 C86 H6 126.1
C60 C86 H6 126.1
N8 C87 C85 178.3(7)
C100 C88 C89 121.8(6)
C100 C88 C93 120.4(6)
C89 C88 C93 117.7(5)
N9 C89 C88 125.5(6)
N9 C89 C107 110.6(5)
C88 C89 C107 123.5(6)
C72 C90 C52 123.8(5)
C72 C90 H7 118.1
C52 C90 H7 118.1
C78 C91 C92 117.2(6)
C78 C91 C113 120.9(5)
C92 C91 C113 121.8(6)
C64 C92 C91 120.2(6)
C64 C92 H8 119.9
C91 C92 H8 119.9
C99 C93 C110 120.9(6)
C99 C93 C88 118.4(6)
C110 C93 C88 120.7(6)
C95 C94 C72 107.4(5)
C95 C94 I1 127.5(5)
C72 C94 I1 125.1(4)
C94 C95 C74 106.6(5)
C94 C95 H9 126.7
C74 C95 H9 126.7
C73 C96 C115 118.0(6)
C73 C96 C117 121.4(6)
C115 C96 C117 120.6(6)
C114 C97 C68 121.9(7)
C114 C97 H10 119.0
C68 C97 H10 119.0
C80 C98 C62 108.0(5)
C80 C98 H11 126.0
C62 C98 H11 126.0
C93 C99 C116 119.1(6)
C93 C99 C122 121.3(6)
C116 C99 C122 119.6(6)
C88 C100 N11 124.5(6)
C88 C100 C129 125.0(7)
N11 C100 C129 110.4(6)
C108 C101 C82 108.0(6)
C108 C101 I2 125.9(5)
C82 C101 I2 126.1(5)
C104 C102 C67 117.8(6)
C104 C102 C137 120.1(6)
C67 C102 C137 122.0(6)
C68 C103 H30 109.5
C68 C103 H31 109.5
H30 C103 H31 109.5
C68 C103 H32 109.5
H30 C103 H32 109.5
H31 C103 H32 109.5
C102 C104 C112 121.8(6)
C102 C104 H12 119.1
C112 C104 H12 119.1
C118 C105 N10 126.3(7)
C118 C105 C108 122.8(7)
N10 C105 C108 110.5(6)
C86 C106 C75 106.1(6)
C86 C106 H13 126.9
C75 C106 H13 126.9
C81 C107 C89 107.2(5)
C81 C107 H14 126.4
C89 C107 H14 126.4
C101 C108 C105 106.6(6)
C101 C108 H15 126.7
C105 C108 H15 126.7
C112 C109 C111 122.1(7)
C112 C109 H16 119.0
C111 C109 H16 119.0
C93 C110 C124 118.1(7)
C93 C110 C134 122.3(7)
C124 C110 C134 119.6(7)
C109 C111 C67 118.8(6)
C109 C111 C127 119.8(7)
C67 C111 C127 121.3(6)
C109 C112 C104 118.2(6)
C109 C112 C142 121.1(7)
C104 C112 C142 120.6(7)
C157 C113 C147 110.1(8)
C157 C113 C91 110.6(7)
C147 C113 C91 112.4(6)
C157 C113 C151 109.2(8)
C147 C113 C151 104.6(8)
C91 C113 C151 109.7(6)
C115 C114 C97 118.5(6)
C115 C114 C143 120.7(7)
C97 C114 C143 120.7(7)
C114 C115 C96 122.1(7)
C114 C115 H17 119.0
C96 C115 H17 119.0
C120 C116 C99 120.9(7)
C120 C116 H120 119.6
C99 C116 H120 119.6
C96 C117 H33 109.5
C96 C117 H34 109.5
H33 C117 H34 109.5
C96 C117 H35 109.5
H33 C117 H35 109.5
H34 C117 H35 109.5
C126 C118 C105 120.7(7)
C126 C118 C131 119.5(7)
C105 C118 C131 119.2(7)
C125 C119 N11 124.2(8)
C125 C119 C133 125.5(7)
N11 C119 C133 109.4(7)
C124 C120 C116 118.5(7)
C124 C120 C145 121.9(7)
C116 C120 C145 119.6(7)
C164 C121 C150 106.7(8)
C164 C121 C161 110.0(10)
C150 C121 C161 107.4(7)
C164 C121 C79 112.0(6)
C150 C121 C79 112.0(7)
C161 C121 C79 108.7(7)
C99 C122 H36 109.5
C99 C122 H37 109.5
H36 C122 H37 109.5
C99 C122 H38 109.5
H36 C122 H38 109.5
H37 C122 H38 109.5
N12 C123 C125 125.3(8)
N12 C123 C138 109.0(9)
C125 C123 C138 125.3(8)
C120 C124 C110 122.4(7)
C120 C124 H121 118.8
C110 C124 H121 118.8
C119 C125 C123 122.5(7)
C119 C125 C144 121.8(14)
C123 C125 C144 115.4(13)
C119 C125 C171 106.9(13)
C123 C125 C171 129.8(13)
C118 C126 N12 126.1(6)
C118 C126 C146 122.9(9)
N12 C126 C146 110.8(8)
C111 C127 H39 109.5
C111 C127 H40 109.5
H39 C127 H40 109.5
C111 C127 H41 109.5
H39 C127 H41 109.5
H40 C127 H41 109.5
C139 C128 C131 118.8(8)
C139 C128 C152 119.7(7)
C131 C128 C152 121.5(8)
C133 C129 C100 107.4(7)
C133 C129 H18 126.3
C100 C129 H18 126.3
C132 C131 C128 120.5(8)
C132 C131 C118 120.1(6)
C128 C131 C118 119.3(7)
C131 C132 C136 118.7(7)
C131 C132 C141 121.8(7)
C136 C132 C141 119.5(7)
C129 C133 C119 108.1(6)
C129 C133 H19 125.9
C119 C133 H19 125.9
C110 C134 H42 109.5
C110 C134 H43 109.5
H42 C134 H43 109.5
C110 C134 H44 109.5
H42 C134 H44 109.5
H43 C134 H44 109.5
C140 C136 C132 122.4(8)
C140 C136 H20 118.8
C132 C136 H20 118.8
C102 C137 H45 109.5
C102 C137 H46 109.5
H45 C137 H46 109.5
C102 C137 H47 109.5
H45 C137 H47 109.5
H46 C137 H47 109.5
C146 C138 C123 108.6(8)
C146 C138 H21 125.7
C123 C138 H21 125.7
C128 C139 C140 121.3(7)
C128 C139 H22 119.3
C140 C139 H22 119.3
C136 C140 C139 118.2(8)
C136 C140 C148 122.7(8)
C139 C140 C148 119.0(7)
C132 C141 H48 109.5
C132 C141 H49 109.5
H48 C141 H49 109.5
C132 C141 H50 109.5
H48 C141 H50 109.5
H49 C141 H50 109.5
C112 C142 H51 109.5
C112 C142 H52 109.5
H51 C142 H52 109.5
C112 C142 H53 109.5
H51 C142 H53 109.5
H52 C142 H53 109.5
C114 C143 H54 109.5
C114 C143 H55 109.5
H54 C143 H55 109.5
C114 C143 H56 109.5
H54 C143 H56 109.5
H55 C143 H56 109.5
C120 C145 H57 109.5
C120 C145 H58 109.5
H57 C145 H58 109.5
C120 C145 H59 109.5
H57 C145 H59 109.5
H58 C145 H59 109.5
C138 C146 C126 106.6(9)
C138 C146 H23 126.7
C126 C146 H23 126.7
C113 C147 H66 109.5
C113 C147 H67 109.5
H66 C147 H67 109.5
C113 C147 H68 109.5
H66 C147 H68 109.5
H67 C147 H68 109.5
C140 C148 H60 109.5
C140 C148 H61 109.5
H60 C148 H61 109.5
C140 C148 H62 109.5
H60 C148 H62 109.5
H61 C148 H62 109.5
C121 C150 H69 109.5
C121 C150 H70 109.5
H69 C150 H70 109.5
C121 C150 H71 109.5
H69 C150 H71 109.5
H70 C150 H71 109.5
C113 C151 H72 109.5
C113 C151 H73 109.5
H72 C151 H73 109.5
C113 C151 H74 109.5
H72 C151 H74 109.5
H73 C151 H74 109.5
C128 C152 H63 109.5
C128 C152 H64 109.5
H63 C152 H64 109.5
C128 C152 H65 109.5
H63 C152 H65 109.5
H64 C152 H65 109.5
C113 C157 H75 109.5
C113 C157 H76 109.5
H75 C157 H76 109.5
C113 C157 H77 109.5
H75 C157 H77 109.5
H76 C157 H77 109.5
C121 C161 H78 109.5
C121 C161 H79 109.5
H78 C161 H79 109.5
C121 C161 H80 109.5
H78 C161 H80 109.5
H79 C161 H80 109.5
C121 C164 H81 109.5
C121 C164 H82 109.5
H81 C164 H82 109.5
C121 C164 H83 109.5
H81 C164 H83 109.5
H82 C164 H83 109.5
C144 C130 C135 115.4(12)
C144 C130 H24 122.3
C135 C130 H24 122.3
C130 C135 C155 120.7(13)
C130 C135 C149 113.9(14)
C155 C135 C149 124.0(12)
C130 C144 C156 123.0(11)
C130 C144 C125 118.5(13)
C156 C144 C125 117.3(11)
C135 C149 C153 113.4(15)
C135 C149 C160 118.8(16)
C153 C149 C160 103.5(15)
C135 C149 C166 111.6(16)
C153 C149 C166 104.4(16)
C160 C149 C166 103.8(16)
C149 C153 H102 109.5
C149 C153 H103 109.5
H102 C153 H103 109.5
C149 C153 H104 109.5
H102 C153 H104 109.5
H103 C153 H104 109.5
C159 C154 H84 109.5
C159 C154 H85 109.5
H84 C154 H85 109.5
C159 C154 H86 109.5
H84 C154 H86 109.5
H85 C154 H86 109.5
C158 C155 C135 122.4(10)
C158 C155 H25 118.8
C135 C155 H25 118.8
C158 C156 C144 119.7(10)
C158 C156 H26 120.2
C144 C156 H26 120.2
C156 C158 C155 118.1(9)
C156 C158 C159 122.5(9)
C155 C158 C159 119.4(9)
C162 C159 C165 109.6(12)
C162 C159 C158 111.1(9)
C165 C159 C158 108.6(10)
C162 C159 C154 108.8(11)
C165 C159 C154 110.6(11)
C158 C159 C154 108.2(12)
C149 C160 H105 109.5
C149 C160 H106 109.5
H105 C160 H106 109.5
C149 C160 H107 109.5
H105 C160 H107 109.5
H106 C160 H107 109.5
C159 C162 H87 109.5
C159 C162 H88 109.5
H87 C162 H88 109.5
C159 C162 H89 109.5
H87 C162 H89 109.5
H88 C162 H89 109.5
C149 C166 H108 109.5
C149 C166 H109 109.5
H108 C166 H109 109.5
C149 C166 H110 109.5
H108 C166 H110 109.5
H109 C166 H110 109.5
C159 C165 H90 109.5
C159 C165 H91 109.5
H90 C165 H91 109.5
C159 C165 H92 109.5
H90 C165 H92 109.5
H91 C165 H92 109.5
C181 C171 C167 120.0
C181 C171 C125 117.9(13)
C167 C171 C125 122.0(13)
C171 C181 C170 120.0
C171 C181 H27 120.0
C170 C181 H27 120.0
C169 C170 C181 120.0
C169 C170 C183 98.8(12)
C181 C170 C183 133.4(13)
C170 C169 C168 120.0
C170 C169 H28 120.0
C168 C169 H28 120.0
C167 C168 C169 120.0
C167 C168 C172 123.2(10)
C169 C168 C172 116.7(10)
C168 C167 C171 120.0
C168 C167 H29 120.0
C171 C167 H29 120.0
C172 C173 H93 109.5
C172 C173 H94 109.5
H93 C173 H94 109.5
C172 C173 H95 109.5
H93 C173 H95 109.5
H94 C173 H95 109.5
C179 C172 C168 109.2(11)
C179 C172 C182 102(2)
C168 C172 C182 109.6(11)
C179 C172 C173 127(3)
C168 C172 C173 109.0(11)
C182 C172 C173 98.9(18)
C183 C174 H111 109.5
C183 C174 H112 109.5
H111 C174 H112 109.5
C183 C174 H113 109.5
H111 C174 H113 109.5
H112 C174 H113 109.5
C183 C178 H114 109.5
C183 C178 H115 109.5
H114 C178 H115 109.5
C183 C178 H116 109.5
H114 C178 H116 109.5
H115 C178 H116 109.5
C172 C179 H96 109.5
C172 C179 H97 109.5
H96 C179 H97 109.5
C172 C179 H98 109.5
H96 C179 H98 109.5
H97 C179 H98 109.5
C183 C177 H117 109.5
C183 C177 H118 109.5
H117 C177 H118 109.5
C183 C177 H119 109.5
H117 C177 H119 109.5
H118 C177 H119 109.5
C172 C182 H99 109.5
C172 C182 H100 109.5
H99 C182 H100 109.5
C172 C182 H101 109.5
H99 C182 H101 109.5
H100 C182 H101 109.5
C170 C183 C177 102.0(11)
C170 C183 C174 101.4(12)
C177 C183 C174 116.4(9)
C170 C183 C178 101.8(12)
C177 C183 C178 116.0(9)
C174 C183 C178 115.6(9)
loop_
_geom_bond_atom_site_label_1
_geom_bond_atom_site_label_2
_geom_bond_distance
I1 C94 2.065(6)
I2 C101 2.056(7)
Ni1 N2 1.925(5)
Ni1 N3 1.926(5)
Ni1 N4 1.938(4)
Ni1 N1 1.958(4)
Ni2 N11 1.908(6)
Ni2 N10 1.914(6)
Ni2 N12 1.921(6)
Ni2 N9 1.933(5)
N1 C55 1.375(7)
N1 C52 1.381(6)
N2 C74 1.373(7)
N2 C72 1.381(7)
N3 C69 1.389(7)
N3 C62 1.396(7)
N4 C75 1.376(7)
N4 C60 1.385(7)
N9 C89 1.371(8)
N9 C77 1.385(8)
N10 C105 1.378(9)
N10 C82 1.389(8)
N11 C100 1.388(9)
N11 C119 1.415(8)
N5 C63 1.143(8)
C52 C90 1.380(8)
C52 C58 1.441(8)
N6 C84 1.142(8)
N7 C65 1.135(7)
C55 C76 1.402(8)
C55 C59 1.428(7)
N8 C87 1.139(8)
C57 C69 1.381(8)
C57 C60 1.382(8)
C57 C64 1.504(7)
C58 C59 1.353(8)
C58 C66 1.524(7)
C59 H1 0.9500
C60 C86 1.424(8)
N12 C123 1.379(9)
N12 C126 1.385(10)
C62 C76 1.376(8)
C62 C98 1.430(8)
C63 C66 1.470(9)
C64 C70 1.358(9)
C64 C92 1.405(8)
C65 C66 1.491(8)
C66 C85 1.635(9)
C67 C111 1.394(9)
C67 C102 1.397(9)
C67 C83 1.495(8)
C68 C97 1.392(9)
C68 C73 1.399(9)
C68 C103 1.497(9)
C69 C80 1.438(8)
C70 C79 1.408(8)
C70 H2 0.9500
C71 C82 1.373(9)
C71 C77 1.380(9)
C71 H3 0.9500
C72 C90 1.355(8)
C72 C94 1.436(8)
C73 C96 1.390(9)
C73 C76 1.501(8)
C74 C83 1.383(8)
C74 C95 1.447(8)
C75 C83 1.385(8)
C75 C106 1.439(8)
C77 C81 1.438(9)
C78 C91 1.384(10)
C78 C79 1.401(9)
C78 H4 0.9500
C79 C121 1.520(10)
C80 C98 1.342(8)
C80 H5 0.9500
C81 C107 1.357(8)
C81 C85 1.519(8)
C82 C101 1.442(9)
C84 C85 1.471(9)
C85 C87 1.490(8)
C86 C106 1.345(9)
C86 H6 0.9500
C88 C100 1.380(9)
C88 C89 1.395(8)
C88 C93 1.508(9)
C89 C107 1.420(8)
C90 H7 0.9500
C91 C92 1.408(8)
C91 C113 1.534(9)
C92 H8 0.9500
C93 C99 1.386(9)
C93 C110 1.388(9)
C94 C95 1.338(8)
C95 H9 0.9500
C96 C115 1.411(9)
C96 C117 1.506(10)
C97 C114 1.383(10)
C97 H10 0.9500
C98 H11 0.9500
C99 C116 1.406(10)
C99 C122 1.510(10)
C100 C129 1.430(9)
C101 C108 1.338(10)
C102 C104 1.393(9)
C102 C137 1.494(10)
C103 H30 0.9800
C103 H31 0.9800
C103 H32 0.9800
C104 C112 1.400(10)
C104 H12 0.9500
C105 C118 1.370(10)
C105 C108 1.444(10)
C106 H13 0.9500
C107 H14 0.9500
C108 H15 0.9500
C109 C112 1.368(10)
C109 C111 1.385(9)
C109 H16 0.9500
C110 C124 1.400(11)
C110 C134 1.515(10)
C111 C127 1.512(10)
C112 C142 1.512(10)
C113 C157 1.492(12)
C113 C147 1.493(12)
C113 C151 1.547(11)
C114 C115 1.369(10)
C114 C143 1.515(9)
C115 H17 0.9500
C116 C120 1.382(10)
C116 H120 0.9500
C117 H33 0.9800
C117 H34 0.9800
C117 H35 0.9800
C118 C126 1.366(11)
C118 C131 1.519(11)
C119 C125 1.377(12)
C119 C133 1.424(12)
C120 C124 1.372(11)
C120 C145 1.523(10)
C121 C164 1.491(13)
C121 C150 1.498(10)
C121 C161 1.507(13)
C122 H36 0.9800
C122 H37 0.9800
C122 H38 0.9800
C123 C125 1.384(13)
C123 C138 1.451(13)
C124 H121 0.9500
C125 C144 1.492(14)
C125 C171 1.596(15)
C126 C146 1.437(10)
C127 H39 0.9800
C127 H40 0.9800
C127 H41 0.9800
C128 C139 1.392(12)
C128 C131 1.396(10)
C128 C152 1.521(12)
C129 C133 1.346(11)
C129 H18 0.9500
C131 C132 1.388(11)
C132 C136 1.400(11)
C132 C141 1.512(10)
C133 H19 0.9500
C134 H42 0.9800
C134 H43 0.9800
C134 H44 0.9800
C136 C140 1.357(11)
C136 H20 0.9500
C137 H45 0.9800
C137 H46 0.9800
C137 H47 0.9800
C138 C146 1.318(14)
C138 H21 0.9500
C139 C140 1.403(12)
C139 H22 0.9500
C140 C148 1.483(12)
C141 H48 0.9800
C141 H49 0.9800
C141 H50 0.9800
C142 H51 0.9800
C142 H52 0.9800
C142 H53 0.9800
C143 H54 0.9800
C143 H55 0.9800
C143 H56 0.9800
C145 H57 0.9800
C145 H58 0.9800
C145 H59 0.9800
C146 H23 0.9500
C147 H66 0.9800
C147 H67 0.9800
C147 H68 0.9800
C148 H60 0.9800
C148 H61 0.9800
C148 H62 0.9800
C150 H69 0.9800
C150 H70 0.9800
C150 H71 0.9800
C151 H72 0.9800
C151 H73 0.9800
C151 H74 0.9800
C152 H63 0.9800
C152 H64 0.9800
C152 H65 0.9800
C157 H75 0.9800
C157 H76 0.9800
C157 H77 0.9800
C161 H78 0.9800
C161 H79 0.9800
C161 H80 0.9800
C164 H81 0.9800
C164 H82 0.9800
C164 H83 0.9800
C130 C144 1.40(2)
C130 C135 1.426(15)
C130 H24 0.9500
C135 C155 1.43(2)
C135 C149 1.46(2)
C144 C156 1.471(19)
C149 C153 1.54(2)
C149 C160 1.57(2)
C149 C166 1.60(3)
C153 H102 0.9800
C153 H103 0.9800
C153 H104 0.9800
C154 C159 1.55(2)
C154 H84 0.9800
C154 H85 0.9800
C154 H86 0.9800
C155 C158 1.403(15)
C155 H25 0.9500
C156 C158 1.366(13)
C156 H26 0.9500
C158 C159 1.542(15)
C159 C162 1.529(15)
C159 C165 1.540(19)
C160 H105 0.9800
C160 H106 0.9800
C160 H107 0.9800
C162 H87 0.9800
C162 H88 0.9800
C162 H89 0.9800
C166 H108 0.9800
C166 H109 0.9800
C166 H110 0.9800
C165 H90 0.9800
C165 H91 0.9800
C165 H92 0.9800
C171 C181 1.3900
C171 C167 1.3900
C181 C170 1.3900
C181 H27 0.9500
C170 C169 1.3900
C170 C183 1.524(10)
C169 C168 1.3900
C169 H28 0.9500
C168 C167 1.3900
C168 C172 1.549(10)
C167 H29 0.9500
C173 C172 1.554(10)
C173 H93 0.9800
C173 H94 0.9800
C173 H95 0.9800
C172 C179 1.548(10)
C172 C182 1.553(10)
C174 C183 1.536(10)
C174 H111 0.9800
C174 H112 0.9800
C174 H113 0.9800
C178 C183 1.538(10)
C178 H114 0.9800
C178 H115 0.9800
C178 H116 0.9800
C179 H96 0.9800
C179 H97 0.9800
C179 H98 0.9800
C177 C183 1.529(10)
C177 H117 0.9800
C177 H118 0.9800
C177 H119 0.9800
C182 H99 0.9800
C182 H100 0.9800
C182 H101 0.9800
loop_
_geom_torsion_atom_site_label_1
_geom_torsion_atom_site_label_2
_geom_torsion_atom_site_label_3
_geom_torsion_atom_site_label_4
_geom_torsion
C55 N1 C52 C90 -179.4(6)
Ni1 N1 C52 C90 0.7(8)
C55 N1 C52 C58 0.7(6)
Ni1 N1 C52 C58 -179.2(4)
C52 N1 C55 C76 174.4(6)
Ni1 N1 C55 C76 -5.7(9)
C52 N1 C55 C59 -0.8(6)
Ni1 N1 C55 C59 179.0(4)
C90 C52 C58 C59 179.8(6)
N1 C52 C58 C59 -0.2(7)
C90 C52 C58 C66 2.4(10)
N1 C52 C58 C66 -177.7(5)
C52 C58 C59 C55 -0.3(7)
C66 C58 C59 C55 177.3(5)
N1 C55 C59 C58 0.7(7)
C76 C55 C59 C58 -174.7(6)
C69 C57 C60 N4 -9.5(10)
C64 C57 C60 N4 172.8(6)
C69 C57 C60 C86 168.0(6)
C64 C57 C60 C86 -9.6(10)
C75 N4 C60 C57 178.4(6)
Ni1 N4 C60 C57 0.8(9)
C75 N4 C60 C86 0.6(7)
Ni1 N4 C60 C86 -177.0(4)
C69 N3 C62 C76 -176.2(6)
Ni1 N3 C62 C76 4.2(9)
C69 N3 C62 C98 1.1(7)
Ni1 N3 C62 C98 -178.5(4)
C69 C57 C64 C70 64.2(8)
C60 C57 C64 C70 -118.1(7)
C69 C57 C64 C92 -112.2(7)
C60 C57 C64 C92 65.5(8)
C59 C58 C66 C63 -29.3(8)
C52 C58 C66 C63 147.8(6)
C59 C58 C66 C65 -147.0(6)
C52 C58 C66 C65 30.0(9)
C59 C58 C66 C85 89.7(7)
C52 C58 C66 C85 -93.3(7)
C60 C57 C69 N3 5.9(10)
C64 C57 C69 N3 -176.4(6)
C60 C57 C69 C80 -166.9(6)
C64 C57 C69 C80 10.8(9)
C62 N3 C69 C57 -173.3(6)
Ni1 N3 C69 C57 6.3(9)
C62 N3 C69 C80 0.3(7)
Ni1 N3 C69 C80 179.9(4)
C92 C64 C70 C79 0.9(10)
C57 C64 C70 C79 -175.4(6)
C74 N2 C72 C90 -168.7(6)
Ni1 N2 C72 C90 13.0(9)
C74 N2 C72 C94 2.6(7)
Ni1 N2 C72 C94 -175.6(4)
C97 C68 C73 C96 0.4(8)
C103 C68 C73 C96 -178.5(5)
C97 C68 C73 C76 -179.3(5)
C103 C68 C73 C76 1.8(8)
C72 N2 C74 C83 -180.0(6)
Ni1 N2 C74 C83 -1.8(10)
C72 N2 C74 C95 -1.5(7)
Ni1 N2 C74 C95 176.7(4)
C60 N4 C75 C83 172.0(6)
Ni1 N4 C75 C83 -10.4(9)
C60 N4 C75 C106 -1.6(7)
Ni1 N4 C75 C106 176.0(4)
N3 C62 C76 C55 3.5(10)
C98 C62 C76 C55 -173.4(6)
N3 C62 C76 C73 -179.1(6)
C98 C62 C76 C73 3.9(10)
N1 C55 C76 C62 -2.7(10)
C59 C55 C76 C62 172.0(6)
N1 C55 C76 C73 179.9(5)
C59 C55 C76 C73 -5.3(9)
C96 C73 C76 C62 99.5(7)
C68 C73 C76 C62 -80.8(7)
C96 C73 C76 C55 -83.1(7)
C68 C73 C76 C55 96.6(7)
C82 C71 C77 N9 -9.2(10)
C82 C71 C77 C81 162.1(6)
C89 N9 C77 C71 171.5(6)
Ni2 N9 C77 C71 -7.2(9)
C89 N9 C77 C81 -1.1(7)
Ni2 N9 C77 C81 -179.8(4)
C91 C78 C79 C70 0.9(10)
C91 C78 C79 C121 -178.8(7)
C64 C70 C79 C78 -1.4(9)
C64 C70 C79 C121 178.3(6)
C57 C69 C80 C98 172.1(6)
N3 C69 C80 C98 -1.6(7)
C71 C77 C81 C107 -169.0(6)
N9 C77 C81 C107 3.3(7)
C71 C77 C81 C85 13.8(11)
N9 C77 C81 C85 -173.8(6)
C77 C71 C82 N10 8.6(10)
C77 C71 C82 C101 -165.9(6)
C105 N10 C82 C71 -173.0(6)
Ni2 N10 C82 C71 8.6(9)
C105 N10 C82 C101 2.2(7)
Ni2 N10 C82 C101 -176.2(4)
N2 C74 C83 C75 9.8(10)
C95 C74 C83 C75 -168.5(6)
N2 C74 C83 C67 -173.3(6)
C95 C74 C83 C67 8.4(10)
N4 C75 C83 C74 -3.5(10)
C106 C75 C83 C74 169.5(6)
N4 C75 C83 C67 179.7(6)
C106 C75 C83 C67 -7.3(10)
C111 C67 C83 C74 89.3(7)
C102 C67 C83 C74 -85.5(7)
C111 C67 C83 C75 -93.8(7)
C102 C67 C83 C75 91.4(8)
C107 C81 C85 C84 149.9(6)
C77 C81 C85 C84 -33.4(9)
C107 C81 C85 C87 31.2(8)
C77 C81 C85 C87 -152.1(6)
C107 C81 C85 C66 -86.0(7)
C77 C81 C85 C66 90.8(7)
C63 C66 C85 C84 -177.5(5)
C65 C66 C85 C84 -65.4(6)
C58 C66 C85 C84 61.0(6)
C63 C66 C85 C87 -63.7(6)
C65 C66 C85 C87 48.4(6)
C58 C66 C85 C87 174.8(5)
C63 C66 C85 C81 54.3(6)
C65 C66 C85 C81 166.5(5)
C58 C66 C85 C81 -67.1(6)
C57 C60 C86 C106 -177.1(6)
N4 C60 C86 C106 0.7(8)
C77 N9 C89 C88 170.6(6)
Ni2 N9 C89 C88 -10.6(9)
C77 N9 C89 C107 -1.5(7)
Ni2 N9 C89 C107 177.2(4)
C100 C88 C89 N9 -8.3(10)
C93 C88 C89 N9 175.1(6)
C100 C88 C89 C107 162.9(6)
C93 C88 C89 C107 -13.7(9)
N2 C72 C90 C52 -2.3(11)
C94 C72 C90 C52 -172.6(6)
N1 C52 C90 C72 -4.8(10)
C58 C52 C90 C72 175.1(6)
C79 C78 C91 C92 0.2(10)
C79 C78 C91 C113 177.7(6)
C70 C64 C92 C91 0.3(9)
C57 C64 C92 C91 176.6(6)
C78 C91 C92 C64 -0.7(9)
C113 C91 C92 C64 -178.2(6)
C100 C88 C93 C99 102.7(7)
C89 C88 C93 C99 -80.7(7)
C100 C88 C93 C110 -77.9(8)
C89 C88 C93 C110 98.7(7)
C90 C72 C94 C95 168.8(6)
N2 C72 C94 C95 -2.8(8)
C90 C72 C94 I1 -12.2(9)
N2 C72 C94 I1 176.1(4)
C72 C94 C95 C74 1.8(8)
I1 C94 C95 C74 -177.1(5)
N2 C74 C95 C94 -0.2(8)
C83 C74 C95 C94 178.3(6)
C68 C73 C96 C115 -1.0(8)
C76 C73 C96 C115 178.6(5)
C68 C73 C96 C117 176.8(5)
C76 C73 C96 C117 -3.6(8)
C73 C68 C97 C114 0.7(9)
C103 C68 C97 C114 179.6(6)
C69 C80 C98 C62 2.3(7)
C76 C62 C98 C80 175.1(6)
N3 C62 C98 C80 -2.2(8)
C110 C93 C99 C116 -2.0(9)
C88 C93 C99 C116 177.4(6)
C110 C93 C99 C122 176.9(6)
C88 C93 C99 C122 -3.6(9)
C89 C88 C100 N11 11.5(10)
C93 C88 C100 N11 -172.1(6)
C89 C88 C100 C129 -165.1(6)
C93 C88 C100 C129 11.3(10)
C119 N11 C100 C88 -176.8(6)
Ni2 N11 C100 C88 4.7(9)
C119 N11 C100 C129 0.2(7)
Ni2 N11 C100 C129 -178.3(5)
C71 C82 C101 C108 171.1(6)
N10 C82 C101 C108 -4.1(8)
C71 C82 C101 I2 -7.2(10)
N10 C82 C101 I2 177.6(5)
C111 C67 C102 C104 -4.8(8)
C83 C67 C102 C104 169.9(5)
C111 C67 C102 C137 177.6(6)
C83 C67 C102 C137 -7.7(9)
C67 C102 C104 C112 0.5(9)
C137 C102 C104 C112 178.2(6)
C82 N10 C105 C118 -172.3(7)
Ni2 N10 C105 C118 6.1(10)
C82 N10 C105 C108 0.3(7)
Ni2 N10 C105 C108 178.7(4)
C60 C86 C106 C75 -1.6(8)
N4 C75 C106 C86 2.1(8)
C83 C75 C106 C86 -171.8(6)
C77 C81 C107 C89 -4.1(7)
C85 C81 C107 C89 173.3(5)
N9 C89 C107 C81 3.6(7)
C88 C89 C107 C81 -168.7(6)
C82 C101 C108 C105 4.1(8)
I2 C101 C108 C105 -177.6(5)
C118 C105 C108 C101 170.1(7)
N10 C105 C108 C101 -2.9(8)
C99 C93 C110 C124 1.4(9)
C88 C93 C110 C124 -178.0(6)
C99 C93 C110 C134 178.5(6)
C88 C93 C110 C134 -0.9(9)
C112 C109 C111 C67 -0.5(10)
C112 C109 C111 C127 -178.0(7)
C102 C67 C111 C109 4.9(9)
C83 C67 C111 C109 -169.9(5)
C102 C67 C111 C127 -177.7(6)
C83 C67 C111 C127 7.5(9)
C111 C109 C112 C104 -3.7(10)
C111 C109 C112 C142 173.7(6)
C102 C104 C112 C109 3.7(9)
C102 C104 C112 C142 -173.6(6)
C78 C91 C113 C157 -71.0(10)
C92 C91 C113 C157 106.4(9)
C78 C91 C113 C147 165.5(7)
C92 C91 C113 C147 -17.1(10)
C78 C91 C113 C151 49.6(10)
C92 C91 C113 C151 -133.1(8)
C68 C97 C114 C115 -1.0(10)
C68 C97 C114 C143 -179.0(7)
C97 C114 C115 C96 0.3(10)
C143 C114 C115 C96 178.3(7)
C73 C96 C115 C114 0.7(9)
C117 C96 C115 C114 -177.1(6)
C93 C99 C116 C120 0.6(10)
C122 C99 C116 C120 -178.4(6)
N10 C105 C118 C126 8.4(11)
C108 C105 C118 C126 -163.4(7)
N10 C105 C118 C131 179.1(6)
C108 C105 C118 C131 7.3(10)
C100 N11 C119 C125 -167.8(7)
Ni2 N11 C119 C125 10.7(10)
C100 N11 C119 C133 1.7(7)
Ni2 N11 C119 C133 -179.8(5)
C99 C116 C120 C124 1.5(10)
C99 C116 C120 C145 -177.3(6)
C78 C79 C121 C164 164.7(9)
C70 C79 C121 C164 -15.0(12)
C78 C79 C121 C150 44.9(10)
C70 C79 C121 C150 -134.8(7)
C78 C79 C121 C161 -73.6(10)
C70 C79 C121 C161 106.7(9)
C126 N12 C123 C125 172.7(8)
Ni2 N12 C123 C125 -7.5(11)
C126 N12 C123 C138 -1.3(8)
Ni2 N12 C123 C138 178.5(5)
C116 C120 C124 C110 -2.2(10)
C145 C120 C124 C110 176.6(7)
C93 C110 C124 C120 0.8(10)
C134 C110 C124 C120 -176.5(7)
N11 C119 C125 C123 2.1(12)
C133 C119 C125 C123 -165.8(8)
N11 C119 C125 C144 175.0(8)
C133 C119 C125 C144 7.2(13)
N11 C119 C125 C171 172.5(10)
C133 C119 C125 C171 4.6(13)
N12 C123 C125 C119 -3.7(13)
C138 C123 C125 C119 169.4(7)
N12 C123 C125 C144 -177.0(8)
C138 C123 C125 C144 -4.0(13)
N12 C123 C125 C171 -171.7(11)
C138 C123 C125 C171 1.4(16)
C105 C118 C126 N12 -8.3(11)
C131 C118 C126 N12 -179.0(6)
C105 C118 C126 C146 164.6(7)
C131 C118 C126 C146 -6.0(11)
C123 N12 C126 C118 173.6(7)
Ni2 N12 C126 C118 -6.1(11)
C123 N12 C126 C146 -0.1(8)
Ni2 N12 C126 C146 -179.8(5)
C88 C100 C129 C133 174.8(7)
N11 C100 C129 C133 -2.2(8)
C139 C128 C131 C132 -1.2(13)
C152 C128 C131 C132 177.2(8)
C139 C128 C131 C118 178.1(8)
C152 C128 C131 C118 -3.5(13)
C126 C118 C131 C132 -97.4(9)
C105 C118 C131 C132 91.8(9)
C126 C118 C131 C128 83.2(10)
C105 C118 C131 C128 -87.5(9)
C128 C131 C132 C136 -0.1(12)
C118 C131 C132 C136 -179.5(7)
C128 C131 C132 C141 177.2(8)
C118 C131 C132 C141 -2.2(12)
C100 C129 C133 C119 3.1(9)
C125 C119 C133 C129 166.3(7)
N11 C119 C133 C129 -3.1(9)
C131 C132 C136 C140 0.7(13)
C141 C132 C136 C140 -176.6(8)
N12 C123 C138 C146 2.3(10)
C125 C123 C138 C146 -171.7(8)
C131 C128 C139 C140 2.0(13)
C152 C128 C139 C140 -176.4(9)
C132 C136 C140 C139 0.0(13)
C132 C136 C140 C148 179.3(9)
C128 C139 C140 C136 -1.4(13)
C128 C139 C140 C148 179.3(9)
C123 C138 C146 C126 -2.2(10)
C118 C126 C146 C138 -172.4(8)
N12 C126 C146 C138 1.5(10)
C144 C130 C135 C155 1(2)
C144 C130 C135 C149 -166.0(18)
C135 C130 C144 C156 -8(3)
C135 C130 C144 C125 -175.1(15)
C119 C125 C144 C130 53(2)
C123 C125 C144 C130 -133.5(17)
C119 C125 C144 C156 -114.7(18)
C123 C125 C144 C156 59(2)
C130 C135 C149 C153 63.8(19)
C155 C135 C149 C153 -102.8(19)
C130 C135 C149 C160 -174.4(15)
C155 C135 C149 C160 19(3)
C130 C135 C149 C166 -54(2)
C155 C135 C149 C166 139.7(18)
C130 C135 C155 C158 6(2)
C149 C135 C155 C158 171.6(15)
C130 C144 C156 C158 8(3)
C125 C144 C156 C158 175.6(14)
C144 C156 C158 C155 -1.0(19)
C144 C156 C158 C159 176.8(15)
C135 C155 C158 C156 -6(2)
C135 C155 C158 C159 176.3(14)
C156 C158 C159 C162 12.2(17)
C155 C158 C159 C162 -170.0(12)
C156 C158 C159 C165 -108.4(12)
C155 C158 C159 C165 69.4(15)
C156 C158 C159 C154 131.5(11)
C155 C158 C159 C154 -50.6(14)
C119 C125 C171 C181 99.4(12)
C123 C125 C171 C181 -91.2(15)
C119 C125 C171 C167 -77.0(19)
C123 C125 C171 C167 92.4(19)
C167 C171 C181 C170 0.0
C125 C171 C181 C170 -176(2)
C171 C181 C170 C169 0.0
C171 C181 C170 C183 142.1(19)
C181 C170 C169 C168 0.0
C183 C170 C169 C168 -153.2(15)
C170 C169 C168 C167 0.0
C170 C169 C168 C172 -176.2(17)
C169 C168 C167 C171 0.0
C172 C168 C167 C171 175.9(18)
C181 C171 C167 C168 0.0
C125 C171 C167 C168 176(2)
C167 C168 C172 C179 -87(3)
C169 C168 C172 C179 89(2)
C167 C168 C172 C182 24(2)
C169 C168 C172 C182 -160.2(16)
C167 C168 C172 C173 130.9(18)
C169 C168 C172 C173 -53.0(19)
C169 C170 C183 C177 -159.0(13)
C181 C170 C183 C177 53.6(17)
C169 C170 C183 C174 80.6(14)
C181 C170 C183 C174 -66.9(17)
C169 C170 C183 C178 -38.9(14)
C181 C170 C183 C178 173.6(16)
