#------------------------------------------------------------------------------
#$Date: 2019-05-14 03:53:04 +0300 (Tue, 14 May 2019) $
#$Revision: 215122 $
#$URL: file:///home/coder/svn-repositories/cod/cif/1/55/10/1551031.cif $
#------------------------------------------------------------------------------
#
# This file is available in the Crystallography Open Database (COD),
# http://www.crystallography.net/
#
# All data on this site have been placed in the public domain by the
# contributors.
#
data_1551031
loop_
_publ_author_name
'Osuka, Atsuhiro'
'Shimizu, Daiki'
'Furukawa, Ko'
'Adinarayana, Bellamkonda'
_publ_section_title
;
 Stable radical versus reversible \s-bond formation of
 (porphyrinyl)dicyanomethyl radicals
;
_journal_name_full               'Chemical Science'
_journal_paper_doi               10.1039/C9SC01631G
_journal_year                    2019
_chemical_formula_moiety         'C65 C71 Br N6 Ni, C H2 Cl2'
_chemical_formula_sum            'C66 H73 Br Cl2 N6 Ni'
_chemical_formula_weight         1159.82
_space_group_crystal_system      monoclinic
_space_group_IT_number           14
_space_group_name_Hall           '-P 2yn'
_space_group_name_H-M_alt        'P 1 21/n 1'
_symmetry_space_group_name_Hall  '-P 2yn'
_symmetry_space_group_name_H-M   'P 1 21/n 1'
_atom_sites_solution_hydrogens   geom
_audit_creation_method           SHELXL-2014/7
_audit_update_record
;
2019-03-04 deposited with the CCDC.    2019-05-13 downloaded from the CCDC.
;
_cell_angle_alpha                90
_cell_angle_beta                 100.698(3)
_cell_angle_gamma                90
_cell_formula_units_Z            4
_cell_length_a                   11.3078(7)
_cell_length_b                   21.1896(11)
_cell_length_c                   25.4949(17)
_cell_measurement_reflns_used    5101
_cell_measurement_temperature    93(2)
_cell_measurement_theta_max      73.1
_cell_measurement_theta_min      30.8
_cell_volume                     6002.6(6)
_computing_structure_refinement  'SHELXL-2014/7 (Sheldrick, 2014)'
_diffrn_ambient_temperature      93(2)
_diffrn_detector_area_resol_mean 5.8140
_diffrn_measured_fraction_theta_full 0.989
_diffrn_measured_fraction_theta_max 0.970
_diffrn_measurement_device_type  'Rigaku XtaLAB P200'
_diffrn_measurement_method       \w
_diffrn_radiation_type           CuK\a
_diffrn_radiation_wavelength     1.54187
_diffrn_reflns_av_R_equivalents  0.0246
_diffrn_reflns_av_unetI/netI     0.0192
_diffrn_reflns_Laue_measured_fraction_full 0.989
_diffrn_reflns_Laue_measured_fraction_max 0.970
_diffrn_reflns_limit_h_max       13
_diffrn_reflns_limit_h_min       -13
_diffrn_reflns_limit_k_max       25
_diffrn_reflns_limit_k_min       -25
_diffrn_reflns_limit_l_max       28
_diffrn_reflns_limit_l_min       -31
_diffrn_reflns_number            41753
_diffrn_reflns_point_group_measured_fraction_full 0.989
_diffrn_reflns_point_group_measured_fraction_max 0.970
_diffrn_reflns_theta_full        67.687
_diffrn_reflns_theta_max         73.333
_diffrn_reflns_theta_min         4.042
_exptl_absorpt_coefficient_mu    2.403
_exptl_absorpt_correction_T_max  1.000
_exptl_absorpt_correction_T_min  0.817
_exptl_absorpt_correction_type   multi-scan
_exptl_absorpt_process_details   'REQAB (Rigaku, 1998)'
_exptl_crystal_colour            Brown
_exptl_crystal_density_diffrn    1.283
_exptl_crystal_description       Prism
_exptl_crystal_F_000             2432
_refine_diff_density_max         1.751
_refine_diff_density_min         -2.455
_refine_diff_density_rms         0.147
_refine_ls_extinction_method     none
_refine_ls_goodness_of_fit_ref   1.034
_refine_ls_hydrogen_treatment    constr
_refine_ls_matrix_type           full
_refine_ls_number_parameters     771
_refine_ls_number_reflns         11695
_refine_ls_number_restraints     324
_refine_ls_restrained_S_all      1.029
_refine_ls_R_factor_all          0.0863
_refine_ls_R_factor_gt           0.0819
_refine_ls_shift/su_max          0.001
_refine_ls_shift/su_mean         0.000
_refine_ls_structure_factor_coef Fsqd
_refine_ls_weighting_details
'w=1/[\s^2^(Fo^2^)+(0.1874P)^2^+11.9820P] where P=(Fo^2^+2Fc^2^)/3'
_refine_ls_weighting_scheme      calc
_refine_ls_wR_factor_gt          0.2541
_refine_ls_wR_factor_ref         0.2591
_reflns_Friedel_coverage         0.000
_reflns_number_gt                10452
_reflns_number_total             11695
_reflns_threshold_expression     'I > 2\s(I)'
_cod_data_source_file            c9sc01631g2.cif
_cod_data_source_block           0306ad2
_cod_database_code               1551031
_shelx_shelxl_version_number     2014/7
_shelx_space_group_comment
;
The symmetry employed for this shelxl refinement is uniquely defined
by the following loop, which should always be used as a source of
symmetry information in preference to the above space-group names.
They are only intended as comments.
;
_shelx_res_file
;

    0306ad2.res created by SHELXL-2014/7

TITL 0306ad2
REM  Yadorkari-X generated
CELL 1.54187 11.3078 21.1896 25.4949 90.0000 100.6980 90.0000
ZERR 4.0 0.0007 0.0011 0.0017 0.0000 0.0030 0.0000
LATT 1
SYMM 1/2-X, 1/2+Y, 1/2-Z
REM  SPGR P21/n monoclinic
SFAC C H Br Cl N Ni
UNIT 264 292 4 8 24 4
TEMP -180.0
L.S. 30
FMAP 2
PLAN -100
ACTA
CONF
LIST 4
BOND $H
MERG 2
OMIT   -2    4    4
OMIT    0    1    8
OMIT   -3    6    4
OMIT    3    3    8
OMIT    0    8   10
OMIT    1    9    9
OMIT   -1    1    9
OMIT   -1    9    5
OMIT   -2    6    6
OMIT    1    1    1
OMIT    1    7    6
OMIT   -1    2   12
OMIT   -4    2   11
OMIT    0    0   10
OMIT    1    9    5
OMIT   -3    1    1
OMIT   -5    0    5
OMIT    0    1    3
OMIT   -3    1    5
OMIT    0    4    5
OMIT    5    0    5
OMIT   -2    5    8
OMIT    4    5    4
OMIT    0    8    2
OMIT    0    1   11
OMIT   -4    4    2
OMIT    1    3    5
OMIT   -6    3    1
OMIT   -1    8   11
OMIT    2    4   10
OMIT   -2    9    4
OMIT    2    3    5
OMIT   -1    2    6
OMIT    1    8    2
OMIT    1    0    7
OMIT    2    0   12
OMIT    0   10    4
OMIT   -4    3    3
OMIT    4    1    5
OMIT   -3    3    2
OMIT    3    8    3
OMIT    0    1    7
OMIT    2    4   12
OMIT    0    1    6
OMIT   -1    7    9
OMIT   -6    3    5
OMIT    0    3    7
OMIT    0   11    1
OMIT    3    2    0
OMIT   -2    6   15

SADI 0.03 C30 C31 C30 C32 C30 C33
SADI 0.03 C31 C32 C32 C33 C33 C31
SADI 0.03 C230 C136 C230 C137 C230 C138
SADI 0.03 C136 C137 C137 C138 C138 C136
SADI 0.03 C48 C49 C48 C50 C48 C51
SADI 0.03 C49 C50 C50 C51 C51 C49
SADI 0.03 C313 C314 C313 C140 C313 C135
SADI 0.03 C314 C140 C140 C135 C135 C314
SIMU 0.01 C30 C31 C32 C33 C230 C136 C137 C138
ISOR 0.01 C30 C31 C32 C33 C230 C136 C137 C138
SIMU 0.02 C48 C49 C50 C51 C313 C314 C140 C135
ISOR 0.02  C48 C49 C50 C51 C313 C314 C140 C135

WGHT    0.187400   11.981999
FVAR       1.64832   0.57837   0.80621
RESI 0
BR1   3    0.550045    0.635648   -0.142733    11.00000    0.05364    0.03781 =
         0.04330    0.00552    0.01842   -0.00102
NI1   6    0.281751    0.483931   -0.010781    11.00000    0.03290    0.01289 =
         0.01087    0.00197    0.00594   -0.00055
N1    5    0.336689    0.552726   -0.049683    11.00000    0.03632    0.01849 =
         0.01297   -0.00005    0.00531    0.00041
N2    5    0.178273    0.541413    0.018358    11.00000    0.03534    0.01461 =
         0.01248    0.00448    0.00440   -0.00083
N3    5    0.229653    0.416186    0.029605    11.00000    0.03418    0.01704 =
         0.01356   -0.00033    0.00696    0.00000
N4    5    0.381335    0.425869   -0.041458    11.00000    0.03500    0.01453 =
         0.01395    0.00132    0.00466   -0.00208
N5    5    0.697903    0.266822   -0.126449    11.00000    0.07037    0.03034 =
         0.05155    0.00122    0.02319    0.01016
N6    5    0.554166    0.435802   -0.209874    11.00000    0.07090    0.04235 =
         0.03201    0.00494    0.01904    0.00095
C1    1    0.433910    0.552656   -0.075655    11.00000    0.04146    0.01990 =
         0.01481    0.00044    0.00850   -0.00484
C2    1    0.445936    0.614006   -0.097661    11.00000    0.05315    0.02287 =
         0.01863    0.00185    0.01632   -0.01025
C3    1    0.358560    0.650999   -0.086922    11.00000    0.05192    0.01750 =
         0.01956    0.00215    0.01153   -0.00584
AFIX  43
H1    2    0.344782    0.693943   -0.096916    11.00000   -1.20000
AFIX   0
C4    1    0.289401    0.613081   -0.057256    11.00000    0.04268    0.01491 =
         0.01416    0.00260    0.00335   -0.00332
C5    1    0.192360    0.635835   -0.037000    11.00000    0.04413    0.01259 =
         0.01390    0.00287    0.00378    0.00048
C6    1    0.142807    0.602050    0.000425    11.00000    0.03956    0.01575 =
         0.01480    0.00308    0.00340    0.00336
C7    1    0.061556    0.628006    0.031614    11.00000    0.04378    0.02032 =
         0.01942    0.00470    0.00605    0.00750
AFIX  43
H2    2    0.020726    0.667277    0.025704    11.00000   -1.20000
AFIX   0
C8    1    0.053574    0.586428    0.070988    11.00000    0.03910    0.02041 =
         0.01818    0.00170    0.00833    0.00416
AFIX  43
H3    2    0.009872    0.591996    0.099081    11.00000   -1.20000
AFIX   0
C9    1    0.123508    0.532373    0.062329    11.00000    0.03278    0.01921 =
         0.01221    0.00188    0.00534    0.00165
C10   1    0.130956    0.476794    0.091847    11.00000    0.03301    0.02044 =
         0.01111    0.00078    0.00547   -0.00088
C11   1    0.172772    0.421592    0.072802    11.00000    0.03423    0.01860 =
         0.01442    0.00210    0.00574   -0.00057
C12   1    0.147929    0.360191    0.092517    11.00000    0.04807    0.01951 =
         0.02142    0.00490    0.01553   -0.00338
AFIX  43
H4    2    0.112300    0.351477    0.122673    11.00000   -1.20000
AFIX   0
C13   1    0.185306    0.317254    0.059646    11.00000    0.05100    0.01458 =
         0.02291    0.00116    0.01279   -0.00492
AFIX  43
H5    2    0.176167    0.272751    0.061027    11.00000   -1.20000
AFIX   0
C14   1    0.241254    0.351740    0.022396    11.00000    0.03915    0.01403 =
         0.01765    0.00054    0.00681   -0.00147
C15   1    0.308366    0.324472   -0.011978    11.00000    0.03754    0.01240 =
         0.01780    0.00068    0.00503   -0.00035
C16   1    0.378546    0.360344   -0.039982    11.00000    0.03668    0.01562 =
         0.01574    0.00165    0.00376    0.00013
C17   1    0.466953    0.334435   -0.067427    11.00000    0.03803    0.01757 =
         0.02093    0.00087    0.00553    0.00288
AFIX  43
H6    2    0.481949    0.290942   -0.072445    11.00000   -1.20000
AFIX   0
C18   1    0.525213    0.383944   -0.084896    11.00000    0.03346    0.02255 =
         0.01812   -0.00280    0.00702    0.00117
C19   1    0.471083    0.440415   -0.069320    11.00000    0.03250    0.02169 =
         0.01568   -0.00003    0.00282   -0.00070
C20   1    0.500117    0.500164   -0.083591    11.00000    0.03665    0.02359 =
         0.01659   -0.00076    0.00919   -0.00356
AFIX  43
H7    2    0.568872    0.505485   -0.099634    11.00000   -1.20000
AFIX   0
C21   1    0.629627    0.378812   -0.119164    11.00000    0.01934    0.03936 =
         0.02245    0.00986   -0.00156   -0.01333
AFIX  13
H32   2    0.699921    0.403194   -0.099619    11.00000   -1.20000
AFIX   0
C22   1    0.667350    0.317176   -0.122322    11.00000    0.04277    0.04222 =
         0.02748   -0.00232    0.01211   -0.00297
C23   1    0.586970    0.411933   -0.169950    11.00000    0.04544    0.02804 =
         0.03213   -0.00281    0.01645   -0.00320
C24   1    0.143979    0.698694   -0.056787    11.00000    0.04569    0.01623 =
         0.02035    0.00584    0.00586    0.00235
C25   1    0.138843    0.749941   -0.023582    11.00000    0.05569    0.01969 =
         0.02326    0.00301    0.00767    0.00385
AFIX  43
H8    2    0.167772    0.745953    0.013708    11.00000   -1.20000
AFIX   0
C26   1    0.091211    0.807732   -0.044612    11.00000    0.06315    0.01902 =
         0.03645    0.00240    0.01033    0.00631
C27   1    0.056233    0.812470   -0.099640    11.00000    0.05635    0.02085 =
         0.03802    0.01232    0.00607    0.00610
AFIX  43
H9    2    0.025785    0.851689   -0.114389    11.00000   -1.20000
AFIX   0
C28   1    0.063796    0.762193   -0.134269    11.00000    0.04442    0.02717 =
         0.02612    0.01336    0.00353   -0.00110
C29   1    0.106736    0.705177   -0.111743    11.00000    0.04520    0.01926 =
         0.02037    0.00548    0.00687   -0.00103
AFIX  43
H10   2    0.110844    0.669813   -0.134239    11.00000   -1.20000
PART 1
AFIX   0
C30   1    0.098581    0.864350   -0.006854    21.00000    0.07565    0.02798 =
         0.05330   -0.00580    0.02311    0.00918
C31   1    0.229782    0.879592    0.023106    21.00000    0.09127    0.04430 =
         0.06258   -0.02877    0.04024   -0.02377
AFIX  33
H108  2    0.264029    0.842305    0.043083    21.00000   -1.50000
H109  2    0.279735    0.891236   -0.002946    21.00000   -1.50000
H110  2    0.227426    0.914744    0.047871    21.00000   -1.50000
AFIX   0
C32   1    0.025690    0.846385    0.037220    21.00000    0.07249    0.04968 =
         0.06836   -0.01809    0.03321    0.00694
AFIX  33
H111  2    0.061155    0.808746    0.056265    21.00000   -1.50000
H112  2    0.028128    0.881475    0.062438    21.00000   -1.50000
H113  2   -0.058030    0.837643    0.020660    21.00000   -1.50000
AFIX   0
C33   1    0.046754    0.922780   -0.037675    21.00000    0.12894    0.03563 =
         0.08249   -0.00971    0.00988    0.02185
AFIX  33
H114  2    0.051800    0.958790   -0.013240    21.00000   -1.50000
H115  2    0.092760    0.931999   -0.065775    21.00000   -1.50000
H116  2   -0.037623    0.915121   -0.053829    21.00000   -1.50000
PART 2
AFIX   0
C136  1   -0.052565    0.897737   -0.028749   -21.00000    0.09191    0.05568 =
         0.05892   -0.00791    0.01009    0.04680
AFIX  33
H117  2   -0.120978    0.868884   -0.030707   -21.00000   -1.50000
H118  2   -0.061666    0.932922   -0.004868   -21.00000   -1.50000
H119  2   -0.049896    0.914082   -0.064469   -21.00000   -1.50000
AFIX   0
C137  1    0.173064    0.905943   -0.003607   -21.00000    0.09106    0.04267 =
         0.08962   -0.02699    0.03169   -0.01621
AFIX  33
H120  2    0.246714    0.882292    0.010258   -21.00000   -1.50000
H121  2    0.177021    0.922336   -0.039183   -21.00000   -1.50000
H122  2    0.165250    0.941176    0.020417   -21.00000   -1.50000
AFIX   0
C138  1    0.059297    0.838224    0.050154   -21.00000    0.06506    0.04466 =
         0.04223   -0.01408    0.00326    0.01993
AFIX  33
H123  2   -0.010005    0.810094    0.048776   -21.00000   -1.50000
H124  2    0.133433    0.815161    0.064391   -21.00000   -1.50000
H125  2    0.051338    0.874270    0.073331   -21.00000   -1.50000
AFIX   0
C230  1    0.064269    0.862337   -0.007210   -21.00000    0.06041    0.02716 =
         0.05469   -0.00860    0.01842    0.00877
PART 0
C34   1    0.026244    0.770279   -0.194798    11.00000    0.05687    0.03498 =
         0.02536    0.01590    0.00262   -0.00286
C35   1   -0.104363    0.790971   -0.209201    11.00000    0.05999    0.06605 =
         0.04388    0.02189   -0.00214    0.00017
AFIX 137
H33   2   -0.156035    0.758761   -0.197526    11.00000   -1.50000
H34   2   -0.126541    0.796456   -0.247951    11.00000   -1.50000
H35   2   -0.114783    0.831048   -0.191419    11.00000   -1.50000
AFIX   0
C36   1    0.109385    0.818969   -0.213480    11.00000    0.06870    0.05779 =
         0.04230    0.02461    0.01017   -0.01310
AFIX 137
H36   2    0.192693    0.803898   -0.205067    11.00000   -1.50000
H37   2    0.102859    0.859165   -0.195219    11.00000   -1.50000
H38   2    0.085851    0.825028   -0.252119    11.00000   -1.50000
AFIX   0
C37   1    0.037438    0.708679   -0.225043    11.00000    0.09856    0.05028 =
         0.02301    0.00923    0.00156    0.00150
AFIX 137
H39   2    0.120140    0.692887   -0.215753    11.00000   -1.50000
H40   2    0.017381    0.716563   -0.263549    11.00000   -1.50000
H41   2   -0.018050    0.677214   -0.215161    11.00000   -1.50000
AFIX   0
C38   1    0.094023    0.475487    0.145455    11.00000    0.03836    0.01805 =
         0.01101    0.00245    0.00714   -0.00037
C39   1    0.183701    0.459494    0.189175    11.00000    0.03948    0.01932 =
         0.01671    0.00388    0.00451    0.00248
AFIX  43
H11   2    0.261554    0.447994    0.183507    11.00000   -1.20000
AFIX   0
C40   1    0.159700    0.460300    0.241032    11.00000    0.04659    0.02090 =
         0.01596    0.00297    0.00140   -0.00032
C41   1    0.045747    0.480345    0.247611    11.00000    0.04632    0.02543 =
         0.01149    0.00207    0.00620    0.00092
AFIX  43
H12   2    0.029421    0.482816    0.282786    11.00000   -1.20000
AFIX   0
C42   1   -0.045145    0.496891    0.205132    11.00000    0.04126    0.01823 =
         0.01379   -0.00127    0.00873    0.00075
C43   1   -0.019766    0.492202    0.153471    11.00000    0.03822    0.02216 =
         0.01078    0.00230    0.00384    0.00010
AFIX  43
H13   2   -0.081453    0.500603    0.123553    11.00000   -1.20000
AFIX   0
C44   1   -0.169544    0.518479    0.213293    11.00000    0.04060    0.02677 =
         0.01467   -0.00205    0.00730    0.00192
C45   1   -0.255384    0.461310    0.205214    11.00000    0.04593    0.03897 =
         0.03313   -0.00877    0.01432   -0.00454
AFIX 137
H42   2   -0.335938    0.474661    0.209623    11.00000   -1.50000
H43   2   -0.225517    0.428740    0.231659    11.00000   -1.50000
H44   2   -0.259251    0.444196    0.169225    11.00000   -1.50000
AFIX   0
C46   1   -0.166027    0.545589    0.269276    11.00000    0.05433    0.03365 =
         0.01566   -0.00242    0.00931    0.00902
AFIX 137
H45   2   -0.246969    0.559258    0.272813    11.00000   -1.50000
H46   2   -0.111110    0.581759    0.274804    11.00000   -1.50000
H47   2   -0.137752    0.513089    0.296019    11.00000   -1.50000
AFIX   0
C47   1   -0.218565    0.570654    0.173534    11.00000    0.04453    0.04696 =
         0.02286    0.00932    0.00889    0.01296
AFIX 137
H48   2   -0.298887    0.583166    0.178920    11.00000   -1.50000
H49   2   -0.223561    0.554959    0.137030    11.00000   -1.50000
H50   2   -0.164596    0.607203    0.179226    11.00000   -1.50000
PART 1
AFIX   0
C48   1    0.258706    0.441079    0.288315    31.00000    0.04353    0.03128 =
         0.01289    0.00512    0.00430    0.00344
C50   1    0.207838    0.389662    0.320345    31.00000    0.05901    0.07461 =
         0.04601    0.03929   -0.00285   -0.00638
AFIX  33
H126  2    0.134877    0.405339    0.331562    31.00000   -1.50000
H127  2    0.188247    0.352105    0.297989    31.00000   -1.50000
H128  2    0.267934    0.378734    0.351922    31.00000   -1.50000
AFIX   0
C49   1    0.294001    0.499749    0.323351    31.00000    0.05744    0.05601 =
         0.03927   -0.02414   -0.01429    0.02101
AFIX  33
H129  2    0.222078    0.517585    0.334020    31.00000   -1.50000
H130  2    0.352144    0.487722    0.355258    31.00000   -1.50000
H131  2    0.330246    0.531285    0.303075    31.00000   -1.50000
AFIX   0
C51   1    0.371583    0.413942    0.272081    31.00000    0.05639    0.06425 =
         0.01984    0.00331    0.00082    0.03114
AFIX  33
H132  2    0.406900    0.445478    0.251459    31.00000   -1.50000
H133  2    0.430025    0.402773    0.304144    31.00000   -1.50000
H134  2    0.350338    0.376143    0.250211    31.00000   -1.50000
PART 2
AFIX   0
C313  1    0.242021    0.442314    0.293775   -31.00000    0.03562    0.03992 =
         0.01947    0.00326    0.00179    0.01321
C135  1    0.183360    0.423933    0.339417   -31.00000    0.04314    0.05744 =
         0.03102    0.02686   -0.00998    0.00476
AFIX  33
H135  2    0.135711    0.459418    0.348780   -31.00000   -1.50000
H136  2    0.130591    0.387566    0.329152   -31.00000   -1.50000
H137  2    0.245301    0.412759    0.370258   -31.00000   -1.50000
AFIX   0
C140  1    0.312689    0.387122    0.281299   -31.00000    0.05607    0.05596 =
         0.03404    0.00449   -0.01264    0.03033
AFIX  33
H138  2    0.257884    0.352398    0.268178   -31.00000   -1.50000
H139  2    0.358883    0.398829    0.253836   -31.00000   -1.50000
H140  2    0.367973    0.373689    0.313643   -31.00000   -1.50000
AFIX   0
C314  1    0.323646    0.495639    0.313790   -31.00000    0.03884    0.04228 =
         0.02974   -0.00012    0.00923    0.02297
AFIX  33
H141  2    0.275851    0.531724    0.321862   -31.00000   -1.50000
H142  2    0.378967    0.482587    0.346247   -31.00000   -1.50000
H143  2    0.369877    0.507726    0.286441   -31.00000   -1.50000
PART 0
AFIX   0
C52   1    0.319418    0.254537   -0.014441    11.00000    0.04218    0.01152 =
         0.02232   -0.00035    0.01131   -0.00099
C53   1    0.282152    0.223175   -0.062945    11.00000    0.04356    0.02009 =
         0.01638   -0.00012    0.00764    0.00138
AFIX  43
H14   2    0.242874    0.246046   -0.093273    11.00000   -1.20000
AFIX   0
C54   1    0.302194    0.158549   -0.067160    11.00000    0.04563    0.01899 =
         0.02221   -0.00492    0.01250   -0.00354
C55   1    0.357472    0.126346   -0.021179    11.00000    0.05086    0.01609 =
         0.03118   -0.00006    0.01394    0.00356
AFIX  43
H15   2    0.370798    0.082257   -0.023553    11.00000   -1.20000
AFIX   0
C56   1    0.393735    0.155963    0.027786    11.00000    0.05219    0.01807 =
         0.02207    0.00390    0.01141    0.00150
C57   1    0.375318    0.221323    0.030069    11.00000    0.04706    0.01814 =
         0.01834    0.00251    0.00905    0.00050
AFIX  43
H16   2    0.401649    0.243137    0.062701    11.00000   -1.20000
AFIX   0
C58   1    0.274045    0.124820   -0.121110    11.00000    0.05334    0.02688 =
         0.02808   -0.01121    0.01004   -0.00003
C59   1    0.394108    0.115125   -0.139844    11.00000    0.06366    0.03492 =
         0.03177   -0.00955    0.02239   -0.00185
AFIX 137
H51   2    0.446841    0.088378   -0.114167    11.00000   -1.50000
H52   2    0.432766    0.156119   -0.142393    11.00000   -1.50000
H53   2    0.379402    0.094687   -0.174936    11.00000   -1.50000
AFIX   0
C60   1    0.190362    0.163227   -0.163650    11.00000    0.07517    0.04215 =
         0.02868   -0.01288   -0.00249    0.00741
AFIX 137
H54   2    0.171274    0.138591   -0.196671    11.00000   -1.50000
H55   2    0.230439    0.202543   -0.170585    11.00000   -1.50000
H56   2    0.115909    0.173087   -0.150871    11.00000   -1.50000
AFIX   0
C61   1    0.214275    0.060288   -0.115551    11.00000    0.06046    0.03033 =
         0.04671   -0.01776    0.01674   -0.00968
AFIX 137
H57   2    0.266719    0.034826   -0.088709    11.00000   -1.50000
H58   2    0.201451    0.038310   -0.149963    11.00000   -1.50000
H59   2    0.136706    0.066753   -0.104450    11.00000   -1.50000
AFIX   0
C62   1    0.454283    0.121870    0.078858    11.00000    0.06493    0.02010 =
         0.02841    0.00899    0.01139    0.00437
C63   1    0.577782    0.152229    0.100434    11.00000    0.05676    0.05016 =
         0.03978    0.01920    0.00059    0.00310
AFIX 137
H60   2    0.566425    0.196503    0.109448    11.00000   -1.50000
H61   2    0.628214    0.149922    0.073109    11.00000   -1.50000
H62   2    0.617136    0.129540    0.132445    11.00000   -1.50000
AFIX   0
C64   1    0.374300    0.129889    0.121255    11.00000    0.06864    0.04725 =
         0.03166    0.01687    0.01389   -0.00326
AFIX 137
H63   2    0.365583    0.174885    0.128568    11.00000   -1.50000
H64   2    0.411666    0.108322    0.154182    11.00000   -1.50000
H65   2    0.294825    0.111554    0.107958    11.00000   -1.50000
AFIX   0
C65   1    0.472359    0.051859    0.069730    11.00000    0.14557    0.02314 =
         0.04044    0.00735    0.00192    0.02186
AFIX 137
H66   2    0.393877    0.031472    0.058737    11.00000   -1.50000
H67   2    0.514634    0.032538    0.102879    11.00000   -1.50000
H68   2    0.520212    0.046466    0.041692    11.00000   -1.50000
AFIX   0
CL1   4    0.366423    0.133992    0.287743    11.00000    0.07725    0.03868 =
         0.05220    0.00403    0.00782    0.01050
CL2   4    0.479161    0.239709    0.243485    11.00000    0.13093    0.07904 =
         0.06957   -0.01186    0.03811   -0.03670
C131  1    0.412377    0.212658    0.296957    11.00000    0.07530    0.04814 =
         0.06682   -0.01259    0.01129   -0.00519
AFIX  23
H106  2    0.471045    0.216588    0.330829    11.00000   -1.20000
H107  2    0.341935    0.239380    0.299648    11.00000   -1.20000

AFIX   0
HKLF 4 1 1 0 0 0 1 0 0 0 1

REM  0306ad2
REM R1 =  0.0819 for   10452 Fo > 4sig(Fo)  and  0.0863 for all   11695 data
REM    771 parameters refined using    324 restraints

END

WGHT      0.1907     11.6295

REM Highest difference peak  1.751,  deepest hole -2.455,  1-sigma level  0.147
Q1    1   0.4929  0.7792 -0.3543  11.00000  0.05    1.75
Q2    1   0.6398  0.3637 -0.1207  11.00000  0.05    1.42
Q3    1   0.5771  0.8380 -0.2743  11.00000  0.05    1.07
Q4    1   0.4393  0.7805 -0.2410  11.00000  0.05    0.87
Q5    1   0.6076  0.7820 -0.3322  11.00000  0.05    0.87
Q6    1   0.1261  0.9233 -0.0364  11.00000  0.05    0.79
Q7    1   0.1046  0.4791  0.2457  11.00000  0.05    0.71
Q8    1   0.4906  0.6183 -0.1083  11.00000  0.05    0.68
Q9    1  -0.0978  0.5088  0.2113  11.00000  0.05    0.67
Q10   1   0.3343  0.2164  0.0289  11.00000  0.05    0.66
Q11   1   0.3829  0.3970 -0.0409  11.00000  0.05    0.64
Q12   1   0.5229  0.6809 -0.1659  11.00000  0.05    0.63
Q13   1   0.3983  0.5470 -0.0613  11.00000  0.05    0.62
Q14   1   0.1830  0.5568  0.0155  11.00000  0.05    0.62
Q15   1   0.4484  0.6374 -0.1502  11.00000  0.05    0.60
Q16   1   0.6423  0.6295 -0.1211  11.00000  0.05    0.58
Q17   1   0.3806  0.1834  0.0278  11.00000  0.05    0.58
Q18   1   0.1281  0.7988 -0.0455  11.00000  0.05    0.57
Q19   1   0.3030  0.2988 -0.0154  11.00000  0.05    0.56
Q20   1   0.2455  0.6196 -0.0480  11.00000  0.05    0.56
Q21   1   0.1592  0.5380  0.0343  11.00000  0.05    0.55
Q22   1   0.0957  0.7260 -0.1167  11.00000  0.05    0.55
Q23   1   0.3029  0.4414  0.2827  11.00000  0.05    0.54
Q24   1   0.5073  0.3626 -0.0797  11.00000  0.05    0.54
Q25   1   0.0785  0.5633  0.0662  11.00000  0.05    0.54
Q26   1   0.4243  0.3430 -0.0537  11.00000  0.05    0.53
Q27   1   0.1774  0.8811  0.0159  11.00000  0.05    0.53
Q28   1   0.1851  0.3452  0.0794  11.00000  0.05    0.51
Q29   1   0.0314  0.4864  0.1542  11.00000  0.05    0.51
Q30   1   0.3460  0.3395 -0.0273  11.00000  0.05    0.51
Q31   1   0.0547  0.6024  0.0574  11.00000  0.05    0.51
Q32   1   0.1598  0.7227 -0.0396  11.00000  0.05    0.50
Q33   1   0.3601  0.1392  0.0012  11.00000  0.05    0.50
Q34   1   0.6474  0.6413 -0.1467  11.00000  0.05    0.49
Q35   1   0.4150  0.6402 -0.0840  11.00000  0.05    0.49
Q36   1   0.1453  0.8649 -0.0019  11.00000  0.05    0.49
Q37   1   0.3322  0.1372 -0.0355  11.00000  0.05    0.48
Q38   1   0.1595  0.4710  0.1788  11.00000  0.05    0.48
Q39   1  -0.0050  0.9180 -0.0273  11.00000  0.05    0.47
Q40   1   0.0924  0.6205  0.0174  11.00000  0.05    0.46
Q41   1   0.1708  0.6180 -0.0227  11.00000  0.05    0.46
Q42   1   0.1549  0.4573  0.0874  11.00000  0.05    0.46
Q43   1   0.3541  0.2359  0.0099  11.00000  0.05    0.46
Q44   1   0.3356  0.1158 -0.1315  11.00000  0.05    0.45
Q45   1   0.5803  0.8023 -0.2533  11.00000  0.05    0.45
Q46   1   0.1995  0.4206  0.0463  11.00000  0.05    0.44
Q47   1   0.5188  0.7202 -0.1845  11.00000  0.05    0.44
Q48   1   0.0314  0.7438 -0.2091  11.00000  0.05    0.43
Q49   1   0.4946  0.7376 -0.2120  11.00000  0.05    0.43
Q50   1   0.4680  0.7483 -0.2229  11.00000  0.05    0.43
Q51   1   0.1162  0.4783  0.1309  11.00000  0.05    0.42
Q52   1   0.2805  0.3413  0.0053  11.00000  0.05    0.40
Q53   1  -0.0111  0.8570  0.0149  11.00000  0.05    0.40
Q54   1   0.4352  0.5931 -0.1011  11.00000  0.05    0.40
Q55   1   0.4470  0.0863  0.0735  11.00000  0.05    0.39
Q56   1   0.2130  0.1427 -0.1521  11.00000  0.05    0.39
Q57   1   0.2391  0.0952 -0.1200  11.00000  0.05    0.39
Q58   1   0.2570  0.0418 -0.1044  11.00000  0.05    0.38
Q59   1   0.1715  0.6606 -0.0439  11.00000  0.05    0.38
Q60   1   0.5380  0.1288  0.0840  11.00000  0.05    0.38
Q61   1  -0.2499  0.4843  0.2071  11.00000  0.05    0.38
Q62   1   0.1638  0.1540 -0.1576  11.00000  0.05    0.38
Q63   1   0.3952  0.1173  0.1136  11.00000  0.05    0.38
Q64   1   0.2961  0.1822 -0.0642  11.00000  0.05    0.37
Q65   1  -0.0748  0.8816 -0.0288  11.00000  0.05    0.37
Q66   1   0.3469  0.6388 -0.1002  11.00000  0.05    0.36
Q67   1   0.3023  0.2129 -0.0646  11.00000  0.05    0.36
Q68   1   0.6004  0.1559  0.1110  11.00000  0.05    0.35
Q69   1   0.2333  0.4981  0.3363  11.00000  0.05    0.35
Q70   1  -0.1049  0.8182 -0.1965  11.00000  0.05    0.35
Q71   1   0.1129  0.8566  0.0369  11.00000  0.05    0.34
Q72   1   0.4994  0.0487  0.0546  11.00000  0.05    0.34
Q73   1   0.1652  0.3202  0.0495  11.00000  0.05    0.33
Q74   1   0.5806  0.6841 -0.1179  11.00000  0.05    0.33
Q75   1   0.7023  0.8448 -0.2724  11.00000  0.05    0.33
Q76   1   0.1751  0.0593 -0.1016  11.00000  0.05    0.33
Q77   1   0.3174  0.2396 -0.0381  11.00000  0.05    0.33
Q78   1   0.1411  0.7629 -0.2160  11.00000  0.05    0.33
Q79   1   0.5178  0.5553 -0.1896  11.00000  0.05    0.33
Q80   1   0.6372  0.2990 -0.1352  11.00000  0.05    0.32
Q81   1   0.2011  0.3365  0.0382  11.00000  0.05    0.32
Q82   1  -0.0118  0.7742 -0.1973  11.00000  0.05    0.31
Q83   1  -0.2147  0.4414  0.2257  11.00000  0.05    0.31
Q84   1   0.0205  0.8439 -0.2106  11.00000  0.05    0.31
Q85   1   0.4917  0.4687  0.2218  11.00000  0.05    0.31
Q86   1   0.3572  0.5018  0.3361  11.00000  0.05    0.31
Q87   1   0.1684  0.1393 -0.1809  11.00000  0.05    0.31
Q88   1   0.2970  0.5209  0.3075  11.00000  0.05    0.30
Q89   1   0.2707  0.8683  0.0288  11.00000  0.05    0.30
Q90   1   0.5429  0.4472 -0.2196  11.00000  0.05    0.30
Q91   1   0.1804  0.0438 -0.1391  11.00000  0.05    0.30
Q92   1   0.3216  0.1292  0.1139  11.00000  0.05    0.28
Q93   1  -0.0664  0.7384 -0.2102  11.00000  0.05    0.27
Q94   1   0.7247  0.8627 -0.3047  11.00000  0.05    0.26
Q95   1   0.6132  0.4089 -0.1767  11.00000  0.05    0.26
Q96   1  -0.2238  0.3630  0.2591  11.00000  0.05    0.26
Q97   1   0.5389  0.7868 -0.3078  11.00000  0.05    0.25
Q98   1   0.7256  0.2658 -0.1272  11.00000  0.05    0.25
Q99   1  -0.2680  0.5590  0.1340  11.00000  0.05    0.24
Q100  1   0.2566  0.9008  0.0472  11.00000  0.05    0.24
;
_shelx_res_checksum              18992
loop_
_space_group_symop_operation_xyz
'x, y, z'
'-x+1/2, y+1/2, -z+1/2'
'-x, -y, -z'
'x-1/2, -y-1/2, z-1/2'
loop_
_atom_site_label
_atom_site_type_symbol
_atom_site_fract_x
_atom_site_fract_y
_atom_site_fract_z
_atom_site_U_iso_or_equiv
_atom_site_adp_type
_atom_site_occupancy
_atom_site_site_symmetry_order
_atom_site_calc_flag
_atom_site_refinement_flags_posn
_atom_site_refinement_flags_adp
_atom_site_refinement_flags_occupancy
_atom_site_disorder_assembly
_atom_site_disorder_group
Br1 Br 0.55004(5) 0.63565(2) -0.14273(2) 0.04371(19) Uani 1 1 d . . . . .
Ni1 Ni 0.28175(5) 0.48393(2) -0.01078(2) 0.01865(19) Uani 1 1 d . . . . .
N1 N 0.3367(3) 0.55273(14) -0.04968(11) 0.0225(6) Uani 1 1 d . . . . .
N2 N 0.1783(3) 0.54141(13) 0.01836(11) 0.0208(6) Uani 1 1 d . . . . .
N3 N 0.2297(3) 0.41619(13) 0.02960(11) 0.0213(6) Uani 1 1 d . . . . .
N4 N 0.3813(3) 0.42587(13) -0.04146(11) 0.0211(6) Uani 1 1 d . . . . .
N5 N 0.6979(4) 0.26682(19) -0.12645(18) 0.0492(10) Uani 1 1 d . . . . .
N6 N 0.5542(4) 0.4358(2) -0.20987(16) 0.0472(10) Uani 1 1 d . . . . .
C1 C 0.4339(3) 0.55266(17) -0.07566(13) 0.0250(7) Uani 1 1 d . . . . .
C2 C 0.4459(4) 0.61401(18) -0.09766(14) 0.0303(8) Uani 1 1 d . . . . .
C3 C 0.3586(4) 0.65100(18) -0.08692(14) 0.0290(8) Uani 1 1 d . . . . .
H1 H 0.3448 0.6939 -0.0969 0.035 Uiso 1 1 calc R U . . .
C4 C 0.2894(3) 0.61308(16) -0.05726(13) 0.0242(7) Uani 1 1 d . . . . .
C5 C 0.1924(4) 0.63583(15) -0.03700(13) 0.0237(7) Uani 1 1 d . . . . .
C6 C 0.1428(3) 0.60205(16) 0.00042(13) 0.0236(7) Uani 1 1 d . . . . .
C7 C 0.0616(4) 0.62801(17) 0.03161(14) 0.0278(8) Uani 1 1 d . . . . .
H2 H 0.0207 0.6673 0.0257 0.033 Uiso 1 1 calc R U . . .
C8 C 0.0536(3) 0.58643(17) 0.07099(14) 0.0255(7) Uani 1 1 d . . . . .
H3 H 0.0099 0.5920 0.0991 0.031 Uiso 1 1 calc R U . . .
C9 C 0.1235(3) 0.53237(16) 0.06233(13) 0.0213(7) Uani 1 1 d . . . . .
C10 C 0.1310(3) 0.47679(16) 0.09185(12) 0.0213(7) Uani 1 1 d . . . . .
C11 C 0.1728(3) 0.42159(16) 0.07280(13) 0.0223(7) Uani 1 1 d . . . . .
C12 C 0.1479(4) 0.36019(17) 0.09252(15) 0.0285(8) Uani 1 1 d . . . . .
H4 H 0.1123 0.3515 0.1227 0.034 Uiso 1 1 calc R U . . .
C13 C 0.1853(4) 0.31725(17) 0.05965(15) 0.0287(8) Uani 1 1 d . . . . .
H5 H 0.1762 0.2728 0.0610 0.034 Uiso 1 1 calc R U . . .
C14 C 0.2413(3) 0.35174(16) 0.02240(14) 0.0234(7) Uani 1 1 d . . . . .
C15 C 0.3084(3) 0.32447(16) -0.01198(13) 0.0226(7) Uani 1 1 d . . . . .
C16 C 0.3785(3) 0.36034(15) -0.03998(13) 0.0228(7) Uani 1 1 d . . . . .
C17 C 0.4670(3) 0.33443(17) -0.06743(14) 0.0255(7) Uani 1 1 d . . . . .
H6 H 0.4819 0.2909 -0.0724 0.031 Uiso 1 1 calc R U . . .
C18 C 0.5252(3) 0.38394(17) -0.08490(14) 0.0244(7) Uani 1 1 d . . . . .
C19 C 0.4711(3) 0.44041(17) -0.06932(13) 0.0235(7) Uani 1 1 d . . . . .
C20 C 0.5001(3) 0.50016(18) -0.08359(13) 0.0251(7) Uani 1 1 d . . . . .
H7 H 0.5689 0.5055 -0.0996 0.030 Uiso 1 1 calc R U . . .
C21 C 0.6296(3) 0.3788(2) -0.11916(14) 0.0277(8) Uani 1 1 d . . . . .
H32 H 0.6999 0.4032 -0.0996 0.033 Uiso 1 1 calc R U . . .
C22 C 0.6673(4) 0.3172(2) -0.12232(17) 0.0368(9) Uani 1 1 d . . . . .
C23 C 0.5870(4) 0.41193(19) -0.16995(17) 0.0340(9) Uani 1 1 d . . . . .
C24 C 0.1440(4) 0.69869(17) -0.05679(14) 0.0275(7) Uani 1 1 d . . . . .
C25 C 0.1388(4) 0.74994(18) -0.02358(16) 0.0328(8) Uani 1 1 d . . . . .
H8 H 0.1678 0.7460 0.0137 0.039 Uiso 1 1 calc R U . . .
C26 C 0.0912(5) 0.80773(19) -0.04461(18) 0.0394(10) Uani 1 1 d . . . . .
C27 C 0.0562(4) 0.81247(19) -0.09964(18) 0.0388(9) Uani 1 1 d . . . . .
H9 H 0.0258 0.8517 -0.1144 0.047 Uiso 1 1 calc R U . . .
C28 C 0.0638(4) 0.76219(19) -0.13427(16) 0.0330(8) Uani 1 1 d . . . . .
C29 C 0.1067(4) 0.70518(17) -0.11174(14) 0.0282(8) Uani 1 1 d . . . . .
H10 H 0.1108 0.6698 -0.1342 0.034 Uiso 1 1 calc R U . . .
C30 C 0.0986(12) 0.8644(8) -0.0069(6) 0.051(2) Uani 0.578(12) 1 d D U P A 1
C31 C 0.2298(11) 0.8796(5) 0.0231(5) 0.063(3) Uani 0.578(12) 1 d D U P A 1
H108 H 0.2640 0.8423 0.0431 0.094 Uiso 0.578(12) 1 calc R U P A 1
H109 H 0.2797 0.8912 -0.0029 0.094 Uiso 0.578(12) 1 calc R U P A 1
H110 H 0.2274 0.9147 0.0479 0.094 Uiso 0.578(12) 1 calc R U P A 1
C32 C 0.0257(14) 0.8464(8) 0.0372(7) 0.061(3) Uani 0.578(12) 1 d D U P A 1
H111 H 0.0612 0.8087 0.0563 0.091 Uiso 0.578(12) 1 calc R U P A 1
H112 H 0.0281 0.8815 0.0624 0.091 Uiso 0.578(12) 1 calc R U P A 1
H113 H -0.0580 0.8376 0.0207 0.091 Uiso 0.578(12) 1 calc R U P A 1
C33 C 0.0468(15) 0.9228(5) -0.0377(5) 0.084(3) Uani 0.578(12) 1 d D U P A 1
H114 H 0.0518 0.9588 -0.0132 0.125 Uiso 0.578(12) 1 calc R U P A 1
H115 H 0.0928 0.9320 -0.0658 0.125 Uiso 0.578(12) 1 calc R U P A 1
H116 H -0.0376 0.9151 -0.0538 0.125 Uiso 0.578(12) 1 calc R U P A 1
C136 C -0.0526(15) 0.8977(7) -0.0287(6) 0.069(4) Uani 0.422(12) 1 d D U P A 2
H117 H -0.1210 0.8689 -0.0307 0.104 Uiso 0.422(12) 1 calc R U P A 2
H118 H -0.0617 0.9329 -0.0049 0.104 Uiso 0.422(12) 1 calc R U P A 2
H119 H -0.0499 0.9141 -0.0645 0.104 Uiso 0.422(12) 1 calc R U P A 2
C137 C 0.1731(16) 0.9059(7) -0.0036(8) 0.073(4) Uani 0.422(12) 1 d D U P A 2
H120 H 0.2467 0.8823 0.0103 0.109 Uiso 0.422(12) 1 calc R U P A 2
H121 H 0.1770 0.9223 -0.0392 0.109 Uiso 0.422(12) 1 calc R U P A 2
H122 H 0.1653 0.9412 0.0204 0.109 Uiso 0.422(12) 1 calc R U P A 2
C138 C 0.0593(17) 0.8382(11) 0.0502(7) 0.052(4) Uani 0.422(12) 1 d D U P A 2
H123 H -0.0100 0.8101 0.0488 0.077 Uiso 0.422(12) 1 calc R U P A 2
H124 H 0.1334 0.8152 0.0644 0.077 Uiso 0.422(12) 1 calc R U P A 2
H125 H 0.0513 0.8743 0.0733 0.077 Uiso 0.422(12) 1 calc R U P A 2
C230 C 0.0643(13) 0.8623(11) -0.0072(9) 0.046(3) Uani 0.422(12) 1 d D U P A 2
C34 C 0.0262(4) 0.7703(2) -0.19480(17) 0.0397(10) Uani 1 1 d . . . . .
C35 C -0.1044(5) 0.7910(3) -0.2092(2) 0.0582(14) Uani 1 1 d . . . . .
H33 H -0.1560 0.7588 -0.1975 0.087 Uiso 1 1 calc R U . . .
H34 H -0.1265 0.7965 -0.2480 0.087 Uiso 1 1 calc R U . . .
H35 H -0.1148 0.8310 -0.1914 0.087 Uiso 1 1 calc R U . . .
C36 C 0.1094(5) 0.8190(3) -0.2135(2) 0.0563(14) Uani 1 1 d . . . . .
H36 H 0.1927 0.8039 -0.2051 0.084 Uiso 1 1 calc R U . . .
H37 H 0.1029 0.8592 -0.1952 0.084 Uiso 1 1 calc R U . . .
H38 H 0.0859 0.8250 -0.2521 0.084 Uiso 1 1 calc R U . . .
C37 C 0.0374(6) 0.7087(3) -0.22504(19) 0.0585(15) Uani 1 1 d . . . . .
H39 H 0.1201 0.6929 -0.2158 0.088 Uiso 1 1 calc R U . . .
H40 H 0.0174 0.7166 -0.2635 0.088 Uiso 1 1 calc R U . . .
H41 H -0.0181 0.6772 -0.2152 0.088 Uiso 1 1 calc R U . . .
C38 C 0.0940(3) 0.47549(16) 0.14545(13) 0.0221(7) Uani 1 1 d . . . . .
C39 C 0.1837(3) 0.45949(16) 0.18918(13) 0.0253(7) Uani 1 1 d . . . . .
H11 H 0.2616 0.4480 0.1835 0.030 Uiso 1 1 calc R U . . .
C40 C 0.1597(4) 0.46030(17) 0.24103(14) 0.0284(8) Uani 1 1 d . . . . .
C41 C 0.0457(4) 0.48035(17) 0.24761(13) 0.0276(8) Uani 1 1 d . . . . .
H12 H 0.0294 0.4828 0.2828 0.033 Uiso 1 1 calc R U . . .
C42 C -0.0451(3) 0.49689(16) 0.20513(13) 0.0240(7) Uani 1 1 d . . . . .
C43 C -0.0198(3) 0.49220(17) 0.15347(13) 0.0238(7) Uani 1 1 d . . . . .
H13 H -0.0815 0.5006 0.1236 0.029 Uiso 1 1 calc R U . . .
C44 C -0.1695(4) 0.51848(17) 0.21329(14) 0.0271(8) Uani 1 1 d . . . . .
C45 C -0.2554(4) 0.4613(2) 0.20521(17) 0.0384(9) Uani 1 1 d . . . . .
H42 H -0.3359 0.4747 0.2096 0.058 Uiso 1 1 calc R U . . .
H43 H -0.2255 0.4287 0.2317 0.058 Uiso 1 1 calc R U . . .
H44 H -0.2593 0.4442 0.1692 0.058 Uiso 1 1 calc R U . . .
C46 C -0.1660(4) 0.5456(2) 0.26928(14) 0.0342(9) Uani 1 1 d . . . . .
H45 H -0.2470 0.5593 0.2728 0.051 Uiso 1 1 calc R U . . .
H46 H -0.1111 0.5818 0.2748 0.051 Uiso 1 1 calc R U . . .
H47 H -0.1378 0.5131 0.2960 0.051 Uiso 1 1 calc R U . . .
C47 C -0.2186(4) 0.5707(2) 0.17353(16) 0.0378(9) Uani 1 1 d . . . . .
H48 H -0.2989 0.5832 0.1789 0.057 Uiso 1 1 calc R U . . .
H49 H -0.2236 0.5550 0.1370 0.057 Uiso 1 1 calc R U . . .
H50 H -0.1646 0.6072 0.1792 0.057 Uiso 1 1 calc R U . . .
C48 C 0.2587(13) 0.4411(5) 0.2883(6) 0.0294(16) Uani 0.806(16) 1 d D U P B 1
C50 C 0.2078(7) 0.3897(5) 0.3203(3) 0.061(3) Uani 0.806(16) 1 d D U P B 1
H126 H 0.1349 0.4053 0.3316 0.092 Uiso 0.806(16) 1 calc R U P B 1
H127 H 0.1882 0.3521 0.2980 0.092 Uiso 0.806(16) 1 calc R U P B 1
H128 H 0.2679 0.3787 0.3519 0.092 Uiso 0.806(16) 1 calc R U P B 1
C49 C 0.2940(11) 0.4997(5) 0.3234(5) 0.054(3) Uani 0.806(16) 1 d D U P B 1
H129 H 0.2221 0.5176 0.3340 0.081 Uiso 0.806(16) 1 calc R U P B 1
H130 H 0.3521 0.4877 0.3553 0.081 Uiso 0.806(16) 1 calc R U P B 1
H131 H 0.3302 0.5313 0.3031 0.081 Uiso 0.806(16) 1 calc R U P B 1
C51 C 0.3716(7) 0.4139(4) 0.2721(2) 0.048(2) Uani 0.806(16) 1 d D U P B 1
H132 H 0.4069 0.4455 0.2515 0.071 Uiso 0.806(16) 1 calc R U P B 1
H133 H 0.4300 0.4028 0.3041 0.071 Uiso 0.806(16) 1 calc R U P B 1
H134 H 0.3503 0.3761 0.2502 0.071 Uiso 0.806(16) 1 calc R U P B 1
C313 C 0.242(5) 0.4423(19) 0.294(3) 0.032(6) Uani 0.194(16) 1 d D U P B 2
C135 C 0.183(2) 0.4239(16) 0.3394(11) 0.046(7) Uani 0.194(16) 1 d D U P B 2
H135 H 0.1357 0.4594 0.3488 0.069 Uiso 0.194(16) 1 calc R U P B 2
H136 H 0.1306 0.3876 0.3292 0.069 Uiso 0.194(16) 1 calc R U P B 2
H137 H 0.2453 0.4128 0.3703 0.069 Uiso 0.194(16) 1 calc R U P B 2
C140 C 0.313(3) 0.3871(14) 0.2813(11) 0.051(7) Uani 0.194(16) 1 d D U P B 2
H138 H 0.2579 0.3524 0.2682 0.077 Uiso 0.194(16) 1 calc R U P B 2
H139 H 0.3589 0.3988 0.2538 0.077 Uiso 0.194(16) 1 calc R U P B 2
H140 H 0.3680 0.3737 0.3136 0.077 Uiso 0.194(16) 1 calc R U P B 2
C314 C 0.324(4) 0.4956(18) 0.3138(18) 0.037(7) Uani 0.194(16) 1 d D U P B 2
H141 H 0.2759 0.5317 0.3219 0.055 Uiso 0.194(16) 1 calc R U P B 2
H142 H 0.3790 0.4826 0.3462 0.055 Uiso 0.194(16) 1 calc R U P B 2
H143 H 0.3699 0.5077 0.2864 0.055 Uiso 0.194(16) 1 calc R U P B 2
C52 C 0.3194(3) 0.25454(16) -0.01444(14) 0.0247(7) Uani 1 1 d . . . . .
C53 C 0.2822(4) 0.22317(17) -0.06294(14) 0.0264(7) Uani 1 1 d . . . . .
H14 H 0.2429 0.2460 -0.0933 0.032 Uiso 1 1 calc R U . . .
C54 C 0.3022(4) 0.15855(17) -0.06716(14) 0.0281(8) Uani 1 1 d . . . . .
C55 C 0.3575(4) 0.12635(17) -0.02118(16) 0.0319(8) Uani 1 1 d . . . . .
H15 H 0.3708 0.0823 -0.0236 0.038 Uiso 1 1 calc R U . . .
C56 C 0.3937(4) 0.15596(18) 0.02779(15) 0.0302(8) Uani 1 1 d . . . . .
C57 C 0.3753(4) 0.22132(17) 0.03007(14) 0.0275(7) Uani 1 1 d . . . . .
H16 H 0.4016 0.2431 0.0627 0.033 Uiso 1 1 calc R U . . .
C58 C 0.2740(4) 0.1248(2) -0.12111(17) 0.0358(9) Uani 1 1 d . . . . .
C59 C 0.3941(5) 0.1151(2) -0.13984(18) 0.0417(10) Uani 1 1 d . . . . .
H51 H 0.4468 0.0884 -0.1142 0.063 Uiso 1 1 calc R U . . .
H52 H 0.4328 0.1561 -0.1424 0.063 Uiso 1 1 calc R U . . .
H53 H 0.3794 0.0947 -0.1749 0.063 Uiso 1 1 calc R U . . .
C60 C 0.1904(5) 0.1632(2) -0.16365(18) 0.0502(12) Uani 1 1 d . . . . .
H54 H 0.1713 0.1386 -0.1967 0.075 Uiso 1 1 calc R U . . .
H55 H 0.2304 0.2025 -0.1706 0.075 Uiso 1 1 calc R U . . .
H56 H 0.1159 0.1731 -0.1509 0.075 Uiso 1 1 calc R U . . .
C61 C 0.2143(5) 0.0603(2) -0.1156(2) 0.0450(11) Uani 1 1 d . . . . .
H57 H 0.2667 0.0348 -0.0887 0.067 Uiso 1 1 calc R U . . .
H58 H 0.2015 0.0383 -0.1500 0.067 Uiso 1 1 calc R U . . .
H59 H 0.1367 0.0668 -0.1045 0.067 Uiso 1 1 calc R U . . .
C62 C 0.4543(5) 0.12187(19) 0.07886(17) 0.0375(9) Uani 1 1 d . . . . .
C63 C 0.5778(5) 0.1522(3) 0.1004(2) 0.0500(12) Uani 1 1 d . . . . .
H60 H 0.5664 0.1965 0.1094 0.075 Uiso 1 1 calc R U . . .
H61 H 0.6282 0.1499 0.0731 0.075 Uiso 1 1 calc R U . . .
H62 H 0.6171 0.1295 0.1324 0.075 Uiso 1 1 calc R U . . .
C64 C 0.3743(5) 0.1299(2) 0.12126(19) 0.0486(12) Uani 1 1 d . . . . .
H63 H 0.3656 0.1749 0.1286 0.073 Uiso 1 1 calc R U . . .
H64 H 0.4117 0.1083 0.1542 0.073 Uiso 1 1 calc R U . . .
H65 H 0.2948 0.1116 0.1080 0.073 Uiso 1 1 calc R U . . .
C65 C 0.4724(8) 0.0519(2) 0.0697(2) 0.072(2) Uani 1 1 d . . . . .
H66 H 0.3939 0.0315 0.0587 0.108 Uiso 1 1 calc R U . . .
H67 H 0.5146 0.0325 0.1029 0.108 Uiso 1 1 calc R U . . .
H68 H 0.5202 0.0465 0.0417 0.108 Uiso 1 1 calc R U . . .
Cl1 Cl 0.36642(14) 0.13399(6) 0.28774(6) 0.0566(3) Uani 1 1 d . . . . .
Cl2 Cl 0.4792(2) 0.23971(10) 0.24349(8) 0.0907(6) Uani 1 1 d . . . . .
C131 C 0.4124(6) 0.2127(3) 0.2970(3) 0.0637(15) Uani 1 1 d . . . . .
H106 H 0.4710 0.2166 0.3308 0.076 Uiso 1 1 calc R U . . .
H107 H 0.3419 0.2394 0.2996 0.076 Uiso 1 1 calc R U . . .
loop_
_atom_site_aniso_label
_atom_site_aniso_U_11
_atom_site_aniso_U_22
_atom_site_aniso_U_33
_atom_site_aniso_U_23
_atom_site_aniso_U_13
_atom_site_aniso_U_12
Br1 0.0536(3) 0.0378(3) 0.0433(3) 0.00552(18) 0.0184(2) -0.00102(19)
Ni1 0.0329(3) 0.0129(3) 0.0109(3) 0.00197(19) 0.0059(2) -0.0006(2)
N1 0.0363(15) 0.0185(14) 0.0130(12) 0.0000(10) 0.0053(11) 0.0004(11)
N2 0.0353(15) 0.0146(13) 0.0125(12) 0.0045(10) 0.0044(11) -0.0008(11)
N3 0.0342(15) 0.0170(14) 0.0136(12) -0.0003(10) 0.0070(11) 0.0000(11)
N4 0.0350(15) 0.0145(13) 0.0139(12) 0.0013(10) 0.0047(11) -0.0021(11)
N5 0.070(3) 0.030(2) 0.052(2) 0.0012(17) 0.023(2) 0.0102(18)
N6 0.071(3) 0.042(2) 0.032(2) 0.0049(17) 0.0190(18) 0.0010(19)
C1 0.0415(19) 0.0199(17) 0.0148(15) 0.0004(12) 0.0085(13) -0.0048(14)
C2 0.053(2) 0.0229(18) 0.0186(16) 0.0018(14) 0.0163(15) -0.0103(16)
C3 0.052(2) 0.0175(16) 0.0196(16) 0.0022(13) 0.0115(15) -0.0058(15)
C4 0.043(2) 0.0149(15) 0.0142(15) 0.0026(12) 0.0034(13) -0.0033(14)
C5 0.044(2) 0.0126(15) 0.0139(15) 0.0029(11) 0.0038(14) 0.0005(13)
C6 0.0396(19) 0.0158(16) 0.0148(15) 0.0031(12) 0.0034(13) 0.0034(13)
C7 0.044(2) 0.0203(17) 0.0194(17) 0.0047(13) 0.0060(15) 0.0075(14)
C8 0.0391(19) 0.0204(17) 0.0182(15) 0.0017(13) 0.0083(13) 0.0042(14)
C9 0.0328(17) 0.0192(16) 0.0122(14) 0.0019(12) 0.0053(12) 0.0017(13)
C10 0.0330(17) 0.0204(16) 0.0111(14) 0.0008(12) 0.0055(12) -0.0009(13)
C11 0.0342(17) 0.0186(16) 0.0144(14) 0.0021(12) 0.0057(12) -0.0006(13)
C12 0.048(2) 0.0195(17) 0.0214(17) 0.0049(13) 0.0155(15) -0.0034(15)
C13 0.051(2) 0.0146(16) 0.0229(17) 0.0012(13) 0.0128(15) -0.0049(15)
C14 0.0391(19) 0.0140(15) 0.0177(15) 0.0005(12) 0.0068(13) -0.0015(13)
C15 0.0375(18) 0.0124(15) 0.0178(15) 0.0007(12) 0.0050(13) -0.0004(13)
C16 0.0367(19) 0.0156(16) 0.0157(15) 0.0016(12) 0.0038(13) 0.0001(13)
C17 0.0380(19) 0.0176(16) 0.0209(16) 0.0009(13) 0.0055(14) 0.0029(14)
C18 0.0335(18) 0.0226(17) 0.0181(16) -0.0028(13) 0.0070(13) 0.0012(14)
C19 0.0325(17) 0.0217(17) 0.0157(15) 0.0000(12) 0.0028(12) -0.0007(13)
C20 0.0366(19) 0.0236(17) 0.0166(15) -0.0008(13) 0.0092(13) -0.0036(14)
C21 0.0193(16) 0.039(2) 0.0224(17) 0.0099(15) -0.0016(13) -0.0133(14)
C22 0.043(2) 0.042(3) 0.0275(19) -0.0023(17) 0.0121(16) -0.0030(18)
C23 0.045(2) 0.0280(19) 0.032(2) -0.0028(16) 0.0165(17) -0.0032(16)
C24 0.046(2) 0.0162(16) 0.0204(17) 0.0058(13) 0.0059(14) 0.0024(14)
C25 0.056(2) 0.0197(18) 0.0233(17) 0.0030(14) 0.0077(16) 0.0038(16)
C26 0.063(3) 0.0190(18) 0.036(2) 0.0024(16) 0.0103(19) 0.0063(18)
C27 0.056(3) 0.0209(18) 0.038(2) 0.0123(16) 0.0061(19) 0.0061(17)
C28 0.044(2) 0.027(2) 0.0261(19) 0.0134(15) 0.0035(16) -0.0011(16)
C29 0.045(2) 0.0193(17) 0.0204(16) 0.0055(13) 0.0069(14) -0.0010(15)
C30 0.076(5) 0.028(4) 0.053(4) -0.006(3) 0.023(4) 0.009(5)
C31 0.091(7) 0.044(5) 0.063(6) -0.029(4) 0.040(5) -0.024(5)
C32 0.072(7) 0.050(6) 0.068(8) -0.018(6) 0.033(6) 0.007(6)
C33 0.129(8) 0.036(5) 0.082(6) -0.010(5) 0.010(6) 0.022(5)
C136 0.092(8) 0.056(7) 0.059(6) -0.008(5) 0.010(6) 0.047(6)
C137 0.091(8) 0.043(6) 0.090(8) -0.027(6) 0.032(6) -0.016(6)
C138 0.065(8) 0.045(7) 0.042(7) -0.014(5) 0.003(6) 0.020(6)
C230 0.060(6) 0.027(4) 0.055(5) -0.009(4) 0.018(5) 0.009(5)
C34 0.057(3) 0.035(2) 0.0254(19) 0.0159(17) 0.0026(17) -0.0029(19)
C35 0.060(3) 0.066(4) 0.044(3) 0.022(3) -0.002(2) 0.000(3)
C36 0.069(3) 0.058(3) 0.042(3) 0.025(2) 0.010(2) -0.013(3)
C37 0.099(4) 0.050(3) 0.023(2) 0.009(2) 0.002(2) 0.001(3)
C38 0.0384(18) 0.0180(15) 0.0110(14) 0.0025(12) 0.0071(13) -0.0004(13)
C39 0.0395(19) 0.0193(16) 0.0167(16) 0.0039(13) 0.0045(14) 0.0025(14)
C40 0.047(2) 0.0209(17) 0.0160(16) 0.0030(13) 0.0014(14) -0.0003(15)
C41 0.046(2) 0.0254(18) 0.0115(15) 0.0021(13) 0.0062(14) 0.0009(15)
C42 0.041(2) 0.0182(16) 0.0138(15) -0.0013(12) 0.0087(13) 0.0008(14)
C43 0.0382(19) 0.0222(17) 0.0108(14) 0.0023(12) 0.0038(13) 0.0001(14)
C44 0.041(2) 0.0268(18) 0.0147(16) -0.0021(13) 0.0073(14) 0.0019(15)
C45 0.046(2) 0.039(2) 0.033(2) -0.0088(18) 0.0143(17) -0.0045(18)
C46 0.054(2) 0.034(2) 0.0157(16) -0.0024(15) 0.0093(15) 0.0090(18)
C47 0.045(2) 0.047(2) 0.0229(18) 0.0093(17) 0.0089(16) 0.0130(19)
C48 0.044(5) 0.031(3) 0.013(3) 0.005(2) 0.004(2) 0.003(3)
C50 0.059(4) 0.075(6) 0.046(4) 0.039(4) -0.003(3) -0.006(4)
C49 0.057(6) 0.056(4) 0.039(5) -0.024(4) -0.014(4) 0.021(4)
C51 0.056(4) 0.064(5) 0.020(2) 0.003(3) 0.001(2) 0.031(4)
C313 0.036(10) 0.040(10) 0.019(11) 0.003(8) 0.002(8) 0.013(8)
C135 0.043(11) 0.057(14) 0.031(11) 0.027(11) -0.010(9) 0.005(10)
C140 0.056(13) 0.056(13) 0.034(11) 0.004(10) -0.013(10) 0.030(11)
C314 0.039(14) 0.042(13) 0.030(13) 0.000(10) 0.009(10) 0.023(11)
C52 0.0422(19) 0.0115(15) 0.0223(17) -0.0003(12) 0.0113(14) -0.0010(13)
C53 0.044(2) 0.0201(17) 0.0164(16) -0.0001(13) 0.0076(14) 0.0014(14)
C54 0.046(2) 0.0190(17) 0.0222(17) -0.0049(14) 0.0125(15) -0.0035(15)
C55 0.051(2) 0.0161(17) 0.031(2) -0.0001(14) 0.0139(17) 0.0036(15)
C56 0.052(2) 0.0181(17) 0.0221(17) 0.0039(14) 0.0114(16) 0.0015(15)
C57 0.047(2) 0.0181(17) 0.0183(16) 0.0025(13) 0.0091(14) 0.0005(15)
C58 0.053(2) 0.0269(19) 0.028(2) -0.0112(16) 0.0100(17) 0.0000(17)
C59 0.064(3) 0.035(2) 0.032(2) -0.0095(17) 0.022(2) -0.002(2)
C60 0.075(3) 0.042(3) 0.029(2) -0.0129(19) -0.002(2) 0.007(2)
C61 0.060(3) 0.030(2) 0.047(3) -0.0178(19) 0.017(2) -0.0097(19)
C62 0.065(3) 0.0201(18) 0.028(2) 0.0090(15) 0.0114(19) 0.0044(18)
C63 0.057(3) 0.050(3) 0.040(2) 0.019(2) 0.001(2) 0.003(2)
C64 0.069(3) 0.047(3) 0.032(2) 0.017(2) 0.014(2) -0.003(2)
C65 0.146(6) 0.023(2) 0.040(3) 0.007(2) 0.002(3) 0.022(3)
Cl1 0.0772(9) 0.0387(6) 0.0522(7) 0.0040(5) 0.0078(6) 0.0105(5)
Cl2 0.1309(17) 0.0790(12) 0.0696(10) -0.0119(9) 0.0381(11) -0.0367(11)
C131 0.075(4) 0.048(3) 0.067(4) -0.013(3) 0.011(3) -0.005(3)
loop_
_atom_type_symbol
_atom_type_description
_atom_type_scat_dispersion_real
_atom_type_scat_dispersion_imag
_atom_type_scat_source
C C 0.0181 0.0091 'International Tables Vol C Tables 4.2.6.8 and 6.1.1.4'
H H 0.0000 0.0000 'International Tables Vol C Tables 4.2.6.8 and 6.1.1.4'
Br Br -0.6763 1.2805 'International Tables Vol C Tables 4.2.6.8 and 6.1.1.4'
Cl Cl 0.3639 0.7018 'International Tables Vol C Tables 4.2.6.8 and 6.1.1.4'
N N 0.0311 0.0180 'International Tables Vol C Tables 4.2.6.8 and 6.1.1.4'
Ni Ni -3.0029 0.5091 'International Tables Vol C Tables 4.2.6.8 and 6.1.1.4'
loop_
_geom_angle_atom_site_label_1
_geom_angle_atom_site_label_2
_geom_angle_atom_site_label_3
_geom_angle
N3 Ni1 N4 90.05(12)
N3 Ni1 N1 178.53(12)
N4 Ni1 N1 90.32(12)
N3 Ni1 N2 89.83(12)
N4 Ni1 N2 178.38(12)
N1 Ni1 N2 89.83(12)
C1 N1 C4 104.7(3)
C1 N1 Ni1 127.2(2)
C4 N1 Ni1 128.0(2)
C9 N2 C6 104.3(3)
C9 N2 Ni1 128.0(2)
C6 N2 Ni1 127.7(2)
C11 N3 C14 104.9(3)
C11 N3 Ni1 126.9(2)
C14 N3 Ni1 128.2(2)
C19 N4 C16 105.1(3)
C19 N4 Ni1 127.4(2)
C16 N4 Ni1 127.5(2)
C20 C1 N1 125.0(3)
C20 C1 C2 125.6(3)
N1 C1 C2 109.1(3)
C3 C2 C1 109.0(3)
C3 C2 Br1 124.4(3)
C1 C2 Br1 125.9(3)
C2 C3 C4 106.1(3)
C2 C3 H1 126.9
C4 C3 H1 126.9
C5 C4 N1 125.6(3)
C5 C4 C3 123.4(3)
N1 C4 C3 110.9(3)
C4 C5 C6 121.7(3)
C4 C5 C24 116.8(3)
C6 C5 C24 121.5(3)
C5 C6 N2 124.7(3)
C5 C6 C7 124.4(3)
N2 C6 C7 110.3(3)
C8 C7 C6 107.5(3)
C8 C7 H2 126.3
C6 C7 H2 126.3
C7 C8 C9 107.0(3)
C7 C8 H3 126.5
C9 C8 H3 126.5
N2 C9 C10 124.1(3)
N2 C9 C8 110.8(3)
C10 C9 C8 125.0(3)
C11 C10 C9 121.1(3)
C11 C10 C38 118.4(3)
C9 C10 C38 120.6(3)
N3 C11 C10 126.2(3)
N3 C11 C12 110.7(3)
C10 C11 C12 122.7(3)
C13 C12 C11 106.7(3)
C13 C12 H4 126.7
C11 C12 H4 126.7
C12 C13 C14 107.1(3)
C12 C13 H5 126.5
C14 C13 H5 126.5
C15 C14 N3 124.7(3)
C15 C14 C13 124.5(3)
N3 C14 C13 110.5(3)
C14 C15 C16 121.9(3)
C14 C15 C52 120.1(3)
C16 C15 C52 117.6(3)
C15 C16 N4 125.4(3)
C15 C16 C17 124.0(3)
N4 C16 C17 110.4(3)
C18 C17 C16 106.8(3)
C18 C17 H6 126.6
C16 C17 H6 126.6
C17 C18 C19 107.2(3)
C17 C18 C21 125.4(3)
C19 C18 C21 127.3(3)
C20 C19 N4 125.3(3)
C20 C19 C18 124.1(3)
N4 C19 C18 110.5(3)
C19 C20 C1 122.9(3)
C19 C20 H7 118.6
C1 C20 H7 118.6
C22 C21 C23 117.0(4)
C22 C21 C18 111.3(3)
C23 C21 C18 107.1(3)
C22 C21 H32 107.0
C23 C21 H32 107.0
C18 C21 H32 107.0
N5 C22 C21 178.0(5)
N6 C23 C21 178.0(5)
C25 C24 C29 119.9(3)
C25 C24 C5 123.2(3)
C29 C24 C5 116.8(3)
C24 C25 C26 120.5(4)
C24 C25 H8 119.8
C26 C25 H8 119.8
C27 C26 C25 117.8(4)
C27 C26 C30 123.4(6)
C25 C26 C30 118.1(6)
C27 C26 C230 120.7(7)
C25 C26 C230 121.1(7)
C26 C27 C28 123.0(4)
C26 C27 H9 118.5
C28 C27 H9 118.5
C29 C28 C27 117.4(4)
C29 C28 C34 121.7(4)
C27 C28 C34 120.9(4)
C28 C29 C24 121.3(4)
C28 C29 H10 119.3
C24 C29 H10 119.3
C33 C30 C26 110.0(11)
C33 C30 C32 111.5(12)
C26 C30 C32 106.7(12)
C33 C30 C31 108.8(12)
C26 C30 C31 113.8(10)
C32 C30 C31 106.1(12)
C30 C31 H108 109.5
C30 C31 H109 109.5
H108 C31 H109 109.5
C30 C31 H110 109.5
H108 C31 H110 109.5
H109 C31 H110 109.5
C30 C32 H111 109.5
C30 C32 H112 109.5
H111 C32 H112 109.5
C30 C32 H113 109.5
H111 C32 H113 109.5
H112 C32 H113 109.5
C30 C33 H114 109.5
C30 C33 H115 109.5
H114 C33 H115 109.5
C30 C33 H116 109.5
H114 C33 H116 109.5
H115 C33 H116 109.5
C230 C136 H117 109.5
C230 C136 H118 109.5
H117 C136 H118 109.5
C230 C136 H119 109.5
H117 C136 H119 109.5
H118 C136 H119 109.5
C230 C137 H120 109.5
C230 C137 H121 109.5
H120 C137 H121 109.5
C230 C137 H122 109.5
H120 C137 H122 109.5
H121 C137 H122 109.5
C230 C138 H123 109.5
C230 C138 H124 109.5
H123 C138 H124 109.5
C230 C138 H125 109.5
H123 C138 H125 109.5
H124 C138 H125 109.5
C137 C230 C136 110.9(15)
C137 C230 C138 108.1(16)
C136 C230 C138 108.5(14)
C137 C230 C26 103.8(13)
C136 C230 C26 113.4(14)
C138 C230 C26 112.0(16)
C35 C34 C36 110.9(4)
C35 C34 C28 110.5(4)
C36 C34 C28 108.5(4)
C35 C34 C37 106.9(5)
C36 C34 C37 107.7(5)
C28 C34 C37 112.2(4)
C34 C35 H33 109.5
C34 C35 H34 109.5
H33 C35 H34 109.5
C34 C35 H35 109.5
H33 C35 H35 109.5
H34 C35 H35 109.5
C34 C36 H36 109.5
C34 C36 H37 109.5
H36 C36 H37 109.5
C34 C36 H38 109.5
H36 C36 H38 109.5
H37 C36 H38 109.5
C34 C37 H39 109.5
C34 C37 H40 109.5
H39 C37 H40 109.5
C34 C37 H41 109.5
H39 C37 H41 109.5
H40 C37 H41 109.5
C43 C38 C39 119.9(3)
C43 C38 C10 123.5(3)
C39 C38 C10 116.5(3)
C40 C39 C38 120.7(4)
C40 C39 H11 119.7
C38 C39 H11 119.7
C41 C40 C39 117.6(3)
C41 C40 C48 122.7(4)
C39 C40 C48 119.8(5)
C41 C40 C313 113.2(11)
C39 C40 C313 129.3(11)
C42 C41 C40 123.2(3)
C42 C41 H12 118.4
C40 C41 H12 118.4
C41 C42 C43 117.5(3)
C41 C42 C44 122.3(3)
C43 C42 C44 120.2(3)
C38 C43 C42 120.9(3)
C38 C43 H13 119.5
C42 C43 H13 119.5
C42 C44 C47 110.8(3)
C42 C44 C46 111.9(3)
C47 C44 C46 106.8(3)
C42 C44 C45 108.6(3)
C47 C44 C45 109.7(4)
C46 C44 C45 109.0(3)
C44 C45 H42 109.5
C44 C45 H43 109.5
H42 C45 H43 109.5
C44 C45 H44 109.5
H42 C45 H44 109.5
H43 C45 H44 109.5
C44 C46 H45 109.5
C44 C46 H46 109.5
H45 C46 H46 109.5
C44 C46 H47 109.5
H45 C46 H47 109.5
H46 C46 H47 109.5
C44 C47 H48 109.5
C44 C47 H49 109.5
H48 C47 H49 109.5
C44 C47 H50 109.5
H48 C47 H50 109.5
H49 C47 H50 109.5
C51 C48 C50 107.0(9)
C51 C48 C40 114.2(8)
C50 C48 C40 108.3(8)
C51 C48 C49 108.8(9)
C50 C48 C49 110.3(10)
C40 C48 C49 108.2(10)
C48 C50 H126 109.5
C48 C50 H127 109.5
H126 C50 H127 109.5
C48 C50 H128 109.5
H126 C50 H128 109.5
H127 C50 H128 109.5
C48 C49 H129 109.5
C48 C49 H130 109.5
H129 C49 H130 109.5
C48 C49 H131 109.5
H129 C49 H131 109.5
H130 C49 H131 109.5
C48 C51 H132 109.5
C48 C51 H133 109.5
H132 C51 H133 109.5
C48 C51 H134 109.5
H132 C51 H134 109.5
H133 C51 H134 109.5
C140 C313 C314 110(4)
C140 C313 C135 107(4)
C314 C313 C135 106(4)
C140 C313 C40 106(3)
C314 C313 C40 110(4)
C135 C313 C40 118(4)
C313 C135 H135 109.5
C313 C135 H136 109.5
H135 C135 H136 109.5
C313 C135 H137 109.5
H135 C135 H137 109.5
H136 C135 H137 109.5
C313 C140 H138 109.5
C313 C140 H139 109.5
H138 C140 H139 109.5
C313 C140 H140 109.5
H138 C140 H140 109.5
H139 C140 H140 109.5
C313 C314 H141 109.5
C313 C314 H142 109.5
H141 C314 H142 109.5
C313 C314 H143 109.5
H141 C314 H143 109.5
H142 C314 H143 109.5
C57 C52 C53 120.0(3)
C57 C52 C15 120.0(3)
C53 C52 C15 119.8(3)
C54 C53 C52 120.5(3)
C54 C53 H14 119.7
C52 C53 H14 119.7
C53 C54 C55 117.9(3)
C53 C54 C58 121.2(3)
C55 C54 C58 120.7(3)
C56 C55 C54 122.9(3)
C56 C55 H15 118.5
C54 C55 H15 118.5
C55 C56 C57 117.5(3)
C55 C56 C62 124.1(3)
C57 C56 C62 118.4(3)
C52 C57 C56 121.1(3)
C52 C57 H16 119.5
C56 C57 H16 119.5
C54 C58 C60 112.7(3)
C54 C58 C59 107.1(4)
C60 C58 C59 108.4(4)
C54 C58 C61 110.7(4)
C60 C58 C61 108.2(4)
C59 C58 C61 109.7(4)
C58 C59 H51 109.5
C58 C59 H52 109.5
H51 C59 H52 109.5
C58 C59 H53 109.5
H51 C59 H53 109.5
H52 C59 H53 109.5
C58 C60 H54 109.5
C58 C60 H55 109.5
H54 C60 H55 109.5
C58 C60 H56 109.5
H54 C60 H56 109.5
H55 C60 H56 109.5
C58 C61 H57 109.5
C58 C61 H58 109.5
H57 C61 H58 109.5
C58 C61 H59 109.5
H57 C61 H59 109.5
H58 C61 H59 109.5
C65 C62 C56 112.4(4)
C65 C62 C64 109.1(4)
C56 C62 C64 108.4(4)
C65 C62 C63 108.8(5)
C56 C62 C63 109.7(3)
C64 C62 C63 108.3(4)
C62 C63 H60 109.5
C62 C63 H61 109.5
H60 C63 H61 109.5
C62 C63 H62 109.5
H60 C63 H62 109.5
H61 C63 H62 109.5
C62 C64 H63 109.5
C62 C64 H64 109.5
H63 C64 H64 109.5
C62 C64 H65 109.5
H63 C64 H65 109.5
H64 C64 H65 109.5
C62 C65 H66 109.5
C62 C65 H67 109.5
H66 C65 H67 109.5
C62 C65 H68 109.5
H66 C65 H68 109.5
H67 C65 H68 109.5
Cl1 C131 Cl2 111.3(3)
Cl1 C131 H106 109.4
Cl2 C131 H106 109.4
Cl1 C131 H107 109.4
Cl2 C131 H107 109.4
H106 C131 H107 108.0
loop_
_geom_bond_atom_site_label_1
_geom_bond_atom_site_label_2
_geom_bond_distance
Br1 C2 1.849(4)
Ni1 N3 1.922(3)
Ni1 N4 1.929(3)
Ni1 N1 1.930(3)
Ni1 N2 1.931(3)
N1 C1 1.385(5)
N1 C4 1.386(5)
N2 C9 1.391(4)
N2 C6 1.397(4)
N3 C11 1.379(4)
N3 C14 1.387(4)
N4 C19 1.377(5)
N4 C16 1.389(4)
N5 C22 1.132(6)
N6 C23 1.135(6)
C1 C20 1.377(5)
C1 C2 1.432(5)
C2 C3 1.329(6)
C3 C4 1.431(5)
C3 H1 0.9500
C4 C5 1.383(6)
C5 C6 1.391(5)
C5 C24 1.492(5)
C6 C7 1.432(5)
C7 C8 1.351(5)
C7 H2 0.9500
C8 C9 1.432(5)
C8 H3 0.9500
C9 C10 1.392(5)
C10 C11 1.383(5)
C10 C38 1.502(4)
C11 C12 1.441(5)
C12 C13 1.357(5)
C12 H4 0.9500
C13 C14 1.435(5)
C13 H5 0.9500
C14 C15 1.387(5)
C15 C16 1.388(5)
C15 C52 1.489(4)
C16 C17 1.432(5)
C17 C18 1.357(5)
C17 H6 0.9500
C18 C19 1.433(5)
C18 C21 1.598(5)
C19 C20 1.374(5)
C20 H7 0.9500
C21 C22 1.381(6)
C21 C23 1.473(5)
C21 H32 1.0000
C24 C25 1.385(5)
C24 C29 1.393(5)
C25 C26 1.404(6)
C25 H8 0.9500
C26 C27 1.389(6)
C26 C30 1.53(2)
C26 C230 1.56(3)
C27 C28 1.396(6)
C27 H9 0.9500
C28 C29 1.386(5)
C28 C34 1.532(5)
C29 H10 0.9500
C30 C33 1.524(16)
C30 C32 1.559(16)
C30 C31 1.571(16)
C31 H108 0.9800
C31 H109 0.9800
C31 H110 0.9800
C32 H111 0.9800
C32 H112 0.9800
C32 H113 0.9800
C33 H114 0.9800
C33 H115 0.9800
C33 H116 0.9800
C136 C230 1.530(18)
C136 H117 0.9800
C136 H118 0.9800
C136 H119 0.9800
C137 C230 1.528(19)
C137 H120 0.9800
C137 H121 0.9800
C137 H122 0.9800
C138 C230 1.56(2)
C138 H123 0.9800
C138 H124 0.9800
C138 H125 0.9800
C34 C35 1.519(7)
C34 C36 1.530(6)
C34 C37 1.533(7)
C35 H33 0.9800
C35 H34 0.9800
C35 H35 0.9800
C36 H36 0.9800
C36 H37 0.9800
C36 H38 0.9800
C37 H39 0.9800
C37 H40 0.9800
C37 H41 0.9800
C38 C43 1.386(5)
C38 C39 1.402(5)
C39 C40 1.398(5)
C39 H11 0.9500
C40 C41 1.396(6)
C40 C48 1.540(19)
C40 C313 1.53(8)
C41 C42 1.392(5)
C41 H12 0.9500
C42 C43 1.403(5)
C42 C44 1.530(5)
C43 H13 0.9500
C44 C47 1.532(5)
C44 C46 1.532(5)
C44 C45 1.542(6)
C45 H42 0.9800
C45 H43 0.9800
C45 H44 0.9800
C46 H45 0.9800
C46 H46 0.9800
C46 H47 0.9800
C47 H48 0.9800
C47 H49 0.9800
C47 H50 0.9800
C48 C51 1.526(12)
C48 C50 1.536(11)
C48 C49 1.540(11)
C50 H126 0.9800
C50 H127 0.9800
C50 H128 0.9800
C49 H129 0.9800
C49 H130 0.9800
C49 H131 0.9800
C51 H132 0.9800
C51 H133 0.9800
C51 H134 0.9800
C313 C140 1.48(4)
C313 C314 1.49(4)
C313 C135 1.49(4)
C135 H135 0.9800
C135 H136 0.9800
C135 H137 0.9800
C140 H138 0.9800
C140 H139 0.9800
C140 H140 0.9800
C314 H141 0.9800
C314 H142 0.9800
C314 H143 0.9800
C52 C57 1.384(5)
C52 C53 1.398(5)
C53 C54 1.395(5)
C53 H14 0.9500
C54 C55 1.399(6)
C54 C58 1.530(5)
C55 C56 1.389(6)
C55 H15 0.9500
C56 C57 1.403(5)
C56 C62 1.535(5)
C57 H16 0.9500
C58 C60 1.534(7)
C58 C59 1.534(6)
C58 C61 1.543(6)
C59 H51 0.9800
C59 H52 0.9800
C59 H53 0.9800
C60 H54 0.9800
C60 H55 0.9800
C60 H56 0.9800
C61 H57 0.9800
C61 H58 0.9800
C61 H59 0.9800
C62 C65 1.521(6)
C62 C64 1.542(7)
C62 C63 1.543(7)
C63 H60 0.9800
C63 H61 0.9800
C63 H62 0.9800
C64 H63 0.9800
C64 H64 0.9800
C64 H65 0.9800
C65 H66 0.9800
C65 H67 0.9800
C65 H68 0.9800
Cl1 C131 1.749(6)
Cl2 C131 1.772(7)
C131 H106 0.9900
C131 H107 0.9900
loop_
_geom_torsion_atom_site_label_1
_geom_torsion_atom_site_label_2
_geom_torsion_atom_site_label_3
_geom_torsion_atom_site_label_4
_geom_torsion
C4 N1 C1 C20 -172.4(3)
Ni1 N1 C1 C20 8.4(5)
C4 N1 C1 C2 1.4(4)
Ni1 N1 C1 C2 -177.8(2)
C20 C1 C2 C3 172.7(4)
N1 C1 C2 C3 -1.1(4)
C20 C1 C2 Br1 1.6(6)
N1 C1 C2 Br1 -172.2(3)
C1 C2 C3 C4 0.3(4)
Br1 C2 C3 C4 171.6(3)
C1 N1 C4 C5 -178.1(3)
Ni1 N1 C4 C5 1.0(5)
C1 N1 C4 C3 -1.2(4)
Ni1 N1 C4 C3 177.9(2)
C2 C3 C4 C5 177.6(3)
C2 C3 C4 N1 0.6(4)
N1 C4 C5 C6 9.9(6)
C3 C4 C5 C6 -166.7(3)
N1 C4 C5 C24 -170.7(3)
C3 C4 C5 C24 12.7(5)
C4 C5 C6 N2 -4.7(6)
C24 C5 C6 N2 175.9(3)
C4 C5 C6 C7 165.5(4)
C24 C5 C6 C7 -13.9(6)
C9 N2 C6 C5 168.1(3)
Ni1 N2 C6 C5 -11.0(5)
C9 N2 C6 C7 -3.3(4)
Ni1 N2 C6 C7 177.6(2)
C5 C6 C7 C8 -166.8(4)
N2 C6 C7 C8 4.6(4)
C6 C7 C8 C9 -3.9(4)
C6 N2 C9 C10 177.6(3)
Ni1 N2 C9 C10 -3.2(5)
C6 N2 C9 C8 0.8(4)
Ni1 N2 C9 C8 -180.0(2)
C7 C8 C9 N2 2.0(4)
C7 C8 C9 C10 -174.8(4)
N2 C9 C10 C11 -13.8(5)
C8 C9 C10 C11 162.5(3)
N2 C9 C10 C38 165.9(3)
C8 C9 C10 C38 -17.8(5)
C14 N3 C11 C10 -173.1(3)
Ni1 N3 C11 C10 7.3(5)
C14 N3 C11 C12 -0.4(4)
Ni1 N3 C11 C12 -179.9(3)
C9 C10 C11 N3 11.9(6)
C38 C10 C11 N3 -167.9(3)
C9 C10 C11 C12 -160.1(4)
C38 C10 C11 C12 20.2(5)
N3 C11 C12 C13 -2.6(5)
C10 C11 C12 C13 170.5(4)
C11 C12 C13 C14 4.3(5)
C11 N3 C14 C15 -170.5(3)
Ni1 N3 C14 C15 9.0(5)
C11 N3 C14 C13 3.1(4)
Ni1 N3 C14 C13 -177.3(3)
C12 C13 C14 C15 168.8(4)
C12 C13 C14 N3 -4.8(5)
N3 C14 C15 C16 4.9(6)
C13 C14 C15 C16 -167.9(4)
N3 C14 C15 C52 176.9(3)
C13 C14 C15 C52 4.1(6)
C14 C15 C16 N4 -6.7(6)
C52 C15 C16 N4 -178.9(3)
C14 C15 C16 C17 167.2(3)
C52 C15 C16 C17 -5.0(5)
C19 N4 C16 C15 174.2(3)
Ni1 N4 C16 C15 -5.4(5)
C19 N4 C16 C17 -0.3(4)
Ni1 N4 C16 C17 -180.0(2)
C15 C16 C17 C18 -173.6(3)
N4 C16 C17 C18 1.0(4)
C16 C17 C18 C19 -1.3(4)
C16 C17 C18 C21 -178.3(3)
C16 N4 C19 C20 175.4(3)
Ni1 N4 C19 C20 -4.9(5)
C16 N4 C19 C18 -0.5(4)
Ni1 N4 C19 C18 179.2(2)
C17 C18 C19 C20 -174.8(3)
C21 C18 C19 C20 2.1(6)
C17 C18 C19 N4 1.2(4)
C21 C18 C19 N4 178.1(3)
N4 C19 C20 C1 -6.3(6)
C18 C19 C20 C1 169.1(3)
N1 C1 C20 C19 4.5(6)
C2 C1 C20 C19 -168.4(4)
C17 C18 C21 C22 -9.2(5)
C19 C18 C21 C22 174.4(4)
C17 C18 C21 C23 119.8(4)
C19 C18 C21 C23 -56.6(5)
C4 C5 C24 C25 -120.6(4)
C6 C5 C24 C25 58.8(6)
C4 C5 C24 C29 57.1(5)
C6 C5 C24 C29 -123.5(4)
C29 C24 C25 C26 2.9(7)
C5 C24 C25 C26 -179.4(4)
C24 C25 C26 C27 -3.5(7)
C24 C25 C26 C30 -174.4(7)
C24 C25 C26 C230 169.4(8)
C25 C26 C27 C28 1.6(7)
C30 C26 C27 C28 171.9(7)
C230 C26 C27 C28 -171.4(8)
C26 C27 C28 C29 1.0(7)
C26 C27 C28 C34 -178.8(4)
C27 C28 C29 C24 -1.7(6)
C34 C28 C29 C24 178.1(4)
C25 C24 C29 C28 -0.2(6)
C5 C24 C29 C28 -178.1(4)
C27 C26 C30 C33 7.5(13)
C25 C26 C30 C33 177.8(8)
C27 C26 C30 C32 128.5(9)
C25 C26 C30 C32 -61.2(12)
C27 C26 C30 C31 -114.8(9)
C25 C26 C30 C31 55.5(11)
C27 C26 C230 C137 -88.0(12)
C25 C26 C230 C137 99.3(12)
C27 C26 C230 C136 32.5(15)
C25 C26 C230 C136 -140.3(11)
C27 C26 C230 C138 155.7(10)
C25 C26 C230 C138 -17.1(15)
C29 C28 C34 C35 121.6(5)
C27 C28 C34 C35 -58.6(6)
C29 C28 C34 C36 -116.6(5)
C27 C28 C34 C36 63.2(6)
C29 C28 C34 C37 2.3(6)
C27 C28 C34 C37 -177.9(5)
C11 C10 C38 C43 -122.4(4)
C9 C10 C38 C43 57.8(5)
C11 C10 C38 C39 61.1(4)
C9 C10 C38 C39 -118.7(4)
C43 C38 C39 C40 -0.1(5)
C10 C38 C39 C40 176.6(3)
C38 C39 C40 C41 -2.9(5)
C38 C39 C40 C48 178.6(5)
C38 C39 C40 C313 177.4(16)
C39 C40 C41 C42 2.6(6)
C48 C40 C41 C42 -178.9(5)
C313 C40 C41 C42 -177.7(14)
C40 C41 C42 C43 0.8(6)
C40 C41 C42 C44 179.7(3)
C39 C38 C43 C42 3.6(5)
C10 C38 C43 C42 -172.8(3)
C41 C42 C43 C38 -3.9(5)
C44 C42 C43 C38 177.1(3)
C41 C42 C44 C47 142.9(4)
C43 C42 C44 C47 -38.1(5)
C41 C42 C44 C46 23.9(5)
C43 C42 C44 C46 -157.2(3)
C41 C42 C44 C45 -96.5(4)
C43 C42 C44 C45 82.4(4)
C41 C40 C48 C51 173.7(6)
C39 C40 C48 C51 -7.9(9)
C41 C40 C48 C50 54.6(8)
C39 C40 C48 C50 -127.0(7)
C41 C40 C48 C49 -64.9(8)
C39 C40 C48 C49 113.5(8)
C41 C40 C313 C140 142.8(16)
C39 C40 C313 C140 -38(2)
C41 C40 C313 C314 -98(2)
C39 C40 C313 C314 82(2)
C41 C40 C313 C135 23(3)
C39 C40 C313 C135 -157.2(16)
C14 C15 C52 C57 -63.3(5)
C16 C15 C52 C57 109.1(4)
C14 C15 C52 C53 122.0(4)
C16 C15 C52 C53 -65.7(5)
C57 C52 C53 C54 -0.8(6)
C15 C52 C53 C54 173.9(4)
C52 C53 C54 C55 1.7(6)
C52 C53 C54 C58 -173.5(4)
C53 C54 C55 C56 -0.6(6)
C58 C54 C55 C56 174.6(4)
C54 C55 C56 C57 -1.3(6)
C54 C55 C56 C62 179.9(4)
C53 C52 C57 C56 -1.1(6)
C15 C52 C57 C56 -175.9(4)
C55 C56 C57 C52 2.1(6)
C62 C56 C57 C52 -178.9(4)
C53 C54 C58 C60 -17.2(6)
C55 C54 C58 C60 167.7(4)
C53 C54 C58 C59 101.9(5)
C55 C54 C58 C59 -73.1(5)
C53 C54 C58 C61 -138.5(4)
C55 C54 C58 C61 46.4(6)
C55 C56 C62 C65 1.0(7)
C57 C56 C62 C65 -177.9(5)
C55 C56 C62 C64 -119.7(5)
C57 C56 C62 C64 61.5(5)
C55 C56 C62 C63 122.2(5)
C57 C56 C62 C63 -56.6(5)
