#------------------------------------------------------------------------------
#$Date: 2019-06-18 03:20:27 +0300 (Tue, 18 Jun 2019) $
#$Revision: 216034 $
#$URL: file:///home/coder/svn-repositories/cod/cif/1/55/14/1551471.cif $
#------------------------------------------------------------------------------
#
# This file is available in the Crystallography Open Database (COD),
# http://www.crystallography.net/
#
# All data on this site have been placed in the public domain by the
# contributors.
#
data_1551471
loop_
_publ_author_name
'Li, Chengming'
'Zhu, Lei'
'Liang, Wenbo'
'Su, Rongchuan'
'Yin, Jiangliang'
'Hu, Yanmei'
'Lan, Yu'
'Wu, Di'
'You, Jingsong'
_publ_section_title
;
 Unusual [4+2] Fusion Strategy to Forge meso-N/O-Heteroarene-Fused
 (Quinoidal) Porphyrins with Intense Near-Infrared Q-Bands
;
_journal_name_full               'Chemical Science'
_journal_paper_doi               10.1039/C9SC01596E
_journal_year                    2019
_chemical_formula_moiety         'C34 H24 N6 O2 Zn'
_chemical_formula_sum            'C34 H24 N6 O2 Zn'
_chemical_formula_weight         613.96
_space_group_crystal_system      monoclinic
_space_group_IT_number           15
_space_group_name_Hall           '-C 2yc'
_space_group_name_H-M_alt        'C 1 2/c 1'
_symmetry_space_group_name_Hall  '-C 2yc'
_symmetry_space_group_name_H-M   'C 1 2/c 1'
_atom_sites_solution_hydrogens   geom
_atom_sites_solution_primary     direct
_audit_creation_date             2018-05-22
_audit_creation_method
;
Olex2 1.2
(compiled 2017.08.10 svn.r3458 for OlexSys, GUI svn.r5381)
;
_audit_update_record
;
2018-07-24 deposited with the CCDC.    2019-06-17 downloaded from the CCDC.
;
_cell_angle_alpha                90
_cell_angle_beta                 114.758(4)
_cell_angle_gamma                90
_cell_formula_units_Z            4
_cell_length_a                   11.1672(4)
_cell_length_b                   27.7657(7)
_cell_length_c                   9.6241(3)
_cell_measurement_reflns_used    3566
_cell_measurement_temperature    296.4(5)
_cell_measurement_theta_max      72.8410
_cell_measurement_theta_min      4.6090
_cell_volume                     2709.81(17)
_computing_cell_refinement       'CrysAlisPro 1.171.38.46 (Rigaku OD, 2015)'
_computing_data_collection       'CrysAlisPro 1.171.38.46 (Rigaku OD, 2015)'
_computing_data_reduction        'CrysAlisPro 1.171.38.46 (Rigaku OD, 2015)'
_computing_molecular_graphics    'Olex2 (Dolomanov et al., 2009)'
_computing_publication_material  'Olex2 (Dolomanov et al., 2009)'
_computing_structure_refinement  'ShelXL (Sheldrick, 2015)'
_computing_structure_solution    'ShelXT (Sheldrick, 2015)'
_diffrn_ambient_environment      air
_diffrn_ambient_temperature      296.4(5)
_diffrn_detector                 'CCD plate'
_diffrn_detector_area_resol_mean 15.9595
_diffrn_detector_type            EosS2
_diffrn_measured_fraction_theta_full 1.000
_diffrn_measured_fraction_theta_max 0.987
_diffrn_measurement_details
;
List of Runs (angles in degrees, time in seconds):

  # Type    Start    End  Width  t~exp~   \w     \q     \k     \f   Frames
#--------------------------------------------------------------------------
  1  \w   -104.00 -20.00   1.00    6.99    --  -36.54 -57.00  30.00   84
  2  \w    -53.00  31.00   1.00    6.99    --  -36.54  57.00  30.00   84
  3  \w   -104.00 -20.00   1.00    6.99    --  -36.54 -57.00 -90.00   84
  4  \w      1.00  75.00   1.00    6.99    --   36.54 -99.00  60.00   74
  5  \w     23.00  90.00   1.00    6.99    --   36.54-125.00-120.00   67
  6  \w     82.00 176.00   1.00   27.96    --  108.71  77.00  60.00   94
  7  \w     39.00 109.00   1.00   27.96    --  108.71 -94.00-180.00   70
  8  \w     40.00 126.00   1.00   27.96    --  108.71 -45.00 -90.00   86
  9  \w     91.00 176.00   1.00   27.96    --  108.71  61.00  30.00   85
 10  \w     39.00 109.00   1.00   27.96    --  108.71 -94.00 120.00   70
 11  \w    100.00 178.00   1.00   27.96    --  108.71 111.00-120.00   78
 12  \w    100.00 178.00   1.00   27.96    --  108.71 111.00 120.00   78
 13  \w     39.00 115.00   1.00   27.96    --  108.71-111.00 -60.00   76
 14  \w     41.00 135.00   1.00   27.96    --  108.71 -77.00 -60.00   94
 15  \w   -104.00 -38.00   1.00    6.99    --  -36.54 -77.00 150.00   66
;
_diffrn_measurement_device       'four-circle diffractometer'
_diffrn_measurement_device_type  'New Gemini, Dual, Cu at zero, EosS2'
_diffrn_measurement_method       '\w scans'
_diffrn_orient_matrix_type
'CrysAlisPro convention (1999,Acta A55,543-557)'
_diffrn_orient_matrix_UB_11      -0.0089931000
_diffrn_orient_matrix_UB_12      0.0545354000
_diffrn_orient_matrix_UB_13      -0.0322667000
_diffrn_orient_matrix_UB_21      -0.1514025000
_diffrn_orient_matrix_UB_22      -0.0037519000
_diffrn_orient_matrix_UB_23      -0.0810510000
_diffrn_orient_matrix_UB_31      -0.0087300000
_diffrn_orient_matrix_UB_32      0.0094911000
_diffrn_orient_matrix_UB_33      0.1532108000
_diffrn_radiation_monochromator  graphite
_diffrn_radiation_probe          x-ray
_diffrn_radiation_type           CuK\a
_diffrn_radiation_wavelength     1.54184
_diffrn_reflns_av_R_equivalents  0.0263
_diffrn_reflns_av_unetI/netI     0.0250
_diffrn_reflns_Laue_measured_fraction_full 1.000
_diffrn_reflns_Laue_measured_fraction_max 0.987
_diffrn_reflns_limit_h_max       13
_diffrn_reflns_limit_h_min       -13
_diffrn_reflns_limit_k_max       34
_diffrn_reflns_limit_k_min       -32
_diffrn_reflns_limit_l_max       11
_diffrn_reflns_limit_l_min       -7
_diffrn_reflns_number            7639
_diffrn_reflns_point_group_measured_fraction_full 1.000
_diffrn_reflns_point_group_measured_fraction_max 0.987
_diffrn_reflns_theta_full        67.684
_diffrn_reflns_theta_max         72.852
_diffrn_reflns_theta_min         4.642
_diffrn_source                   'fine-focus sealed X-ray tube'
_diffrn_source_type              'Enhance (Cu) X-ray Source'
_exptl_absorpt_coefficient_mu    1.625
_exptl_absorpt_correction_T_max  1.00000
_exptl_absorpt_correction_T_min  0.60474
_exptl_absorpt_correction_type   multi-scan
_exptl_absorpt_process_details
;
CrysAlisPro 1.171.38.46 (Rigaku Oxford Diffraction, 2015)
Empirical absorption correction using spherical harmonics,
 implemented in SCALE3 ABSPACK scaling algorithm.
;
_exptl_crystal_colour            'dull blackish black'
_exptl_crystal_colour_lustre     dull
_exptl_crystal_colour_modifier   blackish
_exptl_crystal_colour_primary    black
_exptl_crystal_density_diffrn    1.505
_exptl_crystal_description       needle
_exptl_crystal_F_000             1264
_exptl_crystal_size_max          0.45
_exptl_crystal_size_mid          0.2
_exptl_crystal_size_min          0.1
_refine_diff_density_max         0.963
_refine_diff_density_min         -0.609
_refine_diff_density_rms         0.093
_refine_ls_extinction_method     none
_refine_ls_goodness_of_fit_ref   1.040
_refine_ls_hydrogen_treatment    constr
_refine_ls_matrix_type           full
_refine_ls_number_parameters     199
_refine_ls_number_reflns         2670
_refine_ls_number_restraints     7
_refine_ls_restrained_S_all      1.047
_refine_ls_R_factor_all          0.0706
_refine_ls_R_factor_gt           0.0623
_refine_ls_shift/su_max          0.000
_refine_ls_shift/su_mean         0.000
_refine_ls_structure_factor_coef Fsqd
_refine_ls_weighting_details
'w=1/[\s^2^(Fo^2^)+(0.1317P)^2^+2.4419P] where P=(Fo^2^+2Fc^2^)/3'
_refine_ls_weighting_scheme      calc
_refine_ls_wR_factor_gt          0.1746
_refine_ls_wR_factor_ref         0.1856
_reflns_Friedel_coverage         0.000
_reflns_number_gt                2233
_reflns_number_total             2670
_reflns_threshold_expression     'I > 2\s(I)'
_iucr_refine_instructions_details
;

    lcm-386.res created by SHELXL-2014/7

TITL lcm-386_a.res in C2/c
REM Old TITL lcm-386 in C2/c #15
REM SHELXT solution in C2/c
REM R1 0.171, Rweak 0.028, Alpha 0.034, Orientation as input
REM Formula found by SHELXT: C33 N5 O4 Zn
CELL 1.54184 11.167184 27.76569 9.624139 90 114.7578 90
ZERR 4 0.000391 0.000655 0.000335 0 0.0043 0
LATT 7
SYMM -X,+Y,0.5-Z
SFAC C H N O Zn
UNIT 136 96 24 8 4
DELU 0.001 0.001 C00B N005
SIMU 0.001 0.002 2 C00B N005
 
L.S. 10
PLAN  20
BOND $H
LIST 6
fmap 2
acta
REM <olex2.extras>
REM <HklSrc "%.\\lcm-386.hkl">
REM </olex2.extras>
 
WGHT    0.131700    2.441900
FVAR       0.20563
ZN01  5    0.500000    0.454452    0.750000    10.50000    0.04406    0.03083 =
         0.06099    0.00000    0.03435    0.00000
N002  3    0.603480    0.506211    0.695390    11.00000    0.03636    0.03342 =
         0.04003    0.00002    0.02202   -0.00185
N003  3    0.611523    0.402389    0.706048    11.00000    0.04238    0.03381 =
         0.04181   -0.00169    0.02148    0.00455
O004  4    0.897076    0.419691    0.549752    11.00000    0.06456    0.05502 =
         0.09036   -0.00069    0.05245    0.00803
N005  3    0.833628    0.460662    0.561735    11.00000    0.04213    0.05283 =
         0.05400   -0.00393    0.02568    0.00448
C006  1    0.500000    0.578392    0.750000    10.50000    0.03992    0.03373 =
         0.03395    0.00000    0.01786    0.00000
C007  1    0.576277    0.555735    0.685454    11.00000    0.03797    0.03351 =
         0.03883    0.00214    0.02029   -0.00233
C008  1    0.642767    0.578157    0.604068    11.00000    0.04418    0.03879 =
         0.04246    0.00247    0.02402   -0.00263
AFIX  43
H008  2    0.640791    0.610753    0.580980    11.00000   -1.20000
AFIX   0
C009  1    0.709090    0.543516    0.566599    11.00000    0.04126    0.04825 =
         0.04551    0.00288    0.02686   -0.00403
AFIX  43
H009  2    0.760055    0.547602    0.511897    11.00000   -1.20000
AFIX   0
C00A  1    0.685694    0.499597    0.627189    11.00000    0.03457    0.04000 =
         0.03807   -0.00121    0.02077   -0.00042
C00B  1    0.749533    0.453578    0.623524    11.00000    0.03987    0.04977 =
         0.04985   -0.00417    0.02448    0.00377
C00C  1    0.500000    0.632644    0.750000    10.50000    0.05874    0.03559 =
         0.03744    0.00000    0.02785    0.00000
C00D  1    0.606234    0.353509    0.735574    11.00000    0.05443    0.03433 =
         0.04292   -0.00115    0.02272    0.00586
C00E  1    0.720469    0.408422    0.678421    11.00000    0.04004    0.04103 =
         0.04346   -0.00401    0.01950    0.00699
C00F  1    0.719253    0.330559    0.733963    11.00000    0.06656    0.04139 =
         0.06102    0.00372    0.03135    0.01590
AFIX  43
H00F  2    0.740418    0.298102    0.752744    11.00000   -1.20000
AFIX   0
C00G  1    0.500000    0.331493    0.750000    10.50000    0.06386    0.03527 =
         0.03661    0.00000    0.02089    0.00000
C00H  1    0.790513    0.364050    0.700443    11.00000    0.05203    0.04669 =
         0.06737    0.00172    0.02905    0.01435
AFIX  43
H00H  2    0.870048    0.359172    0.693086    11.00000   -1.20000
AFIX   0
C00I  1    0.617897    0.657850    0.815971    11.00000    0.06768    0.04203 =
         0.05348   -0.00297    0.03211   -0.01034
AFIX  43
H00I  2    0.697430    0.641277    0.860002    11.00000   -1.20000
AFIX   0
C00J  1    0.500000    0.277232    0.750000    10.50000    0.07685    0.03462 =
         0.04801    0.00000    0.02941    0.00000
C00K  1    0.616880    0.708094    0.816113    11.00000    0.10327    0.04578 =
         0.06397   -0.00858    0.04538   -0.02257
AFIX  43
H00K  2    0.695667    0.725076    0.861157    11.00000   -1.20000
AFIX   0
C00L  1    0.980088    0.433382    0.475447    11.00000    0.06547    0.07593 =
         0.08832   -0.00593    0.05646    0.00423
AFIX 137
H00A  2    0.926559    0.445823    0.375405    11.00000   -1.50000
H00B  2    1.028000    0.405746    0.466413    11.00000   -1.50000
H00C  2    1.041089    0.457712    0.534949    11.00000   -1.50000
AFIX   0
C00M  1    0.500000    0.732287    0.750000    10.50000    0.13934    0.03237 =
         0.06926    0.00000    0.06168    0.00000
AFIX  43
H00M  2    0.500002    0.765782    0.749998    10.50000   -1.20000
AFIX   0
C00N  1    0.479082    0.252231    0.620445    11.00000    0.19546    0.04296 =
         0.05153    0.00000    0.04315    0.00408
AFIX  43
H00N  2    0.465903    0.268718    0.531080    11.00000   -1.20000
AFIX   0
C00O  1    0.477275    0.202560    0.620667    11.00000    0.27486    0.04566 =
         0.06831   -0.01274    0.05766    0.00122
AFIX  43
H00O  2    0.460168    0.185897    0.530490    11.00000   -1.20000
AFIX   0
C00P  1    0.500000    0.177827    0.750000    10.50000    0.27904    0.03243 =
         0.08751    0.00000    0.07028    0.00000
AFIX  43
H00P  2    0.500001    0.144332    0.750000    10.50000   -1.20000
AFIX   0
HKLF 4
 
REM  lcm-386_a.res in C2/c
REM R1 =  0.0623 for    2233 Fo > 4sig(Fo)  and  0.0706 for all    2670 data
REM    199 parameters refined using      7 restraints
 
END  
     
WGHT      0.1315      2.4485 

REM Highest difference peak  0.963,  deepest hole -0.609,  1-sigma level  0.093
Q1    1   0.8734  0.4692  0.5076  11.00000  0.05    0.96
Q2    1   0.8205  0.4289  0.5660  11.00000  0.05    0.82
Q3    1   0.4212  0.4531  0.7445  11.00000  0.05    0.59
Q4    1   0.5434  0.4505  0.8517  11.00000  0.05    0.51
Q5    1   0.3866  0.2510  0.6239  11.00000  0.05    0.51
Q6    1   0.3758  0.1994  0.6330  11.00000  0.05    0.43
Q7    1   0.6087  0.5710  0.6371  11.00000  0.05    0.39
Q8    1   0.6446  0.5013  0.6622  11.00000  0.05    0.38
Q9    1   0.7641  0.3882  0.6820  11.00000  0.05    0.28
Q10   1   0.4590  0.2637  0.7880  11.00000  0.05    0.27
Q11   1   0.6816  0.3416  0.7674  11.00000  0.05    0.27
Q12   1   0.5681  0.6465  0.8251  11.00000  0.05    0.27
Q13   1   0.9579  0.4622  0.4283  11.00000  0.05    0.27
Q14   1   0.7412  0.3428  0.6716  11.00000  0.05    0.26
Q15   1   0.5247  0.5112  0.6155  11.00000  0.05    0.24
Q16   1   0.6595  0.3312  0.6901  11.00000  0.05    0.23
Q17   1   0.8582  0.4706  0.6328  11.00000  0.05    0.23
Q18   1   0.6364  0.5592  0.5046  11.00000  0.05    0.23
Q19   1   0.5175  0.3979  0.6230  11.00000  0.05    0.22
Q20   1   0.5015  0.5678  0.8323  11.00000  0.05    0.22

  REM The information below was added by Olex2.
  REM
  REM R1 = 0.0623 for 2233 Fo > 4sig(Fo) and 0.0706 for all 7751 data
  REM n/a parameters refined using n/a restraints
  REM Highest difference peak 0.96, deepest hole -0.61
  REM Mean Shift 0, Max Shift 0.000.

  REM +++ Tabular Listing of Refinement Information +++
  REM R1_all = 0.0706
  REM R1_gt = 0.0623
  REM wR_ref = 0.1856
  REM GOOF = 1.040
  REM Shift_max = 0.000
  REM Shift_mean = 0
  REM Reflections_all = 7751
  REM Reflections_gt = 2233
  REM Parameters = n/a
  REM Hole = -0.61
  REM Peak = 0.96
  REM Flack = n/a

  
;
_cod_data_source_file            c9sc01596e2.cif
_cod_data_source_block           lcm-386
_cod_original_cell_volume        2709.82(17)
_cod_database_code               1551471
_shelx_shelxl_version_number     2014/7
_shelx_space_group_comment
;
The symmetry employed for this shelxl refinement is uniquely defined
by the following loop, which should always be used as a source of
symmetry information in preference to the above space-group names.
They are only intended as comments.
;
_reflns_odcompleteness_completeness 99.96
_reflns_odcompleteness_iscentric 1
_reflns_odcompleteness_theta     66.97
_olex2_refinement_description
;
1. Fixed Uiso
 At 1.2 times of:
  All C(H) groups
 At 1.5 times of:
  All C(H,H,H) groups
2. Rigid bond restraints
 C00B, N005
 with sigma for 1-2 distances of 0.001 and sigma for 1-3 distances of 0.001
3. Uiso/Uaniso restraints and constraints
C00B \\sim N005: within 2A with sigma of 0.001 and sigma for terminal atoms of
0.002
4.a Aromatic/amide H refined with riding coordinates:
 C008(H008), C009(H009), C00F(H00F), C00H(H00H), C00I(H00I), C00K(H00K),
 C00M(H00M), C00N(H00N), C00O(H00O), C00P(H00P)
4.b Idealised Me refined as rotating group:
 C00L(H00A,H00B,H00C)
;
_olex2_submission_special_instructions 'No special instructions were received'
_oxdiff_exptl_absorpt_empirical_details
;
Empirical correction (ABSPACK) includes:
- Absorption correction using spherical harmonics
- Frame scaling
- Detector area scaling
;
_oxdiff_exptl_absorpt_empirical_full_max 1.471
_oxdiff_exptl_absorpt_empirical_full_min 0.743
loop_
_space_group_symop_operation_xyz
'x, y, z'
'-x, y, -z+1/2'
'x+1/2, y+1/2, z'
'-x+1/2, y+1/2, -z+1/2'
'-x, -y, -z'
'x, -y, z-1/2'
'-x+1/2, -y+1/2, -z'
'x+1/2, -y+1/2, z-1/2'
loop_
_atom_site_label
_atom_site_type_symbol
_atom_site_fract_x
_atom_site_fract_y
_atom_site_fract_z
_atom_site_U_iso_or_equiv
_atom_site_adp_type
_atom_site_occupancy
_atom_site_site_symmetry_order
_atom_site_calc_flag
_atom_site_refinement_flags_posn
_atom_site_refinement_flags_adp
_atom_site_refinement_flags_occupancy
Zn01 Zn 0.5000 0.45445(2) 0.7500 0.0411(3) Uani 1 2 d S T P
N002 N 0.6035(2) 0.50621(9) 0.6954(3) 0.0346(5) Uani 1 1 d . . .
N003 N 0.6115(2) 0.40239(9) 0.7060(3) 0.0380(5) Uani 1 1 d . . .
O004 O 0.8971(3) 0.41969(10) 0.5498(4) 0.0632(7) Uani 1 1 d . . .
N005 N 0.8336(3) 0.46066(11) 0.5617(4) 0.0478(6) Uani 1 1 d . U .
C006 C 0.5000 0.57839(14) 0.7500 0.0351(8) Uani 1 2 d S T P
C007 C 0.5763(3) 0.55573(10) 0.6855(3) 0.0353(6) Uani 1 1 d . . .
C008 C 0.6428(3) 0.57816(11) 0.6041(3) 0.0398(6) Uani 1 1 d . . .
H008 H 0.6408 0.6108 0.5810 0.048 Uiso 1 1 calc R . .
C009 C 0.7091(3) 0.54352(11) 0.5666(4) 0.0421(7) Uani 1 1 d . . .
H009 H 0.7601 0.5476 0.5119 0.050 Uiso 1 1 calc R . .
C00A C 0.6857(3) 0.49960(11) 0.6272(3) 0.0357(6) Uani 1 1 d . . .
C00B C 0.7495(3) 0.45358(11) 0.6235(4) 0.0446(6) Uani 1 1 d . U .
C00C C 0.5000 0.63264(15) 0.7500 0.0413(9) Uani 1 2 d S T P
C00D C 0.6062(3) 0.35351(11) 0.7356(4) 0.0431(7) Uani 1 1 d . . .
C00E C 0.7205(3) 0.40842(11) 0.6784(4) 0.0408(6) Uani 1 1 d . . .
C00F C 0.7193(4) 0.33056(13) 0.7340(4) 0.0548(8) Uani 1 1 d . . .
H00F H 0.7404 0.2981 0.7527 0.066 Uiso 1 1 calc R . .
C00G C 0.5000 0.33149(16) 0.7500 0.0453(10) Uani 1 2 d S T P
C00H C 0.7905(4) 0.36405(13) 0.7004(5) 0.0540(8) Uani 1 1 d . . .
H00H H 0.8700 0.3592 0.6931 0.065 Uiso 1 1 calc R . .
C00I C 0.6179(4) 0.65785(13) 0.8160(4) 0.0521(8) Uani 1 1 d . . .
H00I H 0.6974 0.6413 0.8600 0.063 Uiso 1 1 calc R . .
C00J C 0.5000 0.27723(17) 0.7500 0.0521(11) Uani 1 2 d S T P
C00K C 0.6169(5) 0.70809(14) 0.8161(5) 0.0675(11) Uani 1 1 d . . .
H00K H 0.6957 0.7251 0.8612 0.081 Uiso 1 1 calc R . .
C00L C 0.9801(4) 0.43338(17) 0.4754(6) 0.0684(11) Uani 1 1 d . . .
H00A H 0.9266 0.4458 0.3754 0.103 Uiso 1 1 calc GR . .
H00B H 1.0280 0.4057 0.4664 0.103 Uiso 1 1 calc GR . .
H00C H 1.0411 0.4577 0.5349 0.103 Uiso 1 1 calc GR . .
C00M C 0.5000 0.73229(19) 0.7500 0.0742(19) Uani 1 2 d S T P
H00M H 0.5000 0.7658 0.7500 0.089 Uiso 1 2 calc RS T P
C00N C 0.4791(7) 0.25223(16) 0.6204(5) 0.100(2) Uani 1 1 d . . .
H00N H 0.4659 0.2687 0.5311 0.119 Uiso 1 1 calc R . .
C00O C 0.4773(10) 0.20256(19) 0.6207(7) 0.134(3) Uani 1 1 d . . .
H00O H 0.4602 0.1859 0.5305 0.161 Uiso 1 1 calc R . .
C00P C 0.5000 0.1778(2) 0.7500 0.135(5) Uani 1 2 d S T P
H00P H 0.5000 0.1443 0.7500 0.162 Uiso 1 2 calc RS T P
loop_
_atom_site_aniso_label
_atom_site_aniso_U_11
_atom_site_aniso_U_22
_atom_site_aniso_U_33
_atom_site_aniso_U_23
_atom_site_aniso_U_13
_atom_site_aniso_U_12
Zn01 0.0441(4) 0.0308(4) 0.0610(4) 0.000 0.0344(3) 0.000
N002 0.0364(11) 0.0334(12) 0.0400(12) 0.0000(9) 0.0220(9) -0.0018(9)
N003 0.0424(12) 0.0338(12) 0.0418(13) -0.0017(9) 0.0215(10) 0.0045(9)
O004 0.0646(15) 0.0550(15) 0.090(2) -0.0007(13) 0.0525(15) 0.0080(12)
N005 0.0421(11) 0.0528(13) 0.0540(13) -0.0039(10) 0.0257(10) 0.0045(9)
C006 0.0399(19) 0.0337(19) 0.0340(18) 0.000 0.0179(15) 0.000
C007 0.0380(14) 0.0335(14) 0.0388(14) 0.0021(11) 0.0203(11) -0.0023(11)
C008 0.0442(15) 0.0388(14) 0.0425(15) 0.0025(11) 0.0240(12) -0.0026(11)
C009 0.0413(15) 0.0483(17) 0.0455(16) 0.0029(12) 0.0269(13) -0.0040(12)
C00A 0.0346(13) 0.0400(15) 0.0381(14) -0.0012(11) 0.0208(11) -0.0004(11)
C00B 0.0399(11) 0.0498(13) 0.0498(13) -0.0042(10) 0.0245(10) 0.0038(9)
C00C 0.059(2) 0.036(2) 0.037(2) 0.000 0.0278(19) 0.000
C00D 0.0544(17) 0.0343(15) 0.0429(15) -0.0011(11) 0.0227(13) 0.0059(12)
C00E 0.0400(14) 0.0410(15) 0.0435(15) -0.0040(12) 0.0195(12) 0.0070(12)
C00F 0.067(2) 0.0414(17) 0.061(2) 0.0037(15) 0.0314(17) 0.0159(15)
C00G 0.064(3) 0.035(2) 0.037(2) 0.000 0.0209(19) 0.000
C00H 0.0520(18) 0.0467(18) 0.067(2) 0.0017(15) 0.0291(16) 0.0143(14)
C00I 0.068(2) 0.0420(17) 0.0535(19) -0.0030(14) 0.0321(16) -0.0103(15)
C00J 0.077(3) 0.035(2) 0.048(2) 0.000 0.029(2) 0.000
C00K 0.103(3) 0.046(2) 0.064(2) -0.0086(17) 0.045(2) -0.023(2)
C00L 0.065(2) 0.076(3) 0.088(3) -0.006(2) 0.056(2) 0.004(2)
C00M 0.139(6) 0.032(3) 0.069(4) 0.000 0.062(4) 0.000
C00N 0.195(7) 0.043(2) 0.052(2) 0.0000(17) 0.043(3) 0.004(3)
C00O 0.275(10) 0.046(3) 0.068(3) -0.013(2) 0.058(5) 0.001(4)
C00P 0.279(16) 0.032(3) 0.088(5) 0.000 0.070(8) 0.000
loop_
_atom_type_symbol
_atom_type_description
_atom_type_scat_dispersion_real
_atom_type_scat_dispersion_imag
_atom_type_scat_source
C C 0.0181 0.0091 'International Tables Vol C Tables 4.2.6.8 and 6.1.1.4'
H H 0.0000 0.0000 'International Tables Vol C Tables 4.2.6.8 and 6.1.1.4'
N N 0.0311 0.0180 'International Tables Vol C Tables 4.2.6.8 and 6.1.1.4'
O O 0.0492 0.0322 'International Tables Vol C Tables 4.2.6.8 and 6.1.1.4'
Zn Zn -1.5491 0.6778 'International Tables Vol C Tables 4.2.6.8 and 6.1.1.4'
loop_
_geom_angle_atom_site_label_1
_geom_angle_atom_site_label_2
_geom_angle_atom_site_label_3
_geom_angle
_geom_angle_site_symmetry_1
_geom_angle_site_symmetry_3
N002 Zn01 N002 90.75(14) 2_656 .
N002 Zn01 N003 177.13(9) . 2_656
N002 Zn01 N003 89.15(11) . .
N002 Zn01 N003 89.15(11) 2_656 2_656
N002 Zn01 N003 177.13(9) 2_656 .
N003 Zn01 N003 91.10(15) . 2_656
C007 N002 Zn01 125.21(19) . .
C00A N002 Zn01 127.1(2) . .
C00A N002 C007 105.8(2) . .
C00D N003 Zn01 124.0(2) . .
C00E N003 Zn01 128.3(2) . .
C00E N003 C00D 106.1(2) . .
N005 O004 C00L 106.6(3) . .
C00B N005 O004 113.9(3) . .
C007 C006 C007 126.5(4) 2_656 .
C007 C006 C00C 116.77(19) 2_656 .
C007 C006 C00C 116.77(19) . .
N002 C007 C008 108.5(3) . .
C006 C007 N002 124.5(3) . .
C006 C007 C008 127.0(3) . .
C007 C008 H008 126.1 . .
C009 C008 C007 107.8(3) . .
C009 C008 H008 126.1 . .
C008 C009 H009 126.7 . .
C008 C009 C00A 106.6(3) . .
C00A C009 H009 126.7 . .
N002 C00A C009 111.3(3) . .
N002 C00A C00B 124.5(3) . .
C009 C00A C00B 124.1(3) . .
N005 C00B C00A 109.0(3) . .
N005 C00B C00E 127.1(3) . .
C00E C00B C00A 123.9(3) . .
C00I C00C C006 120.3(2) 2_656 .
C00I C00C C006 120.3(2) . .
C00I C00C C00I 119.4(4) . 2_656
N003 C00D C00F 108.7(3) . .
C00G C00D N003 124.0(3) . .
C00G C00D C00F 127.1(3) . .
N003 C00E C00B 122.2(3) . .
N003 C00E C00H 110.1(3) . .
C00H C00E C00B 127.5(3) . .
C00D C00F H00F 126.0 . .
C00H C00F C00D 108.0(3) . .
C00H C00F H00F 126.0 . .
C00D C00G C00D 127.9(4) 2_656 .
C00D C00G C00J 116.0(2) 2_656 .
C00D C00G C00J 116.0(2) . .
C00E C00H H00H 126.6 . .
C00F C00H C00E 106.8(3) . .
C00F C00H H00H 126.6 . .
C00C C00I H00I 120.1 . .
C00C C00I C00K 119.9(4) . .
C00K C00I H00I 120.1 . .
C00N C00J C00G 120.7(3) 2_656 .
C00N C00J C00G 120.7(3) . .
C00N C00J C00N 118.6(5) . 2_656
C00I C00K H00K 120.1 . .
C00M C00K C00I 119.9(4) . .
C00M C00K H00K 120.1 . .
O004 C00L H00A 109.5 . .
O004 C00L H00B 109.5 . .
O004 C00L H00C 109.5 . .
H00A C00L H00B 109.5 . .
H00A C00L H00C 109.5 . .
H00B C00L H00C 109.5 . .
C00K C00M C00K 121.1(5) 2_656 .
C00K C00M H00M 119.5 . .
C00K C00M H00M 119.5 2_656 .
C00J C00N H00N 119.8 . .
C00J C00N C00O 120.4(5) . .
C00O C00N H00N 119.8 . .
C00N C00O H00O 119.6 . .
C00P C00O C00N 120.9(5) . .
C00P C00O H00O 119.6 . .
C00O C00P C00O 118.8(7) . 2_656
C00O C00P H00P 120.6 2_656 .
C00O C00P H00P 120.6 . .
loop_
_geom_bond_atom_site_label_1
_geom_bond_atom_site_label_2
_geom_bond_distance
_geom_bond_site_symmetry_2
Zn01 N002 2.046(2) 2_656
Zn01 N002 2.046(2) .
Zn01 N003 2.064(2) 2_656
Zn01 N003 2.064(2) .
N002 C007 1.403(4) .
N002 C00A 1.346(3) .
N003 C00D 1.393(4) .
N003 C00E 1.360(4) .
O004 N005 1.370(4) .
O004 C00L 1.439(5) .
N005 C00B 1.320(4) .
C006 C007 1.396(4) 2_656
C006 C007 1.397(4) .
C006 C00C 1.506(6) .
C007 C008 1.428(4) .
C008 H008 0.9300 .
C008 C009 1.352(4) .
C009 H009 0.9300 .
C009 C00A 1.422(4) .
C00A C00B 1.471(4) .
C00B C00E 1.449(5) .
C00C C00I 1.388(4) .
C00C C00I 1.388(4) 2_656
C00D C00F 1.420(5) .
C00D C00G 1.392(4) .
C00E C00H 1.427(4) .
C00F H00F 0.9300 .
C00F C00H 1.348(6) .
C00G C00D 1.392(4) 2_656
C00G C00J 1.507(6) .
C00H H00H 0.9300 .
C00I H00I 0.9300 .
C00I C00K 1.395(5) .
C00J C00N 1.359(5) 2_656
C00J C00N 1.359(5) .
C00K H00K 0.9300 .
C00K C00M 1.365(6) .
C00L H00A 0.9600 .
C00L H00B 0.9600 .
C00L H00C 0.9600 .
C00M C00K 1.365(6) 2_656
C00M H00M 0.9300 .
C00N H00N 0.9300 .
C00N C00O 1.379(7) .
C00O H00O 0.9300 .
C00O C00P 1.349(7) .
C00P C00O 1.349(7) 2_656
C00P H00P 0.9300 .
