#------------------------------------------------------------------------------
#$Date: 2016-02-20 00:18:51 +0200 (Sat, 20 Feb 2016) $
#$Revision: 176760 $
#$URL: svn://www.crystallography.net/cod/cif/2/01/64/2016443.cif $
#------------------------------------------------------------------------------
#
# This file is available in the Crystallography Open Database (COD),
# http://www.crystallography.net/. The original data for this entry
# were provided by IUCr Journals, http://journals.iucr.org/.
#
# The file may be used within the scientific community so long as
# proper attribution is given to the journal article from which the
# data were obtained.
#
data_2016443
loop_
_publ_author_name
'Hirasawa, Kai'
'Yuge, Hidetaka'
'Miyamoto, Takeshi Ken'
_publ_section_title
;
 Enantiomorphs of a carbene--ruthenium(II)--porphyrin complex with four
 `chiral pillars'
;
_journal_coeditor_code           LN3081
_journal_issue                   2
_journal_name_full               'Acta Crystallographica Section C'
_journal_page_first              m97
_journal_page_last               m100
_journal_paper_doi               10.1107/S0108270107068059
_journal_volume                  64
_journal_year                    2008
_chemical_formula_iupac
'[Ru (C84 H76 N4) (C15 H10 O2) (C2 H6 O)], 2C2 H6 O, 2C H2 Cl2'
_chemical_formula_moiety         'C101 H92 N4 O3 Ru, 2(C2 H6 O), 2(C H2 Cl2)'
_chemical_formula_sum            'C107 H108 Cl4 N4 O5 Ru'
_chemical_formula_weight         1772.85
_chemical_name_systematic
;
(dibenzoylmethylene-\k<i>C</i>)(ethanol-\k<i>O</i>){5,10,15,20-
tetrakis[(1<i>S</i>,4<i>R</i>,5<i>R</i>,8<i>S</i>)-1,2,3,4,5,6,7,8-octahydro-
1,4:5,8-dimethanoanthracen-9-yl]porphyrinato-\k^4^<i>N</i>}ruthenium(II)--
ethanol--dichloromethane (1/2/2)
;
_space_group_IT_number           19
_symmetry_cell_setting           orthorhombic
_symmetry_space_group_name_Hall  'P 2ac 2ab'
_symmetry_space_group_name_H-M   'P 21 21 21'
_atom_sites_solution_hydrogens   geom
_atom_sites_solution_primary     direct
_atom_sites_solution_secondary   difmap
_audit_creation_method           SHELXL-97
_cell_angle_alpha                90
_cell_angle_beta                 90
_cell_angle_gamma                90
_cell_formula_units_Z            4
_cell_length_a                   13.7461(18)
_cell_length_b                   23.674(3)
_cell_length_c                   26.781(3)
_cell_measurement_reflns_used    19820
_cell_measurement_temperature    120.0(10)
_cell_measurement_theta_max      27.4834
_cell_measurement_theta_min      3.0424
_cell_volume                     8715.2(19)
_computing_cell_refinement       'CrystalClear (Rigaku, 2005)'
_computing_data_collection       'CrystalClear (Rigaku, 2005)'
_computing_data_reduction        'CrystalClear (Rigaku, 2005)'
_computing_molecular_graphics    'ORTEP-3 for Windows (Farrugia, 1997)'
_computing_publication_material  'SHELXL97 (Sheldrick, 1997)'
_computing_structure_refinement  'SHELXL97 (Sheldrick, 1997)'
_computing_structure_solution    'SHELXS97 (Sheldrick, 1997)'
_diffrn_ambient_temperature      120.0(10)
_diffrn_detector_area_resol_mean 14.7059
_diffrn_measured_fraction_theta_full 0.988
_diffrn_measured_fraction_theta_max 0.988
_diffrn_measurement_device_type  'Rigaku Mercury CCD'
_diffrn_measurement_method       dtprofit.ref
_diffrn_radiation_monochromator  graphite
_diffrn_radiation_source         'Rotating Anode'
_diffrn_radiation_type           MoK\a
_diffrn_radiation_wavelength     0.71073
_diffrn_reflns_av_R_equivalents  0.0611
_diffrn_reflns_av_sigmaI/netI    0.0687
_diffrn_reflns_limit_h_max       17
_diffrn_reflns_limit_h_min       -17
_diffrn_reflns_limit_k_max       30
_diffrn_reflns_limit_k_min       -28
_diffrn_reflns_limit_l_max       33
_diffrn_reflns_limit_l_min       -30
_diffrn_reflns_number            68148
_diffrn_reflns_theta_full        27.48
_diffrn_reflns_theta_max         27.48
_diffrn_reflns_theta_min         3.04
_exptl_absorpt_coefficient_mu    0.362
_exptl_absorpt_correction_T_max  0.9204
_exptl_absorpt_correction_T_min  0.9098
_exptl_absorpt_correction_type   numerical
_exptl_absorpt_process_details   '(NUMABS; Rigaku, 2005)'
_exptl_crystal_colour            Red
_exptl_crystal_density_diffrn    1.351
_exptl_crystal_density_method    'not measured'
_exptl_crystal_description       Prism
_exptl_crystal_F_000             3720
_exptl_crystal_size_max          0.27
_exptl_crystal_size_mid          0.25
_exptl_crystal_size_min          0.23
_refine_diff_density_max         0.947
_refine_diff_density_min         -0.969
_refine_ls_abs_structure_details 'Flack (1983), 8928 Friedel pairs'
_refine_ls_abs_structure_Flack   0.01(2)
_refine_ls_extinction_method     none
_refine_ls_goodness_of_fit_ref   1.096
_refine_ls_hydrogen_treatment    constr
_refine_ls_matrix_type           full
_refine_ls_number_parameters     1095
_refine_ls_number_reflns         19645
_refine_ls_number_restraints     0
_refine_ls_restrained_S_all      1.096
_refine_ls_R_factor_all          0.0661
_refine_ls_R_factor_gt           0.0572
_refine_ls_shift/su_max          0.002
_refine_ls_shift/su_mean         0.000
_refine_ls_structure_factor_coef Fsqd
_refine_ls_weighting_details
'calc w=1/[\s^2^(Fo^2^)+(0.0442P)^2^+9.7730P] where P=(Fo^2^+2Fc^2^)/3'
_refine_ls_weighting_scheme      calc
_refine_ls_wR_factor_gt          0.1275
_refine_ls_wR_factor_ref         0.1343
_reflns_number_gt                17526
_reflns_number_total             19645
_reflns_threshold_expression     'I > 2\s(I)'
_cod_data_source_file            ln3081.cif
_cod_data_source_block           I
_cod_database_code               2016443
_cod_database_fobs_code          2016443
loop_
_symmetry_equiv_pos_as_xyz
'x, y, z'
'-x+1/2, -y, z+1/2'
'-x, y+1/2, -z+1/2'
'x+1/2, -y+1/2, -z'
loop_
_atom_site_type_symbol
_atom_site_label
_atom_site_fract_x
_atom_site_fract_y
_atom_site_fract_z
_atom_site_U_iso_or_equiv
_atom_site_adp_type
_atom_site_calc_flag
_atom_site_refinement_flags
_atom_site_occupancy
_atom_site_disorder_assembly
_atom_site_disorder_group
Ru Ru1 0.43987(2) 0.575761(12) 0.772923(11) 0.01581(7) Uani d . 1 . .
N N1 0.3966(2) 0.59851(13) 0.84313(12) 0.0167(6) Uani d . 1 . .
N N2 0.2991(2) 0.58025(13) 0.74816(11) 0.0145(6) Uani d . 1 . .
N N3 0.4837(2) 0.56197(13) 0.70034(11) 0.0171(6) Uani d . 1 . .
N N4 0.5812(2) 0.58808(12) 0.79398(11) 0.0173(6) Uani d . 1 . .
C C1 0.4554(3) 0.60443(15) 0.88439(13) 0.0170(7) Uani d . 1 . .
C C2 0.3956(3) 0.62046(16) 0.92663(15) 0.0207(8) Uani d . 1 . .
H H1 0.4175 0.6260 0.9599 0.025 Uiso calc R 1 . .
C C3 0.3032(3) 0.62607(16) 0.91024(15) 0.0207(8) Uani d . 1 . .
H H2 0.2485 0.6373 0.9295 0.025 Uiso calc R 1 . .
C C4 0.3034(3) 0.61156(15) 0.85749(14) 0.0182(7) Uani d . 1 . .
C C5 0.2212(3) 0.61103(15) 0.82679(15) 0.0190(8) Uani d . 1 . .
C C6 0.2195(3) 0.59445(14) 0.77659(16) 0.0189(7) Uani d . 1 . .
C C7 0.1326(3) 0.58938(15) 0.74639(15) 0.0214(8) Uani d . 1 . .
H H3 0.0675 0.5961 0.7568 0.026 Uiso calc R 1 . .
C C8 0.1621(3) 0.57340(18) 0.70080(14) 0.0209(7) Uani d . 1 . .
H H4 0.1210 0.5673 0.6728 0.025 Uiso calc R 1 . .
C C9 0.2660(3) 0.56705(15) 0.70136(13) 0.0161(7) Uani d . 1 . .
C C10 0.3227(3) 0.55147(15) 0.66017(15) 0.0191(8) Uani d . 1 . .
C C11 0.4244(3) 0.55002(15) 0.66010(14) 0.0187(7) Uani d . 1 . .
C C12 0.4841(3) 0.54225(18) 0.61641(16) 0.0258(9) Uani d . 1 . .
H H5 0.4620 0.5326 0.5839 0.031 Uiso calc R 1 . .
C C13 0.5775(3) 0.55125(17) 0.63021(15) 0.0241(8) Uani d . 1 . .
H H6 0.6330 0.5495 0.6091 0.029 Uiso calc R 1 . .
C C14 0.5777(3) 0.56402(15) 0.68284(14) 0.0188(8) Uani d . 1 . .
C C15 0.6599(3) 0.57735(17) 0.71102(13) 0.0193(7) Uani d . 1 . .
C C16 0.6623(3) 0.58618(15) 0.76337(14) 0.0186(8) Uani d . 1 . .
C C17 0.7474(3) 0.59455(16) 0.79277(15) 0.0201(8) Uani d . 1 . .
H H7 0.8123 0.5967 0.7807 0.024 Uiso calc R 1 . .
C C18 0.7191(3) 0.59879(16) 0.84092(15) 0.0199(8) Uani d . 1 . .
H H8 0.7606 0.6030 0.8690 0.024 Uiso calc R 1 . .
C C19 0.6149(3) 0.59582(15) 0.84189(15) 0.0181(7) Uani d . 1 . .
C C20 0.5569(3) 0.60191(14) 0.88478(14) 0.0184(7) Uani d . 1 . .
C C21 0.1264(3) 0.63270(16) 0.84750(14) 0.0176(7) Uani d . 1 . .
C C22 0.0629(3) 0.60174(16) 0.87715(14) 0.0215(7) Uani d . 1 . .
C C23 -0.0260(3) 0.62416(18) 0.89372(16) 0.0227(8) Uani d . 1 . .
C C24 -0.0561(3) 0.67842(16) 0.88038(14) 0.0238(8) Uani d . 1 . .
H H9 -0.1166 0.6934 0.8912 0.029 Uiso calc R 1 . .
C C25 0.0072(3) 0.70955(17) 0.85047(15) 0.0237(8) Uani d . 1 . .
C C26 0.0963(3) 0.68715(16) 0.83441(15) 0.0204(8) Uani d . 1 . .
C C27 0.0690(3) 0.54270(16) 0.89836(16) 0.0265(8) Uani d . 1 . .
H H10 0.1136 0.5164 0.8803 0.032 Uiso calc R 1 . .
C C28 0.0870(3) 0.5481(2) 0.95566(17) 0.0349(11) Uani d . 1 . .
H H11 0.0970 0.5106 0.9712 0.042 Uiso calc R 1 . .
H H12 0.1441 0.5723 0.9628 0.042 Uiso calc R 1 . .
C C29 -0.0088(3) 0.5760(2) 0.97437(16) 0.0324(9) Uani d . 1 . .
H H13 -0.0408 0.5524 1.0001 0.039 Uiso calc R 1 . .
H H14 0.0037 0.6140 0.9883 0.039 Uiso calc R 1 . .
C C30 -0.0716(3) 0.57957(19) 0.92638(14) 0.0254(8) Uani d . 1 . .
H H15 -0.1432 0.5836 0.9320 0.030 Uiso calc R 1 . .
C C31 -0.0399(3) 0.52569(18) 0.89819(17) 0.0287(10) Uani d . 1 . .
H H16 -0.0677 0.5231 0.8642 0.034 Uiso calc R 1 . .
H H17 -0.0529 0.4906 0.9171 0.034 Uiso calc R 1 . .
C C32 0.1419(3) 0.73170(16) 0.80064(16) 0.0239(9) Uani d . 1 . .
H H18 0.2138 0.7286 0.7959 0.029 Uiso calc R 1 . .
C C33 0.0805(3) 0.73483(18) 0.75181(16) 0.0288(9) Uani d . 1 . .
H H19 0.0730 0.6970 0.7364 0.035 Uiso calc R 1 . .
H H20 0.1104 0.7608 0.7272 0.035 Uiso calc R 1 . .
C C34 -0.0191(3) 0.75804(19) 0.77079(19) 0.0356(10) Uani d . 1 . .
H H21 -0.0362 0.7939 0.7539 0.043 Uiso calc R 1 . .
H H22 -0.0719 0.7303 0.7652 0.043 Uiso calc R 1 . .
C C35 -0.0011(3) 0.76759(18) 0.82750(17) 0.0293(9) Uani d . 1 . .
H H23 -0.0470 0.7941 0.8445 0.035 Uiso calc R 1 . .
C C36 0.1065(3) 0.78582(17) 0.82703(18) 0.0295(10) Uani d . 1 . .
H H24 0.1340 0.7903 0.8610 0.035 Uiso calc R 1 . .
H H25 0.1180 0.8204 0.8071 0.035 Uiso calc R 1 . .
C C37 0.2718(3) 0.53614(16) 0.61267(15) 0.0200(8) Uani d . 1 . .
C C38 0.2658(3) 0.47989(17) 0.59730(15) 0.0212(8) Uani d . 1 . .
C C39 0.2269(3) 0.46406(17) 0.55091(15) 0.0220(8) Uani d . 1 . .
C C40 0.1929(3) 0.50402(17) 0.51723(15) 0.0224(8) Uani d . 1 . .
H H26 0.1684 0.4936 0.4854 0.027 Uiso calc R 1 . .
C C41 0.1967(3) 0.56052(17) 0.53265(15) 0.0236(8) Uani d . 1 . .
C C42 0.2345(3) 0.57627(17) 0.57897(14) 0.0211(7) Uani d . 1 . .
C C43 0.2920(3) 0.42575(18) 0.62455(14) 0.0238(8) Uani d . 1 . .
H H27 0.3402 0.4296 0.6523 0.029 Uiso calc R 1 . .
C C44 0.1950(3) 0.39601(17) 0.63804(16) 0.0261(9) Uani d . 1 . .
H H28 0.1505 0.4221 0.6558 0.031 Uiso calc R 1 . .
H H29 0.2066 0.3624 0.6592 0.031 Uiso calc R 1 . .
C C45 0.1525(3) 0.37873(18) 0.58580(16) 0.0266(9) Uani d . 1 . .
H H30 0.1441 0.3373 0.5832 0.032 Uiso calc R 1 . .
H H31 0.0892 0.3974 0.5795 0.032 Uiso calc R 1 . .
C C46 0.2316(3) 0.40022(17) 0.54949(15) 0.0219(8) Uani d . 1 . .
H H32 0.2306 0.3830 0.5154 0.026 Uiso calc R 1 . .
C C47 0.3248(3) 0.39000(17) 0.57979(15) 0.0241(8) Uani d . 1 . .
H H33 0.3344 0.3497 0.5884 0.029 Uiso calc R 1 . .
H H34 0.3836 0.4052 0.5633 0.029 Uiso calc R 1 . .
C C48 0.2355(3) 0.63986(17) 0.57943(17) 0.0274(9) Uani d . 1 . .
H H35 0.2361 0.6578 0.6132 0.033 Uiso calc R 1 . .
C C49 0.3193(4) 0.65812(19) 0.54372(17) 0.0328(10) Uani d . 1 . .
H H36 0.3809 0.6387 0.5522 0.039 Uiso calc R 1 . .
H H37 0.3298 0.6995 0.5448 0.039 Uiso calc R 1 . .
C C50 0.2801(4) 0.6389(2) 0.49126(17) 0.0340(10) Uani d . 1 . .
H H38 0.2749 0.6713 0.4680 0.041 Uiso calc R 1 . .
H H39 0.3225 0.6097 0.4763 0.041 Uiso calc R 1 . .
C C51 0.1783(3) 0.61459(18) 0.50407(16) 0.0267(9) Uani d . 1 . .
H H40 0.1318 0.6116 0.4755 0.032 Uiso calc R 1 . .
C C52 0.1464(3) 0.65318(19) 0.54694(17) 0.0307(10) Uani d . 1 . .
H H41 0.0845 0.6411 0.5625 0.037 Uiso calc R 1 . .
H H42 0.1428 0.6934 0.5371 0.037 Uiso calc R 1 . .
C C53 0.7544(3) 0.58045(17) 0.68326(14) 0.0196(7) Uani d . 1 . .
C C54 0.8238(3) 0.53735(16) 0.68720(14) 0.0182(7) Uani d . 1 . .
C C55 0.9133(3) 0.53885(17) 0.66222(15) 0.0218(8) Uani d . 1 . .
C C56 0.9359(3) 0.58272(15) 0.62992(14) 0.0211(7) Uani d . 1 . .
H H43 0.9958 0.5837 0.6123 0.025 Uiso calc R 1 . .
C C57 0.8671(3) 0.62518(16) 0.62460(15) 0.0206(8) Uani d . 1 . .
C C58 0.7789(3) 0.62467(16) 0.65109(15) 0.0213(8) Uani d . 1 . .
C C59 0.8162(3) 0.48000(16) 0.71121(15) 0.0228(8) Uani d . 1 . .
H H44 0.7672 0.4762 0.7386 0.027 Uiso calc R 1 . .
C C60 0.8073(3) 0.43694(16) 0.66738(16) 0.0261(9) Uani d . 1 . .
H H45 0.7574 0.4492 0.6430 0.031 Uiso calc R 1 . .
H H46 0.7902 0.3989 0.6799 0.031 Uiso calc R 1 . .
C C61 0.9108(3) 0.43723(17) 0.64343(17) 0.0268(9) Uani d . 1 . .
H H47 0.9432 0.4001 0.6473 0.032 Uiso calc R 1 . .
H H48 0.9079 0.4471 0.6075 0.032 Uiso calc R 1 . .
C C62 0.9636(3) 0.48366(17) 0.67389(16) 0.0258(9) Uani d . 1 . .
H H49 1.0361 0.4841 0.6709 0.031 Uiso calc R 1 . .
C C63 0.9235(3) 0.47117(16) 0.72624(16) 0.0258(8) Uani d . 1 . .
H H50 0.9459 0.4987 0.7516 0.031 Uiso calc R 1 . .
H H51 0.9372 0.4321 0.7374 0.031 Uiso calc R 1 . .
C C64 0.7272(3) 0.67944(17) 0.63791(16) 0.0260(9) Uani d . 1 . .
H H52 0.6555 0.6802 0.6441 0.031 Uiso calc R 1 . .
C C65 0.7870(3) 0.72782(19) 0.66262(19) 0.0322(10) Uani d . 1 . .
H H53 0.7530 0.7645 0.6595 0.039 Uiso calc R 1 . .
H H54 0.7991 0.7199 0.6984 0.039 Uiso calc R 1 . .
C C66 0.8832(3) 0.72764(18) 0.63241(18) 0.0324(10) Uani d . 1 . .
H H55 0.8933 0.7642 0.6153 0.039 Uiso calc R 1 . .
H H56 0.9397 0.7199 0.6544 0.039 Uiso calc R 1 . .
C C67 0.8686(3) 0.67995(17) 0.59478(16) 0.0260(9) Uani d . 1 . .
H H57 0.9132 0.6804 0.5653 0.031 Uiso calc R 1 . .
C C68 0.7592(3) 0.68627(18) 0.58274(16) 0.0280(9) Uani d . 1 . .
H H58 0.7343 0.6558 0.5609 0.034 Uiso calc R 1 . .
H H59 0.7427 0.7237 0.5687 0.034 Uiso calc R 1 . .
C C69 0.6072(3) 0.60538(16) 0.93527(14) 0.0195(8) Uani d . 1 . .
C C70 0.6241(3) 0.55676(16) 0.96375(15) 0.0215(8) Uani d . 1 . .
C C71 0.6693(3) 0.55819(16) 1.01064(15) 0.0219(8) Uani d . 1 . .
C C72 0.6995(3) 0.60900(17) 1.03130(16) 0.0236(8) Uani d . 1 . .
H H60 0.7306 0.6103 1.0630 0.028 Uiso calc R 1 . .
C C73 0.6827(3) 0.65773(17) 1.00418(15) 0.0226(8) Uani d . 1 . .
C C74 0.6370(3) 0.65619(16) 0.95699(14) 0.0193(8) Uani d . 1 . .
C C75 0.6077(3) 0.49426(17) 0.95231(16) 0.0236(8) Uani d . 1 . .
H H61 0.5576 0.4857 0.9263 0.028 Uiso calc R 1 . .
C C76 0.7094(3) 0.46848(18) 0.94344(17) 0.0289(9) Uani d . 1 . .
H H62 0.7470 0.4913 0.9192 0.035 Uiso calc R 1 . .
H H63 0.7042 0.4293 0.9308 0.035 Uiso calc R 1 . .
C C77 0.7575(3) 0.46978(18) 0.99585(16) 0.0283(9) Uani d . 1 . .
H H64 0.8180 0.4924 0.9956 0.034 Uiso calc R 1 . .
H H65 0.7725 0.4312 1.0078 0.034 Uiso calc R 1 . .
C C78 0.6781(3) 0.49803(16) 1.02868(16) 0.0240(8) Uani d . 1 . .
H H66 0.6856 0.4930 1.0656 0.029 Uiso calc R 1 . .
C C79 0.5852(3) 0.47239(17) 1.00551(16) 0.0259(9) Uani d . 1 . .
H H67 0.5248 0.4886 1.0196 0.031 Uiso calc R 1 . .
H H68 0.5836 0.4306 1.0075 0.031 Uiso calc R 1 . .
C C80 0.6249(3) 0.71751(16) 0.94114(15) 0.0237(8) Uani d . 1 . .
H H69 0.6162 0.7243 0.9046 0.028 Uiso calc R 1 . .
C C81 0.5462(3) 0.74362(17) 0.97601(16) 0.0308(10) Uani d . 1 . .
H H70 0.5294 0.7825 0.9654 0.037 Uiso calc R 1 . .
H H71 0.4864 0.7203 0.9762 0.037 Uiso calc R 1 . .
C C82 0.5952(3) 0.74382(19) 1.02819(17) 0.0330(10) Uani d . 1 . .
H H72 0.5589 0.7199 1.0521 0.040 Uiso calc R 1 . .
H H73 0.6000 0.7826 1.0418 0.040 Uiso calc R 1 . .
C C83 0.6981(3) 0.71876(17) 1.01699(16) 0.0258(9) Uani d . 1 . .
H H74 0.7493 0.7266 1.0426 0.031 Uiso calc R 1 . .
C C84 0.7170(3) 0.74336(17) 0.96506(16) 0.0267(9) Uani d . 1 . .
H H75 0.7779 0.7290 0.9499 0.032 Uiso calc R 1 . .
H H76 0.7165 0.7852 0.9648 0.032 Uiso calc R 1 . .
C C85 0.4364(3) 0.49904(14) 0.78880(13) 0.0175(7) Uani d . 1 . .
C C86 0.3849(3) 0.47470(15) 0.83331(15) 0.0203(8) Uani d . 1 . .
O O1 0.4285(2) 0.47210(11) 0.87354(10) 0.0259(6) Uani d . 1 . .
C C87 0.2852(3) 0.45071(16) 0.82761(15) 0.0206(8) Uani d . 1 . .
C C88 0.2419(3) 0.42402(18) 0.86851(16) 0.0262(8) Uani d . 1 . .
H H77 0.2740 0.4235 0.8999 0.031 Uiso calc R 1 . .
C C89 0.1522(3) 0.39834(18) 0.86314(17) 0.0307(10) Uani d . 1 . .
H H78 0.1232 0.3798 0.8909 0.037 Uiso calc R 1 . .
C C90 0.1042(3) 0.39945(19) 0.81762(17) 0.0308(10) Uani d . 1 . .
H H79 0.0423 0.3819 0.8142 0.037 Uiso calc R 1 . .
C C91 0.1469(3) 0.42627(18) 0.77707(16) 0.0268(8) Uani d . 1 . .
H H80 0.1140 0.4272 0.7459 0.032 Uiso calc R 1 . .
C C92 0.2379(3) 0.45193(16) 0.78179(16) 0.0246(9) Uani d . 1 . .
H H81 0.2671 0.4701 0.7539 0.030 Uiso calc R 1 . .
C C93 0.4814(3) 0.45226(15) 0.75852(15) 0.0209(8) Uani d . 1 . .
O O2 0.4350(2) 0.43150(11) 0.72370(10) 0.0271(6) Uani d . 1 . .
C C94 0.5770(2) 0.42779(16) 0.77356(15) 0.0222(7) Uani d . 1 . .
C C95 0.6073(3) 0.37757(18) 0.75050(17) 0.0311(10) Uani d . 1 . .
H H82 0.5676 0.3605 0.7257 0.037 Uiso calc R 1 . .
C C96 0.6946(3) 0.3528(2) 0.76376(18) 0.0376(11) Uani d . 1 . .
H H83 0.7143 0.3187 0.7482 0.045 Uiso calc R 1 . .
C C97 0.7533(4) 0.3773(2) 0.79936(18) 0.0361(11) Uani d . 1 . .
H H84 0.8136 0.3604 0.8081 0.043 Uiso calc R 1 . .
C C98 0.7234(3) 0.4270(2) 0.82248(15) 0.0276(8) Uani d . 1 . .
H H85 0.7637 0.4440 0.8471 0.033 Uiso calc R 1 . .
C C99 0.6349(3) 0.45201(18) 0.80995(16) 0.0255(9) Uani d . 1 . .
H H86 0.6145 0.4856 0.8263 0.031 Uiso calc R 1 . .
O O3 0.4404(2) 0.66963(10) 0.75759(10) 0.0248(6) Uani d . 1 B .
H H87 0.4363 0.6924 0.7815 0.037 Uiso calc R 1 B .
C C100 0.4646(4) 0.6997(2) 0.71310(19) 0.0436(13) Uani d . 1 . .
H H88 0.5091 0.6769 0.6922 0.052 Uiso calc R 1 A 1
H H89 0.4973 0.7357 0.7215 0.052 Uiso calc R 1 A 1
C C101 0.3686(17) 0.7114(6) 0.6846(7) 0.069(6) Uani d P 0.68(4) B 1
H H90 0.3178 0.7222 0.7084 0.103 Uiso calc PR 0.68(4) B 1
H H91 0.3486 0.6772 0.6667 0.103 Uiso calc PR 0.68(4) B 1
H H92 0.3789 0.7421 0.6606 0.103 Uiso calc PR 0.68(4) B 1
C C108 0.4127(15) 0.7007(8) 0.6723(7) 0.028(5) Uiso d P 0.32(4) B 2
H H109 0.3463 0.7127 0.6803 0.043 Uiso calc PR 0.32(4) B 2
H H110 0.4112 0.6629 0.6575 0.043 Uiso calc PR 0.32(4) B 2
H H111 0.4417 0.7273 0.6486 0.043 Uiso calc PR 0.32(4) B 2
O O4 0.4257(3) 0.75913(13) 0.81876(13) 0.0414(8) Uani d . 1 . .
H H93 0.4751 0.7794 0.8143 0.062 Uiso calc R 1 B .
C C102 0.3922(4) 0.7659(2) 0.86765(18) 0.0392(11) Uani d . 1 B .
H H94 0.4301 0.7411 0.8901 0.047 Uiso calc R 1 . .
H H95 0.3232 0.7541 0.8694 0.047 Uiso calc R 1 . .
C C103 0.4009(4) 0.8265(2) 0.88551(19) 0.0428(12) Uani d . 1 . .
H H96 0.4016 0.8519 0.8567 0.064 Uiso calc R 1 B .
H H97 0.4614 0.8310 0.9045 0.064 Uiso calc R 1 . .
H H98 0.3454 0.8357 0.9070 0.064 Uiso calc R 1 . .
O O5 0.5987(2) 0.81890(13) 0.80701(13) 0.0405(8) Uani d . 1 . .
H H99 0.5828 0.8505 0.7953 0.061 Uiso calc R 1 . .
C C104 0.6704(3) 0.79308(19) 0.7750(2) 0.0354(10) Uani d . 1 . .
H H100 0.7273 0.8183 0.7707 0.042 Uiso calc R 1 B .
H H101 0.6424 0.7850 0.7417 0.042 Uiso calc R 1 . .
C C105 0.6997(4) 0.7393(2) 0.8006(2) 0.0473(14) Uani d . 1 B .
H H102 0.7291 0.7135 0.7762 0.071 Uiso calc R 1 . .
H H103 0.6422 0.7214 0.8153 0.071 Uiso calc R 1 . .
H H104 0.7470 0.7477 0.8269 0.071 Uiso calc R 1 . .
Cl Cl1 -0.07800(13) 0.68380(6) 0.44810(6) 0.0601(4) Uani d . 1 . .
Cl Cl2 0.07149(12) 0.68376(7) 0.37124(7) 0.0721(5) Uani d . 1 . .
C C106 -0.0345(4) 0.6517(2) 0.3930(2) 0.0419(12) Uani d . 1 . .
H H105 -0.0214 0.6113 0.3996 0.050 Uiso calc R 1 . .
H H106 -0.0852 0.6540 0.3669 0.050 Uiso calc R 1 . .
Cl Cl3 0.6289(3) 0.70956(13) 0.39097(10) 0.1447(13) Uani d . 1 . .
Cl Cl4 0.5420(2) 0.6603(3) 0.47668(16) 0.257(3) Uani d . 1 . .
C C107 0.6372(9) 0.6691(6) 0.4407(5) 0.232(10) Uani d . 1 . .
H H107 0.6583 0.6312 0.4294 0.278 Uiso calc R 1 . .
H H108 0.6902 0.6844 0.4618 0.278 Uiso calc R 1 . .
loop_
_atom_site_aniso_label
_atom_site_aniso_U_11
_atom_site_aniso_U_22
_atom_site_aniso_U_33
_atom_site_aniso_U_12
_atom_site_aniso_U_13
_atom_site_aniso_U_23
Ru1 0.01511(11) 0.01491(12) 0.01742(14) 0.00061(11) -0.00068(12) -0.00082(12)
N1 0.0163(14) 0.0163(14) 0.0175(17) -0.0008(12) -0.0017(12) 0.0013(12)
N2 0.0133(13) 0.0177(14) 0.0125(14) 0.0021(12) 0.0021(11) 0.0002(12)
N3 0.0136(14) 0.0218(16) 0.0158(16) -0.0022(11) 0.0003(12) -0.0038(12)
N4 0.0157(15) 0.0173(15) 0.0188(16) 0.0022(11) 0.0017(12) -0.0031(12)
C1 0.0174(18) 0.0175(16) 0.0163(18) -0.0001(13) -0.0010(14) 0.0020(14)
C2 0.0219(19) 0.0216(18) 0.019(2) -0.0045(15) 0.0032(15) -0.0026(15)
C3 0.0171(17) 0.0233(19) 0.022(2) 0.0005(14) 0.0027(15) -0.0034(16)
C4 0.0207(18) 0.0135(16) 0.020(2) 0.0005(13) 0.0018(15) 0.0000(14)
C5 0.0170(17) 0.0172(17) 0.023(2) -0.0002(14) 0.0021(15) 0.0003(15)
C6 0.0173(16) 0.0138(15) 0.026(2) -0.0008(12) -0.0009(16) -0.0019(16)
C7 0.0182(17) 0.0181(18) 0.028(2) 0.0005(13) -0.0003(15) -0.0044(15)
C8 0.0205(17) 0.0223(17) 0.0199(19) -0.0008(16) -0.0061(14) -0.0006(17)
C9 0.0184(17) 0.0169(18) 0.0131(18) 0.0012(13) -0.0047(13) 0.0009(14)
C10 0.0167(17) 0.0123(16) 0.028(2) -0.0015(13) -0.0024(16) -0.0018(15)
C11 0.0194(19) 0.0186(16) 0.0182(19) -0.0022(14) -0.0015(15) -0.0001(14)
C12 0.025(2) 0.031(2) 0.022(2) 0.0019(17) 0.0039(17) -0.0027(17)
C13 0.024(2) 0.0260(19) 0.022(2) 0.0034(15) 0.0023(16) -0.0040(16)
C14 0.0195(19) 0.0194(18) 0.0176(19) 0.0005(13) -0.0016(14) -0.0009(14)
C15 0.0191(16) 0.0176(16) 0.0212(19) 0.0023(15) 0.0014(14) 0.0017(16)
C16 0.0176(16) 0.0169(18) 0.021(2) -0.0050(13) 0.0070(14) -0.0078(14)
C17 0.0148(17) 0.0197(17) 0.026(2) 0.0006(13) 0.0008(15) -0.0034(15)
C18 0.0185(18) 0.0213(18) 0.020(2) -0.0019(14) -0.0050(15) -0.0026(16)
C19 0.0178(18) 0.0142(15) 0.022(2) -0.0002(13) -0.0047(15) -0.0008(14)
C20 0.0190(16) 0.0129(15) 0.0233(19) -0.0023(15) -0.0010(16) -0.0021(13)
C21 0.0166(17) 0.0233(18) 0.0128(18) 0.0018(14) -0.0029(14) -0.0023(15)
C22 0.0189(17) 0.0238(18) 0.022(2) -0.0013(16) -0.0028(17) -0.0004(15)
C23 0.0166(17) 0.029(2) 0.023(2) -0.0012(15) -0.0016(15) -0.0023(17)
C24 0.0170(17) 0.031(2) 0.024(2) 0.0047(17) 0.0047(17) -0.0021(16)
C25 0.0221(19) 0.026(2) 0.023(2) 0.0018(15) 0.0035(16) -0.0044(16)
C26 0.0195(17) 0.0209(18) 0.021(2) 0.0003(14) -0.0038(15) -0.0038(15)
C27 0.025(2) 0.0231(18) 0.031(2) 0.0021(17) 0.0000(18) 0.0047(16)
C28 0.021(2) 0.046(3) 0.038(3) -0.0094(18) -0.0041(18) 0.017(2)
C29 0.027(2) 0.043(2) 0.027(2) -0.005(2) -0.0013(17) 0.011(2)
C30 0.0189(18) 0.039(2) 0.0182(19) -0.0067(18) 0.0000(15) 0.0041(17)
C31 0.025(2) 0.027(2) 0.033(2) -0.0057(16) -0.0014(18) 0.0056(18)
C32 0.024(2) 0.0188(19) 0.029(2) 0.0014(15) 0.0046(17) 0.0038(17)
C33 0.030(2) 0.028(2) 0.028(2) 0.0081(17) -0.0054(17) 0.0048(17)
C34 0.029(2) 0.036(2) 0.042(3) 0.0069(18) -0.004(2) 0.012(2)
C35 0.028(2) 0.024(2) 0.035(3) 0.0072(17) 0.0058(18) -0.0003(18)
C36 0.033(2) 0.0183(19) 0.038(3) -0.0021(16) 0.0117(19) 0.0009(18)
C37 0.0187(18) 0.0222(18) 0.019(2) 0.0011(14) 0.0002(15) -0.0038(15)
C38 0.0161(17) 0.0240(19) 0.023(2) 0.0030(14) -0.0026(15) -0.0015(16)
C39 0.0208(19) 0.025(2) 0.020(2) -0.0040(15) -0.0003(15) -0.0039(16)
C40 0.0223(19) 0.025(2) 0.020(2) -0.0016(16) -0.0024(16) -0.0041(16)
C41 0.0243(19) 0.027(2) 0.019(2) 0.0002(15) -0.0020(16) 0.0019(16)
C42 0.0185(16) 0.0201(17) 0.025(2) 0.0020(16) 0.0005(14) -0.0011(17)
C43 0.0278(19) 0.0208(17) 0.023(2) 0.0031(17) -0.0030(15) -0.0037(17)
C44 0.029(2) 0.024(2) 0.025(2) 0.0002(16) 0.0026(17) 0.0013(17)
C45 0.023(2) 0.025(2) 0.032(2) -0.0030(16) 0.0005(17) -0.0015(17)
C46 0.0232(19) 0.0239(19) 0.019(2) -0.0039(15) -0.0014(16) -0.0029(16)
C47 0.0234(19) 0.0224(19) 0.027(2) 0.0022(15) -0.0028(17) -0.0068(16)
C48 0.032(2) 0.022(2) 0.028(2) -0.0027(17) -0.0021(18) 0.0001(17)
C49 0.038(3) 0.029(2) 0.031(3) -0.0082(19) 0.001(2) 0.0006(19)
C50 0.039(3) 0.034(2) 0.029(3) -0.011(2) 0.001(2) 0.0058(19)
C51 0.032(2) 0.026(2) 0.023(2) -0.0005(17) -0.0017(17) 0.0021(17)
C52 0.032(2) 0.027(2) 0.033(3) 0.0042(17) -0.0016(19) 0.0099(19)
C53 0.0187(17) 0.0217(18) 0.0183(19) 0.0006(15) 0.0004(14) -0.0028(16)
C54 0.0167(17) 0.0196(17) 0.0183(19) 0.0010(14) -0.0021(15) 0.0000(15)
C55 0.0204(19) 0.0230(19) 0.022(2) 0.0009(14) 0.0009(15) -0.0012(16)
C56 0.0187(16) 0.0194(17) 0.0251(19) -0.0006(16) 0.0003(16) -0.0013(15)
C57 0.0218(18) 0.0191(18) 0.021(2) -0.0002(15) 0.0028(15) 0.0000(15)
C58 0.0229(19) 0.0193(18) 0.022(2) 0.0056(15) -0.0007(16) -0.0024(15)
C59 0.025(2) 0.0184(18) 0.025(2) 0.0026(15) 0.0034(16) 0.0022(15)
C60 0.025(2) 0.020(2) 0.033(2) -0.0005(15) 0.0041(17) -0.0010(16)
C61 0.0200(18) 0.023(2) 0.037(2) 0.0020(14) 0.0016(16) -0.0006(17)
C62 0.0189(19) 0.0226(19) 0.036(2) 0.0006(14) 0.0009(16) 0.0029(17)
C63 0.024(2) 0.0268(19) 0.027(2) 0.0009(14) -0.0045(18) 0.0068(18)
C64 0.0212(19) 0.0235(19) 0.033(2) 0.0051(16) 0.0010(17) 0.0006(18)
C65 0.029(2) 0.024(2) 0.043(3) 0.0032(17) 0.000(2) 0.001(2)
C66 0.030(2) 0.021(2) 0.046(3) -0.0033(17) 0.000(2) 0.003(2)
C67 0.024(2) 0.025(2) 0.029(2) 0.0025(16) 0.0071(17) 0.0036(17)
C68 0.028(2) 0.027(2) 0.030(2) 0.0062(17) 0.0001(18) 0.0054(18)
C69 0.0173(18) 0.0221(19) 0.019(2) 0.0004(14) 0.0019(15) -0.0018(15)
C70 0.0237(19) 0.0197(18) 0.021(2) -0.0011(14) -0.0008(16) 0.0000(15)
C71 0.0220(19) 0.0210(19) 0.023(2) -0.0016(14) -0.0048(16) 0.0052(15)
C72 0.024(2) 0.0222(19) 0.025(2) -0.0004(15) -0.0054(16) 0.0019(16)
C73 0.026(2) 0.0229(19) 0.019(2) -0.0026(16) -0.0023(16) 0.0022(16)
C74 0.0196(18) 0.0215(18) 0.0167(19) 0.0026(14) -0.0007(15) 0.0012(15)
C75 0.026(2) 0.0202(19) 0.025(2) -0.0035(15) -0.0058(17) -0.0016(16)
C76 0.029(2) 0.024(2) 0.034(3) 0.0029(17) -0.0024(18) 0.0012(18)
C77 0.027(2) 0.024(2) 0.034(3) -0.0008(17) -0.0039(18) 0.0047(18)
C78 0.028(2) 0.0196(19) 0.024(2) -0.0023(16) -0.0061(17) 0.0043(16)
C79 0.029(2) 0.0190(18) 0.030(2) -0.0045(15) -0.0036(17) 0.0019(16)
C80 0.031(2) 0.0209(19) 0.019(2) 0.0037(16) -0.0024(16) 0.0004(16)
C81 0.038(3) 0.0237(19) 0.030(2) 0.0064(18) 0.0017(19) -0.0064(17)
C82 0.041(3) 0.026(2) 0.032(3) 0.0024(18) -0.002(2) -0.0084(19)
C83 0.031(2) 0.024(2) 0.022(2) -0.0033(17) -0.0039(17) 0.0018(17)
C84 0.030(2) 0.0218(19) 0.028(2) -0.0053(16) 0.0004(18) 0.0034(17)
C85 0.0118(15) 0.0194(16) 0.0214(19) -0.0009(14) -0.0043(14) -0.0030(13)
C86 0.0213(19) 0.0143(16) 0.025(2) -0.0012(14) 0.0011(16) 0.0026(15)
O1 0.0296(16) 0.0265(14) 0.0216(15) -0.0029(12) -0.0065(12) 0.0012(11)
C87 0.0237(19) 0.0165(17) 0.022(2) -0.0013(15) -0.0018(16) 0.0044(15)
C88 0.0251(19) 0.0238(18) 0.030(2) -0.0058(17) -0.0014(16) 0.0024(19)
C89 0.033(2) 0.029(2) 0.030(2) -0.0105(18) 0.0002(19) 0.0087(19)
C90 0.023(2) 0.031(2) 0.038(3) -0.0093(17) -0.0022(19) 0.003(2)
C91 0.0249(18) 0.0297(19) 0.026(2) -0.0054(16) -0.0038(16) 0.005(2)
C92 0.0199(18) 0.0233(18) 0.031(2) 0.0002(14) 0.0008(16) -0.0003(17)
C93 0.0247(19) 0.0130(16) 0.025(2) -0.0012(14) 0.0008(15) 0.0014(14)
O2 0.0330(14) 0.0231(13) 0.0253(14) 0.0021(12) -0.0051(13) -0.0070(12)
C94 0.0218(17) 0.0218(16) 0.0230(18) 0.0043(15) 0.0022(16) -0.0012(17)
C95 0.033(2) 0.026(2) 0.035(2) 0.0112(18) -0.0046(19) -0.0086(19)
C96 0.037(3) 0.036(2) 0.040(3) 0.015(2) -0.002(2) -0.009(2)
C97 0.035(2) 0.037(3) 0.037(3) 0.014(2) 0.000(2) 0.004(2)
C98 0.0262(19) 0.031(2) 0.025(2) 0.0022(18) -0.0026(16) 0.0008(19)
C99 0.025(2) 0.026(2) 0.026(2) 0.0021(16) 0.0034(17) 0.0023(17)
O3 0.0334(15) 0.0172(12) 0.0238(14) -0.0006(12) -0.0024(13) 0.0027(10)
C100 0.054(3) 0.031(2) 0.045(3) 0.006(2) 0.023(2) 0.012(2)
C101 0.097(14) 0.043(6) 0.066(8) -0.030(7) -0.049(9) 0.021(6)
O4 0.047(2) 0.0266(16) 0.050(2) -0.0046(15) 0.0118(17) -0.0087(15)
C102 0.042(3) 0.040(3) 0.036(3) -0.002(2) -0.003(2) 0.002(2)
C103 0.050(3) 0.044(3) 0.034(3) 0.012(2) 0.003(2) -0.003(2)
O5 0.0415(19) 0.0213(15) 0.059(2) 0.0022(13) 0.0055(17) 0.0039(15)
C104 0.035(2) 0.034(2) 0.038(3) -0.0020(18) 0.007(2) 0.001(2)
C105 0.048(3) 0.039(3) 0.055(4) 0.012(2) 0.015(3) 0.011(3)
Cl1 0.0853(12) 0.0395(7) 0.0553(9) 0.0128(7) 0.0131(8) -0.0051(6)
Cl2 0.0470(9) 0.0612(9) 0.1081(14) 0.0027(7) 0.0183(9) 0.0376(9)
C106 0.043(3) 0.035(3) 0.048(3) -0.006(2) 0.006(2) -0.003(2)
Cl3 0.219(4) 0.118(2) 0.0976(19) 0.058(2) 0.005(2) -0.0263(17)
Cl4 0.0654(19) 0.520(10) 0.185(4) -0.018(3) 0.014(2) 0.107(5)
C107 0.172(12) 0.291(18) 0.232(14) 0.168(12) 0.144(11) 0.207(14)
loop_
_atom_type_symbol
_atom_type_description
_atom_type_scat_dispersion_real
_atom_type_scat_dispersion_imag
_atom_type_scat_source
Ru Ru -1.2594 0.8363 'International Tables Vol C Tables 4.2.6.8 and 6.1.1.4'
Cl Cl 0.1484 0.1585 'International Tables Vol C Tables 4.2.6.8 and 6.1.1.4'
O O 0.0106 0.0060 'International Tables Vol C Tables 4.2.6.8 and 6.1.1.4'
N N 0.0061 0.0033 'International Tables Vol C Tables 4.2.6.8 and 6.1.1.4'
C C 0.0033 0.0016 'International Tables Vol C Tables 4.2.6.8 and 6.1.1.4'
H H 0.0000 0.0000 'International Tables Vol C Tables 4.2.6.8 and 6.1.1.4'
loop_
_geom_angle_atom_site_label_1
_geom_angle_atom_site_label_2
_geom_angle_atom_site_label_3
_geom_angle
_geom_angle_publ_flag
C85 Ru1 N1 92.26(14) yes
C85 Ru1 N2 95.76(14) yes
C85 Ru1 N3 93.91(14) yes
C85 Ru1 N4 95.75(14) yes
N1 Ru1 N2 90.54(12) yes
N1 Ru1 N3 173.83(12) yes
N1 Ru1 N4 89.15(12) yes
N2 Ru1 N3 88.80(11) yes
N2 Ru1 N4 168.49(12) yes
N3 Ru1 N4 90.27(12) yes
C85 Ru1 O3 177.01(14) yes
N1 Ru1 O3 84.78(11) yes
N2 Ru1 O3 83.87(12) yes
N3 Ru1 O3 89.05(11) yes
N4 Ru1 O3 84.64(11) yes
C1 N1 C4 107.5(3) no
Ru1 N1 C1 126.5(2) no
Ru1 N1 C4 126.0(3) no
C9 N2 C6 107.4(3) no
Ru1 N2 C6 125.8(2) no
Ru1 N2 C9 126.8(2) no
C11 N3 C14 107.2(3) no
Ru1 N3 C11 126.6(2) no
Ru1 N3 C14 126.2(2) no
C16 N4 C19 106.6(3) no
Ru1 N4 C16 126.7(2) no
Ru1 N4 C19 126.6(2) no
N1 C1 C20 126.0(3) no
N1 C1 C2 108.7(3) no
C2 C1 C20 124.9(3) no
C1 C2 C3 107.8(3) no
C3 C2 H1 126.1 no
C1 C2 H1 126.1 no
C2 C3 C4 106.9(3) no
C2 C3 H2 126.5 no
C4 C3 H2 126.5 no
N1 C4 C3 109.1(3) no
N1 C4 C5 126.0(3) no
C3 C4 C5 124.9(3) no
C4 C5 C6 125.5(3) no
C4 C5 C21 118.7(3) no
C6 C5 C21 115.8(3) no
N2 C6 C5 126.0(3) no
N2 C6 C7 109.1(3) no
C5 C6 C7 124.9(3) no
C6 C7 C8 106.4(3) no
C8 C7 H3 126.8 no
C6 C7 H3 126.8 no
C7 C8 C9 108.7(3) no
C7 C8 H4 125.6 no
C9 C8 H4 125.6 no
N2 C9 C10 126.6(3) no
N2 C9 C8 108.4(3) no
C8 C9 C10 125.0(3) no
C9 C10 C11 124.3(4) no
C11 C10 C37 117.4(3) no
C9 C10 C37 118.3(3) no
N3 C11 C10 125.8(4) no
N3 C11 C12 108.8(3) no
C10 C11 C12 125.0(4) no
C11 C12 C13 107.4(4) no
C13 C12 H5 126.3 no
C11 C12 H5 126.3 no
C12 C13 C14 107.5(4) no
C12 C13 H6 126.2 no
C14 C13 H6 126.2 no
N3 C14 C15 125.8(3) no
N3 C14 C13 109.0(3) no
C13 C14 C15 125.2(3) no
C14 C15 C16 125.9(3) no
C14 C15 C53 116.4(3) no
C16 C15 C53 117.6(3) no
N4 C16 C15 124.9(3) no
N4 C16 C17 109.2(3) no
C15 C16 C17 125.9(3) no
C16 C17 C18 107.5(3) no
C18 C17 H7 126.2 no
C16 C17 H7 126.2 no
C17 C18 C19 107.6(3) no
C17 C18 H8 126.2 no
C19 C18 H8 126.2 no
N4 C19 C20 125.8(3) no
N4 C19 C18 109.0(3) no
C18 C19 C20 125.2(4) no
C1 C20 C19 124.4(3) no
C1 C20 C69 117.3(3) no
C19 C20 C69 118.3(3) no
C22 C21 C26 116.3(3) no
C22 C21 C5 125.1(3) no
C26 C21 C5 118.5(3) no
C21 C22 C23 121.9(4) no
C21 C22 C27 131.9(4) no
C23 C22 C27 106.2(4) no
C22 C23 C24 121.6(4) no
C24 C23 C30 132.1(4) no
C22 C23 C30 106.3(3) no
C23 C24 C25 116.7(4) no
C25 C24 H9 121.7 no
C23 C24 H9 121.7 no
C24 C25 C26 121.4(4) no
C24 C25 C35 132.0(4) no
C26 C25 C35 106.6(4) no
C21 C26 C25 122.0(4) no
C21 C26 C32 131.7(4) no
C25 C26 C32 106.2(3) no
C22 C27 C31 100.7(3) no
C22 C27 C28 107.7(3) no
C31 C27 C28 100.2(3) no
C22 C27 H10 115.4 no
C31 C27 H10 115.4 no
C28 C27 H10 115.4 no
C29 C28 C27 102.5(3) no
C29 C28 H11 111.3 no
C27 C28 H11 111.3 no
C29 C28 H12 111.3 no
C27 C28 H12 111.3 no
H11 C28 H12 109.2 no
C28 C29 C30 103.2(3) no
C30 C29 H13 111.1 no
C28 C29 H13 111.1 no
C30 C29 H14 111.1 no
C28 C29 H14 111.1 no
H13 C29 H14 109.1 no
C23 C30 C31 100.2(3) no
C23 C30 C29 106.7(3) no
C29 C30 C31 101.7(4) no
C23 C30 H15 115.4 no
C31 C30 H15 115.4 no
C29 C30 H15 115.4 no
C30 C31 C27 93.3(3) no
C30 C31 H16 113.1 no
C27 C31 H16 113.1 no
C30 C31 H17 113.1 no
C27 C31 H17 113.1 no
H16 C31 H17 110.4 no
C26 C32 C36 100.0(3) no
C26 C32 C33 108.0(3) no
C36 C32 C33 100.1(3) no
C26 C32 H18 115.6 no
C36 C32 H18 115.6 no
C33 C32 H18 115.6 no
C32 C33 C34 102.6(3) no
C32 C33 H19 111.2 no
C34 C33 H19 111.2 no
C32 C33 H20 111.2 no
C34 C33 H20 111.2 no
H19 C33 H20 109.2 no
C33 C34 C35 103.2(3) no
C35 C34 H21 111.1 no
C33 C34 H21 111.1 no
C35 C34 H22 111.1 no
C33 C34 H22 111.1 no
H21 C34 H22 109.1 no
C25 C35 C36 100.7(3) no
C25 C35 C34 106.1(3) no
C34 C35 C36 100.7(4) no
C25 C35 H23 115.7 no
C36 C35 H23 115.7 no
C34 C35 H23 115.7 no
C35 C36 C32 94.2(3) no
C35 C36 H24 112.9 no
C32 C36 H24 112.9 no
C35 C36 H25 112.9 no
C32 C36 H25 112.9 no
H24 C36 H25 110.3 no
C38 C37 C42 115.6(4) no
C38 C37 C10 120.7(3) no
C42 C37 C10 123.5(3) no
C37 C38 C39 122.6(4) no
C37 C38 C43 130.5(4) no
C39 C38 C43 106.9(3) no
C38 C39 C40 121.4(4) no
C40 C39 C46 132.8(4) no
C38 C39 C46 105.8(4) no
C39 C40 C41 116.5(4) no
C39 C40 H26 121.7 no
C41 C40 H26 121.7 no
C40 C41 C42 122.1(4) no
C42 C41 C51 106.6(4) no
C40 C41 C51 130.7(4) no
C41 C42 C37 121.7(4) no
C41 C42 C48 106.1(3) no
C37 C42 C48 131.8(4) no
C38 C43 C47 99.2(3) no
C38 C43 C44 106.9(3) no
C47 C43 C44 100.6(3) no
C38 C43 H27 116.0 no
C47 C43 H27 116.0 no
C44 C43 H27 116.0 no
C43 C44 C45 103.4(3) no
C43 C44 H28 111.1 no
C45 C44 H28 111.1 no
C43 C44 H29 111.1 no
C45 C44 H29 111.1 no
H28 C44 H29 109.1 no
C44 C45 C46 102.3(3) no
C46 C45 H30 111.3 no
C44 C45 H30 111.3 no
C46 C45 H31 111.3 no
C44 C45 H31 111.3 no
H30 C45 H31 109.2 no
C39 C46 C47 100.4(3) no
C39 C46 C45 106.4(3) no
C45 C46 C47 101.7(3) no
C39 C46 H32 115.5 no
C47 C46 H32 115.5 no
C45 C46 H32 115.5 no
C43 C47 C46 94.7(3) no
C43 C47 H33 112.8 no
C46 C47 H33 112.8 no
C43 C47 H34 112.8 no
C46 C47 H34 112.8 no
H33 C47 H34 110.2 no
C42 C48 C52 101.1(3) no
C42 C48 C49 106.2(3) no
C52 C48 C49 100.7(3) no
C42 C48 H35 115.6 no
C52 C48 H35 115.6 no
C49 C48 H35 115.6 no
C48 C49 C50 102.4(4) no
C48 C49 H36 111.3 no
C50 C49 H36 111.3 no
C48 C49 H37 111.3 no
C50 C49 H37 111.3 no
H36 C49 H37 109.2 no
C49 C50 C51 102.7(4) no
C51 C50 H38 111.2 no
C49 C50 H38 111.2 no
C51 C50 H39 111.2 no
C49 C50 H39 111.2 no
H38 C50 H39 109.1 no
C41 C51 C52 100.0(3) no
C41 C51 C50 106.0(4) no
C50 C51 C52 101.7(4) no
C41 C51 H40 115.7 no
C52 C51 H40 115.7 no
C50 C51 H40 115.7 no
C51 C52 C48 94.2(3) no
C51 C52 H41 112.9 no
C48 C52 H41 112.9 no
C51 C52 H42 112.9 no
C48 C52 H42 112.9 no
H41 C52 H42 110.3 no
C58 C53 C54 115.3(3) no
C58 C53 C15 123.5(3) no
C54 C53 C15 121.1(4) no
C53 C54 C55 122.9(4) no
C53 C54 C59 129.9(4) no
C55 C54 C59 106.7(3) no
C54 C55 C56 120.9(4) no
C56 C55 C62 132.4(4) no
C54 C55 C62 106.3(3) no
C55 C56 C57 117.0(4) no
C55 C56 H43 121.5 no
C57 C56 H43 121.5 no
C56 C57 C58 122.0(4) no
C56 C57 C67 131.4(4) no
C58 C57 C67 106.5(3) no
C53 C58 C57 121.8(3) no
C53 C58 C64 132.0(4) no
C57 C58 C64 106.2(3) no
C54 C59 C63 99.6(3) no
C54 C59 C60 105.9(3) no
C63 C59 C60 100.5(3) no
C54 C59 H44 116.2 no
C63 C59 H44 116.2 no
C60 C59 H44 116.1 no
C59 C60 C61 103.6(3) no
C59 C60 H45 111.0 no
C61 C60 H45 111.0 no
C59 C60 H46 111.0 no
C61 C60 H46 111.0 no
H45 C60 H46 109.0 no
C60 C61 C62 102.3(3) no
C62 C61 H47 111.3 no
C60 C61 H47 111.3 no
C62 C61 H48 111.3 no
C60 C61 H48 111.3 no
H47 C61 H48 109.2 no
C55 C62 C63 101.0(3) no
C55 C62 C61 106.9(3) no
C61 C62 C63 100.1(3) no
C55 C62 H49 115.6 no
C63 C62 H49 115.6 no
C61 C62 H49 115.6 no
C62 C63 C59 94.5(3) no
C62 C63 H50 112.8 no
C59 C63 H50 112.8 no
C62 C63 H51 112.8 no
C59 C63 H51 112.8 no
H50 C63 H51 110.3 no
C58 C64 C68 100.2(3) no
C58 C64 C65 106.4(3) no
C68 C64 C65 100.3(3) no
C58 C64 H52 115.9 no
C68 C64 H52 115.9 no
C65 C64 H52 115.9 no
C64 C65 C66 103.1(4) no
C66 C65 H53 111.1 no
C64 C65 H53 111.1 no
C66 C65 H54 111.1 no
C64 C65 H54 111.1 no
H53 C65 H54 109.1 no
C65 C66 C67 103.5(3) no
C67 C66 H55 111.1 no
C65 C66 H55 111.1 no
C67 C66 H56 111.1 no
C65 C66 H56 111.1 no
H55 C66 H56 109.0 no
C57 C67 C66 106.6(3) no
C57 C67 C68 100.3(3) no
C66 C67 C68 101.2(3) no
C57 C67 H57 115.6 no
C66 C67 H57 115.6 no
C68 C67 H57 115.6 no
C67 C68 C64 93.9(3) no
C67 C68 H58 112.9 no
C64 C68 H58 112.9 no
C67 C68 H59 112.9 no
C64 C68 H59 112.9 no
H58 C68 H59 110.4 no
C74 C69 C70 115.6(3) no
C74 C69 C20 123.4(3) no
C70 C69 C20 121.0(3) no
C69 C70 C71 122.8(4) no
C69 C70 C75 131.5(4) no
C71 C70 C75 105.6(3) no
C72 C71 C70 120.7(4) no
C72 C71 C78 131.8(4) no
C70 C71 C78 107.4(3) no
C71 C72 C73 117.6(4) no
C73 C72 H60 121.2 no
C71 C72 H60 121.2 no
C72 C73 C74 121.5(4) no
C72 C73 C83 131.3(4) no
C74 C73 C83 107.0(3) no
C69 C74 C73 121.7(4) no
C69 C74 C80 132.3(4) no
C73 C74 C80 105.9(3) no
C70 C75 C76 106.3(3) no
C70 C75 C79 99.7(3) no
C76 C75 C79 101.0(3) no
C70 C75 H61 115.9 no
C76 C75 H61 115.9 no
C79 C75 H61 115.9 no
C75 C76 C77 103.8(3) no
C75 C76 H62 111.0 no
C77 C76 H62 111.0 no
C75 C76 H63 111.0 no
C77 C76 H63 111.0 no
H62 C76 H63 109.0 no
C76 C77 C78 102.8(3) no
C76 C77 H64 111.2 no
C78 C77 H64 111.2 no
C76 C77 H65 111.2 no
C78 C77 H65 111.2 no
H64 C77 H65 109.1 no
C71 C78 C79 100.1(3) no
C71 C78 C77 106.4(3) no
C77 C78 C79 100.6(3) no
C71 C78 H66 115.8 no
C79 C78 H66 115.8 no
C77 C78 H66 115.8 no
C78 C79 C75 94.2(3) no
C78 C79 H67 112.9 no
C75 C79 H67 112.9 no
C78 C79 H68 112.9 no
C75 C79 H68 112.9 no
H67 C79 H68 110.3 no
C74 C80 C84 100.0(3) no
C74 C80 C81 106.7(3) no
C84 C80 C81 99.4(3) no
C74 C80 H69 116.1 no
C84 C80 H69 116.1 no
C81 C80 H69 116.1 no
C80 C81 C82 103.9(4) no
C82 C81 H70 111.0 no
C80 C81 H70 111.0 no
C82 C81 H71 111.0 no
C80 C81 H71 111.0 no
H70 C81 H71 109.0 no
C81 C82 C83 102.6(3) no
C81 C82 H72 111.2 no
C83 C82 H72 111.2 no
C81 C82 H73 111.2 no
C83 C82 H73 111.2 no
H72 C82 H73 109.2 no
C73 C83 C84 100.5(3) no
C73 C83 C82 106.4(3) no
C82 C83 C84 100.6(3) no
C73 C83 H74 115.7 no
C84 C83 H74 115.7 no
C82 C83 H74 115.7 no
C83 C84 C80 95.0(3) no
C83 C84 H75 112.7 no
C80 C84 H75 112.7 no
C83 C84 H76 112.7 no
C80 C84 H76 112.7 no
H75 C84 H76 110.2 no
C86 C85 C93 109.8(3) yes
Ru1 C85 C86 124.5(3) yes
Ru1 C85 C93 125.7(3) yes
O1 C86 C87 121.1(4) no
O1 C86 C85 118.9(3) no
C85 C86 C87 119.9(3) no
C92 C87 C88 120.2(4) no
C92 C87 C86 120.9(4) no
C86 C87 C88 118.9(3) no
C87 C88 C89 119.8(4) no
C89 C88 H77 120.1 no
C87 C88 H77 120.1 no
C88 C89 C90 120.5(4) no
C88 C89 H78 119.7 no
C90 C89 H78 119.7 no
C89 C90 C91 119.7(4) no
C89 C90 H79 120.2 no
C91 C90 H79 120.2 no
C90 C91 C92 120.5(4) no
C90 C91 H80 119.8 no
C92 C91 H80 119.8 no
C87 C92 C91 119.4(4) no
C87 C92 H81 120.3 no
C91 C92 H81 120.3 no
O2 C93 C85 119.3(3) no
O2 C93 C94 120.4(3) no
C94 C93 C85 120.1(3) no
C99 C94 C95 119.4(4) no
C99 C94 C93 122.4(3) no
C93 C94 C95 118.1(4) no
C94 C95 C96 120.3(4) no
C96 C95 H82 119.9 no
C94 C95 H82 119.9 no
C95 C96 C97 120.6(4) no
C97 C96 H83 119.7 no
C95 C96 H83 119.7 no
C96 C97 C98 119.4(4) no
C96 C97 H84 120.3 no
C98 C97 H84 120.3 no
C97 C98 C99 120.6(4) no
C97 C98 H85 119.7 no
C99 C98 H85 119.7 no
C94 C99 C98 119.7(4) no
C94 C99 H86 120.1 no
C98 C99 H86 120.1 no
C100 O3 Ru1 130.0(3) no
C100 O3 H87 109.5 no
Ru1 O3 H87 119.5 no
O3 C100 C101 107.6(8) no
O3 C100 H88 110.2 no
O3 C100 H89 110.2 no
C101 C100 H88 110.2 no
C101 C100 H89 110.2 no
H88 C100 H89 108.5 no
C100 C101 H90 109.5 no
C100 C101 H91 109.5 no
C100 C101 H92 109.5 no
H90 C101 H91 109.5 no
H90 C101 H92 109.5 no
H91 C101 H92 109.5 no
O3 C100 C108 125.6(10) no
C108 C100 H88 82.8 no
C108 C100 H89 115.0 no
C100 C108 H109 109.5 no
C100 C108 H110 109.5 no
H109 C108 H110 109.5 no
C100 C108 H111 109.5 no
H109 C108 H111 109.5 no
H110 C108 H111 109.5 no
C102 O4 H87 128.4 no
C102 O4 H93 109.5 no
O4 C102 C103 112.2(4) no
O4 C102 H94 109.2 no
C103 C102 H94 109.2 no
O4 C102 H95 109.2 no
C103 C102 H95 109.2 no
H94 C102 H95 107.9 no
C102 C103 H96 109.5 no
C102 C103 H97 109.5 no
H96 C103 H97 109.5 no
C102 C103 H98 109.5 no
H96 C103 H98 109.5 no
H97 C103 H98 109.5 no
C104 O5 H93 116.9 no
C104 O5 H99 109.5 no
O5 C104 C105 105.7(4) no
O5 C104 H100 110.6 no
C105 C104 H100 110.6 no
O5 C104 H101 110.6 no
C105 C104 H101 110.6 no
H100 C104 H101 108.7 no
C104 C105 H102 109.5 no
C104 C105 H103 109.5 no
H102 C105 H103 109.5 no
C104 C105 H104 109.5 no
H102 C105 H104 109.5 no
H103 C105 H104 109.5 no
Cl1 C106 Cl2 112.1(3) no
Cl2 C106 H105 109.2 no
Cl1 C106 H105 109.2 no
Cl2 C106 H106 109.2 no
Cl1 C106 H106 109.2 no
H105 C106 H106 107.9 no
Cl3 C107 Cl4 119.6(7) no
Cl4 C107 H107 107.4 no
Cl3 C107 H107 107.4 no
Cl4 C107 H108 107.4 no
Cl3 C107 H108 107.4 no
H107 C107 H108 106.9 no
loop_
_geom_bond_atom_site_label_1
_geom_bond_atom_site_label_2
_geom_bond_distance
_geom_bond_publ_flag
Ru1 C85 1.866(3) yes
Ru1 N4 2.044(3) yes
Ru1 N1 2.044(3) yes
Ru1 N2 2.048(3) yes
Ru1 N3 2.061(3) yes
Ru1 O3 2.260(2) yes
N1 C4 1.374(5) no
N1 C1 1.376(5) no
N2 C9 1.369(4) no
N2 C6 1.375(4) no
N3 C14 1.375(5) no
N3 C11 1.381(5) no
N4 C19 1.376(5) no
N4 C16 1.384(4) no
C1 C20 1.397(5) no
C1 C2 1.449(5) no
C2 C3 1.351(5) no
C2 H1 0.9500 no
C3 C4 1.454(5) no
C3 H2 0.9500 no
C4 C5 1.397(5) no
C5 C6 1.401(6) no
C5 C21 1.506(5) no
C6 C7 1.448(5) no
C7 C8 1.341(5) no
C7 H3 0.9500 no
C8 C9 1.437(5) no
C8 H4 0.9500 no
C9 C10 1.400(5) no
C10 C11 1.398(5) no
C10 C37 1.496(5) no
C11 C12 1.441(5) no
C12 C13 1.353(6) no
C12 H5 0.9500 no
C13 C14 1.441(5) no
C13 H6 0.9500 no
C14 C15 1.396(5) no
C15 C16 1.418(5) no
C15 C53 1.498(5) no
C16 C17 1.425(5) no
C17 C18 1.351(6) no
C17 H7 0.9500 no
C18 C19 1.434(5) no
C18 H8 0.9500 no
C19 C20 1.406(5) no
C20 C69 1.521(5) no
C21 C22 1.390(5) no
C21 C26 1.398(5) no
C22 C23 1.404(5) no
C22 C27 1.511(5) no
C23 C24 1.396(5) no
C23 C30 1.508(5) no
C24 C25 1.393(6) no
C24 H9 0.9500 no
C25 C26 1.402(5) no
C25 C35 1.510(6) no
C26 C32 1.524(5) no
C27 C31 1.549(6) no
C27 C28 1.560(6) no
C27 H10 1.0000 no
C28 C29 1.557(6) no
C28 H11 0.9900 no
C28 H12 0.9900 no
C29 C30 1.550(5) no
C29 H13 0.9900 no
C29 H14 0.9900 no
C30 C31 1.545(6) no
C30 H15 1.0000 no
C31 H16 0.9900 no
C31 H17 0.9900 no
C32 C36 1.542(6) no
C32 C33 1.558(6) no
C32 H18 1.0000 no
C33 C34 1.560(6) no
C33 H19 0.9900 no
C33 H20 0.9900 no
C34 C35 1.556(7) no
C34 H21 0.9900 no
C34 H22 0.9900 no
C35 C36 1.541(6) no
C35 H23 1.0000 no
C36 H24 0.9900 no
C36 H25 0.9900 no
C37 C38 1.396(5) no
C37 C42 1.408(5) no
C38 C39 1.403(5) no
C38 C43 1.519(6) no
C39 C40 1.388(6) no
C39 C46 1.513(5) no
C40 C41 1.401(5) no
C40 H26 0.9500 no
C41 C42 1.395(5) no
C41 C51 1.513(6) no
C42 C48 1.506(6) no
C43 C47 1.535(5) no
C43 C44 1.551(6) no
C43 H27 1.0000 no
C44 C45 1.571(6) no
C44 H28 0.9900 no
C44 H29 0.9900 no
C45 C46 1.545(6) no
C45 H30 0.9900 no
C45 H31 0.9900 no
C46 C47 1.535(5) no
C46 H32 1.0000 no
C47 H33 0.9900 no
C47 H34 0.9900 no
C48 C52 1.535(6) no
C48 C49 1.559(6) no
C48 H35 1.0000 no
C49 C50 1.572(6) no
C49 H36 0.9900 no
C49 H37 0.9900 no
C50 C51 1.551(6) no
C50 H38 0.9900 no
C50 H39 0.9900 no
C51 C52 1.531(6) no
C51 H40 1.0000 no
C52 H41 0.9900 no
C52 H42 0.9900 no
C53 C58 1.397(5) no
C53 C54 1.401(5) no
C54 C55 1.401(5) no
C54 C59 1.506(5) no
C55 C56 1.387(5) no
C55 C62 1.511(5) no
C56 C57 1.388(5) no
C56 H43 0.9500 no
C57 C58 1.405(5) no
C57 C67 1.523(5) no
C58 C64 1.520(5) no
C59 C63 1.543(5) no
C59 C60 1.559(6) no
C59 H44 1.0000 no
C60 C61 1.561(5) no
C60 H45 0.9900 no
C60 H46 0.9900 no
C61 C62 1.549(6) no
C61 H47 0.9900 no
C61 H48 0.9900 no
C62 C63 1.535(6) no
C62 H49 1.0000 no
C63 H50 0.9900 no
C63 H51 0.9900 no
C64 C68 1.550(6) no
C64 C65 1.557(6) no
C64 H52 1.0000 no
C65 C66 1.551(6) no
C65 H53 0.9900 no
C65 H54 0.9900 no
C66 C67 1.527(6) no
C66 H55 0.9900 no
C66 H56 0.9900 no
C67 C68 1.544(6) no
C67 H57 1.0000 no
C68 H58 0.9900 no
C68 H59 0.9900 no
C69 C74 1.397(5) no
C69 C70 1.400(5) no
C70 C71 1.402(5) no
C70 C75 1.528(5) no
C71 C72 1.387(5) no
C71 C78 1.509(5) no
C72 C73 1.383(5) no
C72 H60 0.9500 no
C73 C74 1.412(5) no
C73 C83 1.500(5) no
C74 C80 1.522(5) no
C75 C76 1.544(6) no
C75 C79 1.547(6) no
C75 H61 1.0000 no
C76 C77 1.552(6) no
C76 H62 0.9900 no
C76 H63 0.9900 no
C77 C78 1.553(6) no
C77 H64 0.9900 no
C77 H65 0.9900 no
C78 C79 1.544(5) no
C78 H66 1.0000 no
C79 H67 0.9900 no
C79 H68 0.9900 no
C80 C84 1.546(6) no
C80 C81 1.557(6) no
C80 H69 1.0000 no
C81 C82 1.551(6) no
C81 H70 0.9900 no
C81 H71 0.9900 no
C82 C83 1.564(6) no
C82 H72 0.9900 no
C82 H73 0.9900 no
C83 C84 1.530(6) no
C83 H74 1.0000 no
C84 H75 0.9900 no
C84 H76 0.9900 no
C85 C86 1.502(5) no
C85 C93 1.505(5) no
C86 O1 1.235(5) no
C86 C87 1.491(5) no
C87 C92 1.389(6) no
C87 C88 1.398(5) no
C88 C89 1.383(6) no
C88 H77 0.9500 no
C89 C90 1.386(6) no
C89 H78 0.9500 no
C90 C91 1.388(6) no
C90 H79 0.9500 no
C91 C92 1.396(5) no
C91 H80 0.9500 no
C92 H81 0.9500 no
C93 O2 1.232(5) no
C93 C94 1.492(5) no
C94 C99 1.383(6) no
C94 C95 1.403(5) no
C95 C96 1.382(6) no
C95 H82 0.9500 no
C96 C97 1.376(7) no
C96 H83 0.9500 no
C97 C98 1.391(6) no
C97 H84 0.9500 no
C98 C99 1.394(5) no
C98 H85 0.9500 no
C99 H86 0.9500 no
O3 C100 1.427(5) no
O3 H87 0.8400 no
C100 C108 1.304(19) no
C100 C101 1.549(17) no
C100 H88 0.9900 no
C100 H89 0.9900 no
C101 H90 0.9800 no
C101 H91 0.9800 no
C101 H92 0.9800 no
C108 H109 0.9800 no
C108 H110 0.9800 no
C108 H111 0.9800 no
O4 C102 1.397(6) no
O4 H93 0.8400 no
C102 C103 1.516(7) no
C102 H94 0.9900 no
C102 H95 0.9900 no
C103 H96 0.9800 no
C103 H97 0.9800 no
C103 H98 0.9800 no
O5 C104 1.443(5) no
O5 H99 0.8400 no
C104 C105 1.502(6) no
C104 H100 0.9900 no
C104 H101 0.9900 no
C105 H102 0.9800 no
C105 H103 0.9800 no
C105 H104 0.9800 no
Cl1 C106 1.764(5) no
Cl2 C106 1.743(5) no
C106 H105 0.9900 no
C106 H106 0.9900 no
Cl3 C107 1.644(9) no
Cl4 C107 1.639(10) no
C107 H107 0.9900 no
C107 H108 0.9900 no
loop_
_geom_hbond_atom_site_label_D
_geom_hbond_atom_site_label_H
_geom_hbond_atom_site_label_A
_geom_hbond_site_symmetry_A
_geom_hbond_distance_DH
_geom_hbond_distance_HA
_geom_hbond_distance_DA
_geom_hbond_angle_DHA
_geom_hbond_publ_flag
O3 H87 O4 . 0.84 1.87 2.686(4) 162 yes
O4 H93 O5 . 0.84 1.95 2.785(5) 173 yes
O5 H99 O2 3_656 0.84 2.00 2.828(4) 169 yes
C106 H105 O1 2_564 0.99 2.45 3.314(6) 145 yes
C75 H61 O1 . 1.00 2.29 3.285(5) 172 yes
C43 H27 O2 . 1.00 2.31 3.307(5) 172 yes
loop_
_geom_torsion_atom_site_label_1
_geom_torsion_atom_site_label_2
_geom_torsion_atom_site_label_3
_geom_torsion_atom_site_label_4
_geom_torsion
_geom_torsion_publ_flag
C85 Ru1 N1 C4 -97.7(3) no
N4 Ru1 N1 C4 166.6(3) no
N2 Ru1 N1 C4 -1.9(3) no
O3 Ru1 N1 C4 81.9(3) no
C85 Ru1 N1 C1 83.4(3) no
N4 Ru1 N1 C1 -12.3(3) no
N2 Ru1 N1 C1 179.2(3) no
O3 Ru1 N1 C1 -97.0(3) no
C85 Ru1 N2 C9 -84.1(3) no
N4 Ru1 N2 C9 95.2(7) no
N1 Ru1 N2 C9 -176.4(3) no
N3 Ru1 N2 C9 9.7(3) no
O3 Ru1 N2 C9 98.9(3) no
C85 Ru1 N2 C6 92.3(3) no
N4 Ru1 N2 C6 -88.4(6) no
N1 Ru1 N2 C6 0.0(3) no
N3 Ru1 N2 C6 -173.9(3) no
O3 Ru1 N2 C6 -84.7(3) no
C85 Ru1 N3 C14 -96.8(3) no
N4 Ru1 N3 C14 -1.0(3) no
N2 Ru1 N3 C14 167.5(3) no
O3 Ru1 N3 C14 83.6(3) no
C85 Ru1 N3 C11 84.5(3) no
N4 Ru1 N3 C11 -179.8(3) no
N2 Ru1 N3 C11 -11.2(3) no
O3 Ru1 N3 C11 -95.1(3) no
C85 Ru1 N4 C19 -80.4(3) no
N1 Ru1 N4 C19 11.8(3) no
N2 Ru1 N4 C19 100.4(6) no
N3 Ru1 N4 C19 -174.3(3) no
O3 Ru1 N4 C19 96.7(3) no
C85 Ru1 N4 C16 94.6(3) no
N1 Ru1 N4 C16 -173.2(3) no
N2 Ru1 N4 C16 -84.7(6) no
N3 Ru1 N4 C16 0.6(3) no
O3 Ru1 N4 C16 -88.4(3) no
C4 N1 C1 C20 -171.7(3) no
Ru1 N1 C1 C20 7.4(5) no
C4 N1 C1 C2 1.5(4) no
Ru1 N1 C1 C2 -179.4(2) no
N1 C1 C2 C3 -2.3(4) no
C20 C1 C2 C3 171.1(4) no
C1 C2 C3 C4 2.0(4) no
C1 N1 C4 C5 179.8(4) no
Ru1 N1 C4 C5 0.7(5) no
C1 N1 C4 C3 -0.3(4) no
Ru1 N1 C4 C3 -179.4(2) no
C2 C3 C4 N1 -1.1(4) no
C2 C3 C4 C5 178.8(4) no
N1 C4 C5 C6 3.2(6) no
C3 C4 C5 C6 -176.6(4) no
N1 C4 C5 C21 -173.4(3) no
C3 C4 C5 C21 6.8(6) no
C9 N2 C6 C5 -179.6(3) no
Ru1 N2 C6 C5 3.4(5) no
C9 N2 C6 C7 0.6(4) no
Ru1 N2 C6 C7 -176.4(2) no
C4 C5 C6 N2 -5.4(6) no
C21 C5 C6 N2 171.2(3) no
C4 C5 C6 C7 174.3(4) no
C21 C5 C6 C7 -9.0(5) no
N2 C6 C7 C8 -1.1(4) no
C5 C6 C7 C8 179.2(4) no
C6 C7 C8 C9 1.1(4) no
C6 N2 C9 C10 178.4(4) no
Ru1 N2 C9 C10 -4.6(5) no
C6 N2 C9 C8 0.1(4) no
Ru1 N2 C9 C8 177.1(3) no
C7 C8 C9 N2 -0.8(5) no
C7 C8 C9 C10 -179.2(4) no
N2 C9 C10 C11 -3.7(6) no
C8 C9 C10 C11 174.4(4) no
N2 C9 C10 C37 177.3(3) no
C8 C9 C10 C37 -4.6(6) no
C14 N3 C11 C10 -171.1(4) no
Ru1 N3 C11 C10 7.8(5) no
C14 N3 C11 C12 2.2(4) no
Ru1 N3 C11 C12 -178.8(3) no
C9 C10 C11 N3 1.9(6) no
C37 C10 C11 N3 -179.1(3) no
C9 C10 C11 C12 -170.4(4) no
C37 C10 C11 C12 8.7(6) no
N3 C11 C12 C13 -1.9(5) no
C10 C11 C12 C13 171.5(4) no
C11 C12 C13 C14 0.8(5) no
C11 N3 C14 C15 177.1(4) no
Ru1 N3 C14 C15 -1.9(5) no
C11 N3 C14 C13 -1.8(4) no
Ru1 N3 C14 C13 179.3(2) no
C12 C13 C14 N3 0.6(4) no
C12 C13 C14 C15 -178.2(4) no
N3 C14 C15 C16 6.0(6) no
C13 C14 C15 C16 -175.4(4) no
N3 C14 C15 C53 -176.3(3) no
C13 C14 C15 C53 2.3(6) no
C19 N4 C16 C15 178.4(4) no
Ru1 N4 C16 C15 2.6(5) no
C19 N4 C16 C17 -1.7(4) no
Ru1 N4 C16 C17 -177.5(2) no
C14 C15 C16 N4 -6.4(6) no
C53 C15 C16 N4 176.0(3) no
C14 C15 C16 C17 173.7(4) no
C53 C15 C16 C17 -3.9(6) no
N4 C16 C17 C18 2.8(4) no
C15 C16 C17 C18 -177.3(4) no
C16 C17 C18 C19 -2.7(4) no
C16 N4 C19 C20 177.9(3) no
Ru1 N4 C19 C20 -6.3(5) no
C16 N4 C19 C18 0.0(4) no
Ru1 N4 C19 C18 175.8(2) no
C17 C18 C19 N4 1.8(4) no
C17 C18 C19 C20 -176.2(3) no
N1 C1 C20 C19 3.6(6) no
C2 C1 C20 C19 -168.6(3) no
N1 C1 C20 C69 -175.7(3) no
C2 C1 C20 C69 12.1(5) no
N4 C19 C20 C1 -4.2(6) no
C18 C19 C20 C1 173.4(4) no
N4 C19 C20 C69 175.2(3) no
C18 C19 C20 C69 -7.3(5) no
C4 C5 C21 C22 -82.1(5) no
C6 C5 C21 C22 101.0(4) no
C4 C5 C21 C26 101.2(4) no
C6 C5 C21 C26 -75.7(4) no
C26 C21 C22 C23 -0.9(6) no
C5 C21 C22 C23 -177.8(4) no
C26 C21 C22 C27 179.7(4) no
C5 C21 C22 C27 2.9(7) no
C21 C22 C23 C24 1.3(6) no
C27 C22 C23 C24 -179.2(4) no
C21 C22 C23 C30 -177.5(3) no
C27 C22 C23 C30 2.0(4) no
C22 C23 C24 C25 -1.0(6) no
C30 C23 C24 C25 177.5(4) no
C23 C24 C25 C26 0.4(6) no
C23 C24 C25 C35 177.6(4) no
C22 C21 C26 C25 0.4(6) no
C5 C21 C26 C25 177.4(4) no
C22 C21 C26 C32 -175.9(4) no
C5 C21 C26 C32 1.2(6) no
C24 C25 C26 C21 -0.1(6) no
C35 C25 C26 C21 -178.0(4) no
C24 C25 C26 C32 177.0(4) no
C35 C25 C26 C32 -0.9(4) no
C21 C22 C27 C31 -147.7(4) no
C23 C22 C27 C31 32.8(4) no
C21 C22 C27 C28 107.8(5) no
C23 C22 C27 C28 -71.7(4) no
C22 C27 C28 C29 65.6(4) no
C31 C27 C28 C29 -39.2(4) no
C27 C28 C29 C30 3.4(4) no
C24 C23 C30 C31 145.1(5) no
C22 C23 C30 C31 -36.2(4) no
C24 C23 C30 C29 -109.3(5) no
C22 C23 C30 C29 69.4(4) no
C28 C29 C30 C23 -70.8(4) no
C28 C29 C30 C31 33.7(4) no
C23 C30 C31 C27 53.0(3) no
C29 C30 C31 C27 -56.7(3) no
C22 C27 C31 C30 -51.8(3) no
C28 C27 C31 C30 58.5(3) no
C21 C26 C32 C36 -148.8(4) no
C25 C26 C32 C36 34.6(4) no
C21 C26 C32 C33 107.1(5) no
C25 C26 C32 C33 -69.5(4) no
C26 C32 C33 C34 66.0(4) no
C36 C32 C33 C34 -38.1(4) no
C32 C33 C34 C35 2.2(4) no
C24 C25 C35 C36 149.2(5) no
C26 C25 C35 C36 -33.2(4) no
C24 C25 C35 C34 -106.2(5) no
C26 C25 C35 C34 71.4(4) no
C33 C34 C35 C25 -70.2(4) no
C33 C34 C35 C36 34.4(4) no
C25 C35 C36 C32 51.7(4) no
C34 C35 C36 C32 -57.1(4) no
C26 C32 C36 C35 -51.9(4) no
C33 C32 C36 C35 58.5(4) no
C11 C10 C37 C38 74.9(5) no
C9 C10 C37 C38 -106.0(4) no
C11 C10 C37 C42 -99.8(4) no
C9 C10 C37 C42 79.3(5) no
C42 C37 C38 C39 1.2(6) no
C10 C37 C38 C39 -173.9(4) no
C42 C37 C38 C43 -175.6(4) no
C10 C37 C38 C43 9.2(6) no
C37 C38 C39 C40 0.7(6) no
C43 C38 C39 C40 178.2(4) no
C37 C38 C39 C46 -178.7(4) no
C43 C38 C39 C46 -1.2(4) no
C38 C39 C40 C41 -2.0(6) no
C46 C39 C40 C41 177.3(4) no
C39 C40 C41 C42 1.4(6) no
C39 C40 C41 C51 171.4(4) no
C40 C41 C42 C37 0.6(6) no
C51 C41 C42 C37 -171.6(4) no
C40 C41 C42 C48 174.3(4) no
C51 C41 C42 C48 2.1(4) no
C38 C37 C42 C41 -1.9(6) no
C10 C37 C42 C41 173.1(4) no
C38 C37 C42 C48 -173.7(4) no
C10 C37 C42 C48 1.2(7) no
C37 C38 C43 C47 -147.7(4) no
C39 C38 C43 C47 35.0(4) no
C37 C38 C43 C44 108.2(5) no
C39 C38 C43 C44 -69.1(4) no
C38 C43 C44 C45 67.0(4) no
C47 C43 C44 C45 -36.1(4) no
C43 C44 C45 C46 0.7(4) no
C40 C39 C46 C47 147.5(4) no
C38 C39 C46 C47 -33.1(4) no
C40 C39 C46 C45 -106.9(5) no
C38 C39 C46 C45 72.5(4) no
C44 C45 C46 C39 -69.6(4) no
C44 C45 C46 C47 35.0(4) no
C38 C43 C47 C46 -52.5(3) no
C44 C43 C47 C46 56.7(3) no
C39 C46 C47 C43 52.4(4) no
C45 C46 C47 C43 -56.9(4) no
C41 C42 C48 C52 32.0(4) no
C37 C42 C48 C52 -155.2(4) no
C41 C42 C48 C49 -72.7(4) no
C37 C42 C48 C49 100.1(5) no
C42 C48 C49 C50 67.5(4) no
C52 C48 C49 C50 -37.6(4) no
C48 C49 C50 C51 2.0(4) no
C42 C41 C51 C52 -35.4(4) no
C40 C41 C51 C52 153.3(4) no
C42 C41 C51 C50 69.9(4) no
C40 C41 C51 C50 -101.3(5) no
C49 C50 C51 C41 -69.7(4) no
C49 C50 C51 C52 34.4(4) no
C41 C51 C52 C48 51.8(4) no
C50 C51 C52 C48 -56.9(4) no
C42 C48 C52 C51 -51.1(4) no
C49 C48 C52 C51 58.0(4) no
C14 C15 C53 C58 73.3(5) no
C16 C15 C53 C58 -108.8(4) no
C14 C15 C53 C54 -104.9(4) no
C16 C15 C53 C54 72.9(5) no
C58 C53 C54 C55 2.1(6) no
C15 C53 C54 C55 -179.4(4) no
C58 C53 C54 C59 -169.3(4) no
C15 C53 C54 C59 9.2(6) no
C53 C54 C55 C56 -3.1(6) no
C59 C54 C55 C56 170.0(4) no
C53 C54 C55 C62 -176.9(4) no
C59 C54 C55 C62 -3.7(4) no
C54 C55 C56 C57 1.4(6) no
C62 C55 C56 C57 173.3(4) no
C55 C56 C57 C58 1.0(6) no
C55 C56 C57 C67 177.1(4) no
C54 C53 C58 C57 0.3(6) no
C15 C53 C58 C57 -178.1(4) no
C54 C53 C58 C64 -177.4(4) no
C15 C53 C58 C64 4.2(7) no
C56 C57 C58 C53 -1.9(6) no
C67 C57 C58 C53 -178.9(4) no
C56 C57 C58 C64 176.3(4) no
C67 C57 C58 C64 -0.7(4) no
C53 C54 C59 C63 -151.1(4) no
C55 C54 C59 C63 36.4(4) no
C53 C54 C59 C60 105.0(5) no
C55 C54 C59 C60 -67.5(4) no
C54 C59 C60 C61 70.8(4) no
C63 C59 C60 C61 -32.4(4) no
C59 C60 C61 C62 -4.2(4) no
C56 C55 C62 C63 156.6(4) no
C54 C55 C62 C63 -30.7(4) no
C56 C55 C62 C61 -99.1(5) no
C54 C55 C62 C61 73.6(4) no
C60 C61 C62 C55 -65.3(4) no
C60 C61 C62 C63 39.6(4) no
C55 C62 C63 C59 50.4(3) no
C61 C62 C63 C59 -59.2(3) no
C54 C59 C63 C62 -52.2(3) no
C60 C59 C63 C62 56.0(3) no
C53 C58 C64 C68 -147.4(4) no
C57 C58 C64 C68 34.7(4) no
C53 C58 C64 C65 108.6(5) no
C57 C58 C64 C65 -69.3(4) no
C58 C64 C65 C66 68.4(4) no
C68 C64 C65 C66 -35.6(4) no
C64 C65 C66 C67 -0.4(4) no
C56 C57 C67 C66 -105.3(5) no
C58 C57 C67 C66 71.4(4) no
C56 C57 C67 C68 149.6(4) no
C58 C57 C67 C68 -33.7(4) no
C65 C66 C67 C57 -68.0(4) no
C65 C66 C67 C68 36.5(4) no
C57 C67 C68 C64 52.0(4) no
C66 C67 C68 C64 -57.4(4) no
C58 C64 C68 C67 -52.5(4) no
C65 C64 C68 C67 56.4(3) no
C1 C20 C69 C74 -90.6(5) no
C19 C20 C69 C74 90.1(4) no
C1 C20 C69 C70 87.7(4) no
C19 C20 C69 C70 -91.7(4) no
C74 C69 C70 C71 -1.0(6) no
C20 C69 C70 C71 -179.4(4) no
C74 C69 C70 C75 -176.2(4) no
C20 C69 C70 C75 5.5(7) no
C69 C70 C71 C72 0.3(6) no
C75 C70 C71 C72 176.5(4) no
C69 C70 C71 C78 -177.9(4) no
C75 C70 C71 C78 -1.6(4) no
C70 C71 C72 C73 0.4(6) no
C78 C71 C72 C73 178.0(4) no
C71 C72 C73 C74 -0.3(6) no
C71 C72 C73 C83 174.3(4) no
C70 C69 C74 C73 1.1(6) no
C20 C69 C74 C73 179.4(4) no
C70 C69 C74 C80 -174.2(4) no
C20 C69 C74 C80 4.1(7) no
C72 C73 C74 C69 -0.5(6) no
C83 C73 C74 C69 -176.3(4) no
C72 C73 C74 C80 175.9(4) no
C83 C73 C74 C80 0.1(4) no
C69 C70 C75 C76 106.6(5) no
C71 C70 C75 C76 -69.1(4) no
C69 C70 C75 C79 -148.8(4) no
C71 C70 C75 C79 35.4(4) no
C70 C75 C76 C77 69.3(4) no
C79 C75 C76 C77 -34.4(4) no
C75 C76 C77 C78 -1.6(4) no
C72 C71 C78 C79 149.3(5) no
C70 C71 C78 C79 -32.8(4) no
C72 C71 C78 C77 -106.3(5) no
C70 C71 C78 C77 71.5(4) no
C76 C77 C78 C71 -66.9(4) no
C76 C77 C78 C79 37.1(4) no
C71 C78 C79 C75 51.8(4) no
C77 C78 C79 C75 -57.2(3) no
C70 C75 C79 C78 -52.7(3) no
C76 C75 C79 C78 56.1(3) no
C69 C74 C80 C84 -151.0(4) no
C73 C74 C80 C84 33.1(4) no
C69 C74 C80 C81 105.9(5) no
C73 C74 C80 C81 -69.9(4) no
C74 C80 C81 C82 66.9(4) no
C84 C80 C81 C82 -36.5(4) no
C80 C81 C82 C83 1.2(4) no
C72 C73 C83 C84 151.0(5) no
C74 C73 C83 C84 -33.8(4) no
C72 C73 C83 C82 -104.5(5) no
C74 C73 C83 C82 70.7(4) no
C81 C82 C83 C73 -69.2(4) no
C81 C82 C83 C84 35.2(4) no
C73 C83 C84 C80 51.6(4) no
C82 C83 C84 C80 -57.4(4) no
C74 C80 C84 C83 -51.3(4) no
C81 C80 C84 C83 57.6(4) no
N4 Ru1 C85 C86 106.1(3) yes
N1 Ru1 C85 C86 16.7(3) no
N2 Ru1 C85 C86 -74.0(3) no
N3 Ru1 C85 C86 -163.2(3) no
N4 Ru1 C85 C93 -76.0(3) no
N1 Ru1 C85 C93 -165.4(3) no
N2 Ru1 C85 C93 103.8(3) no
N3 Ru1 C85 C93 14.6(3) yes
C93 C85 C86 O1 94.9(4) no
Ru1 C85 C86 O1 -87.0(4) yes
C93 C85 C86 C87 -81.0(4) no
Ru1 C85 C86 C87 97.1(4) no
O1 C86 C87 C92 -177.6(4) no
C85 C86 C87 C92 -1.8(5) no
O1 C86 C87 C88 -1.2(6) no
C85 C86 C87 C88 174.7(4) no
C92 C87 C88 C89 0.6(6) no
C86 C87 C88 C89 -175.9(4) no
C87 C88 C89 C90 -0.8(7) no
C88 C89 C90 C91 0.4(7) no
C89 C90 C91 C92 0.2(7) no
C88 C87 C92 C91 0.0(6) no
C86 C87 C92 C91 176.4(4) no
C90 C91 C92 C87 -0.4(6) no
C86 C85 C93 O2 92.6(4) no
Ru1 C85 C93 O2 -85.5(4) yes
C86 C85 C93 C94 -81.7(4) no
Ru1 C85 C93 C94 100.2(4) no
O2 C93 C94 C99 175.2(4) no
C85 C93 C94 C99 -10.5(6) no
O2 C93 C94 C95 -6.4(6) no
C85 C93 C94 C95 167.9(4) no
C99 C94 C95 C96 -0.5(7) no
C93 C94 C95 C96 -179.0(4) no
C94 C95 C96 C97 -0.5(8) no
C95 C96 C97 C98 0.8(7) no
C96 C97 C98 C99 0.1(7) no
C95 C94 C99 C98 1.4(6) no
C93 C94 C99 C98 179.8(4) no
C97 C98 C99 C94 -1.2(6) no
N4 Ru1 O3 C100 89.9(4) no
N1 Ru1 O3 C100 179.5(4) no
N2 Ru1 O3 C100 -89.4(4) no
N3 Ru1 O3 C100 -0.5(4) no
Ru1 O3 C100 C101 95.3(9) no
Ru1 O3 C100 C108 70.8(12) no
H87 O4 C102 C103 176.4 no
H93 O5 C104 C105 -66.5 no
