#------------------------------------------------------------------------------
#$Date: 2016-02-20 00:18:51 +0200 (Sat, 20 Feb 2016) $
#$Revision: 176760 $
#$URL: svn://www.crystallography.net/cod/cif/2/01/91/2019128.cif $
#------------------------------------------------------------------------------
#
# This file is available in the Crystallography Open Database (COD),
# http://www.crystallography.net/. The original data for this entry
# were provided by IUCr Journals, http://journals.iucr.org/.
#
# The file may be used within the scientific community so long as
# proper attribution is given to the journal article from which the
# data were obtained.
#
data_2019128
loop_
_publ_author_name
'Titi, Hatem M.'
'Patra, Ranjan'
'Goldberg, Israel'
_publ_section_title
;
 Intermolecular iodine--iodine interactions in
 bis(pyridine-3-carboxylato)[tetrakis(4-iodophenyl)porphyrinato]tin(IV)
 and
 bis(pyrimidine-5-carboxylato)[tetrakis(4-iodophenyl)porphyrinato]tin(IV)
;
_journal_coeditor_code           FG3302
_journal_issue                   9
_journal_name_full               'Acta Crystallographica Section C'
_journal_page_first              1013
_journal_page_last               1016
_journal_paper_doi               10.1107/S0108270113020209
_journal_volume                  69
_journal_year                    2013
_chemical_formula_iupac
'[Sn (C44 H24 I4 N4) (C6 H4 N O2)2] , 1.5C3 H7 N O'
_chemical_formula_moiety         'C56 H32 I4 N6 O4 Sn, 1.5(C3 H7 N O)'
_chemical_formula_sum            'C60.5 H42.5 I4 N7.5 O5.5 Sn'
_chemical_formula_weight         1558.81
_chemical_name_systematic
;
bis(pyridine-3-carboxylato)[tetrakis(4-iodophenyl)porphyrinato]tin(IV)
dimethylformamide sesquisolvate
;
_space_group_crystal_system      monoclinic
_space_group_IT_number           14
_space_group_name_Hall           '-P 2ybc'
_space_group_name_H-M_alt        'P 1 21/c 1'
_symmetry_space_group_name_Hall  '-P 2ybc'
_symmetry_space_group_name_H-M   'P 1 21/c 1'
_atom_sites_solution_hydrogens   geom
_atom_sites_solution_primary     direct
_atom_sites_solution_secondary   difmap
_audit_creation_method           SHELXL2012
_cell_angle_alpha                90
_cell_angle_beta                 98.1460(7)
_cell_angle_gamma                90
_cell_formula_units_Z            2
_cell_length_a                   14.0594(3)
_cell_length_b                   17.1924(3)
_cell_length_c                   11.4740(2)
_cell_measurement_reflns_used    4946
_cell_measurement_temperature    110(2)
_cell_measurement_theta_max      27.85
_cell_measurement_theta_min      2.15
_cell_volume                     2745.45(9)
_computing_cell_refinement       'DENZO (Otwinowski & Minor, 1997)'
_computing_data_collection       'COLLECT (Nonius, 1998)'
_computing_data_reduction        'DENZO (Otwinowski & Minor, 1997)'
_computing_molecular_graphics
;
ORTEPIII (Burnett & Johnson, 1996) and Mercury (Macrae <i>et al.</i>,
2008)
;
_computing_publication_material  'SHELXL2012 (Sheldrick, 2008)'
_computing_structure_refinement  'SHELXL2012 (Sheldrick, 2008)'
_computing_structure_solution    'SIR97 (Altomare <i>et al.</i>, 1999)'
_diffrn_ambient_temperature      110(2)
_diffrn_detector_area_resol_mean 12.8
_diffrn_measured_fraction_theta_full 0.999
_diffrn_measured_fraction_theta_max 0.992
_diffrn_measurement_device_type  'Nonius KappaCCD'
_diffrn_measurement_method       '1\% \f and \w scans'
_diffrn_radiation_type           MoK\a
_diffrn_radiation_wavelength     0.71073
_diffrn_reflns_av_R_equivalents  0.041
_diffrn_reflns_limit_h_max       18
_diffrn_reflns_limit_h_min       -18
_diffrn_reflns_limit_k_max       22
_diffrn_reflns_limit_k_min       -22
_diffrn_reflns_limit_l_max       15
_diffrn_reflns_limit_l_min       -15
_diffrn_reflns_number            11339
_diffrn_reflns_theta_full        25.242
_diffrn_reflns_theta_max         27.855
_diffrn_reflns_theta_min         2.149
_exptl_absorpt_coefficient_mu    2.774
_exptl_absorpt_correction_T_max  0.733
_exptl_absorpt_correction_T_min  0.491
_exptl_absorpt_correction_type   multi-scan
_exptl_absorpt_process_details   '(Blessing, 1995)'
_exptl_crystal_colour            red
_exptl_crystal_density_diffrn    1.922
_exptl_crystal_description       plate
_exptl_crystal_F_000             1528
_exptl_crystal_size_max          0.300
_exptl_crystal_size_mid          0.250
_exptl_crystal_size_min          0.120
_platon_squeeze_details
;
The 61 electrons removed from the two sites around 0.5, 1.0, 0.0 and
0.5, 0.5, 0.5 would correspond to 1.5 molecules of the DMF solvent (which has
40 electrons) at each site. This suggests that three molecules of DMF per
unit cell (1.5 molecules per porphyrin unit) are entrapped in the crystal
lattice.
;
_refine_diff_density_max         1.842
_refine_diff_density_min         -0.878
_refine_ls_extinction_method     none
_refine_ls_goodness_of_fit_ref   1.034
_refine_ls_hydrogen_treatment    constr
_refine_ls_matrix_type           full
_refine_ls_number_parameters     322
_refine_ls_number_reflns         6485
_refine_ls_number_restraints     0
_refine_ls_restrained_S_all      1.034
_refine_ls_R_factor_all          0.0565
_refine_ls_R_factor_gt           0.0399
_refine_ls_shift/su_max          0.001
_refine_ls_shift/su_mean         0.000
_refine_ls_structure_factor_coef Fsqd
_refine_ls_weighting_details
'w = 1/[\s^2^(Fo^2^)+(0.0690P)^2^+0.2949P] where P=(Fo^2^+2Fc^2^)/3'
_refine_ls_weighting_scheme      calc
_refine_ls_wR_factor_gt          0.1037
_refine_ls_wR_factor_ref         0.1098
_reflns_number_gt                4946
_reflns_number_total             6485
_reflns_threshold_expression     I>2\s(I)
_cod_data_source_file            fg3302.cif
_cod_data_source_block           I
_cod_database_code               2019128
_cod_database_fobs_code          2019128
#BEGIN Tags that were not found in dictionaries:
_shelx_space_group_comment
;
The symmetry employed for this shelxl refinement is uniquely defined
by the following loop, which should always be used as a source of
symmetry information in preference to the above space-group names.
They are only intended as comments.
;
_shelx_estimated_absorpt_t_min   0.491
_shelx_estimated_absorpt_t_max   0.733
_shelx_res_checksum              32496
_shelx_res_file
;
TITL Compound ti32
CELL 0.71073  14.0594  17.1924  11.4740  90.0000  98.1460  90.0000
ZERR    2  0.0003  0.0003  0.0002  0.0000  0.0007  0.0000
LATT  1
SYMM - X, 1/2 + Y, 1/2 - Z
SFAC C  H  N  O  I  Sn
DISP C    0.00330   0.00160
DISP H    0.00000   0.00000
DISP N    0.00610   0.00330
DISP O    0.01060   0.00600
DISP I   -0.47420   1.81190
DISP Sn  -0.65370   1.42460
UNIT   112  64   12   8   8   2
LIST 4
ACTA
TEMP -163
SIZE 0.30 0.25 0.12
BOND $H
FMAP 2
PLAN -20
L.S.  8
omit 1 0 0
omit 1 1 0
OMIT  -3.0000 180
WGHT    0.069000    0.294900
FVAR       4.59734
SN    6   10.000000   10.500000   10.000000    10.50000    0.02245    0.02082 =
         0.02419    0.00078    0.00014    0.00167
C1    1    0.188177    0.380737    0.115150    11.00000    0.02268    0.03138 =
         0.02616    0.00614    0.00474    0.00451
C2    1    0.111304    0.345405    0.043190    11.00000    0.02383    0.02472 =
         0.03043    0.00189    0.00296    0.00143
C3    1   -0.106671    0.735102   -0.006517    11.00000    0.03040    0.02435 =
         0.03116   -0.00102    0.00023    0.00296
AFIX  43
H3    2   -0.153866    0.773794   -0.029439    11.00000   -1.20000
AFIX   0
C4    1   -0.023300    0.745527    0.066138    11.00000    0.02965    0.02487 =
         0.03775   -0.00478    0.00183   -0.00070
AFIX  43
H4    2   -0.002104    0.792651    0.104582    11.00000   -1.20000
AFIX   0
C5    1    0.027460    0.673256    0.075068    11.00000    0.03011    0.02451 =
         0.02661   -0.00317    0.00604   -0.00025
C6    1    0.119726    0.658870    0.139851    11.00000    0.02696    0.02570 =
         0.02598   -0.00112    0.00476   -0.00096
C7    1    0.168619    0.587761    0.150106    11.00000    0.02222    0.02861 =
         0.02444   -0.00004    0.00080   -0.00170
C8    1    0.259682    0.572849    0.219798    11.00000    0.02717    0.03390 =
         0.02445    0.00305   -0.00030   -0.00258
AFIX  43
H8    2    0.299847    0.610469    0.262885    11.00000   -1.20000
AFIX   0
C9    1    0.278582    0.495673    0.213566    11.00000    0.02425    0.03152 =
         0.03444    0.00486    0.00458    0.00225
AFIX  43
H9    2    0.334331    0.469692    0.250939    11.00000   -1.20000
AFIX   0
C10   1    0.200045    0.460920    0.141187    11.00000    0.02338    0.02800 =
         0.02512    0.00567    0.00239    0.00144
N11   3    0.134119    0.517600    0.101692    11.00000    0.02147    0.02542 =
         0.02596    0.00224    0.00401    0.00249
N12   3   -0.027817    0.619130    0.008915    11.00000    0.02457    0.02377 =
         0.02344    0.00134   -0.00089    0.00040
C13   1    0.264020    0.326969    0.174815    11.00000    0.02487    0.02279 =
         0.03101   -0.00021   -0.00135    0.00323
C14   1    0.357880    0.328788    0.151051    11.00000    0.02847    0.03349 =
         0.03978    0.00982    0.00486    0.00535
AFIX  43
H14   2    0.375400    0.364721    0.094893    11.00000   -1.20000
AFIX   0
C15   1    0.426788    0.278632    0.208428    11.00000    0.02306    0.04029 =
         0.05287    0.00782    0.00934    0.00249
AFIX  43
H15   2    0.491179    0.280319    0.192248    11.00000   -1.20000
AFIX   0
C16   1    0.400020    0.226071    0.289701    11.00000    0.02446    0.02620 =
         0.04097    0.00615   -0.00093    0.00574
C17   1    0.306797    0.223228    0.314118    11.00000    0.03154    0.03347 =
         0.03383    0.00892    0.00513    0.00214
AFIX  43
H17   2    0.289590    0.187134    0.370246    11.00000   -1.20000
AFIX   0
C18   1    0.238350    0.273140    0.256576    11.00000    0.02353    0.03646 =
         0.03698    0.00682    0.00598    0.00302
AFIX  43
H18   2    0.173933    0.270872    0.272566    11.00000   -1.20000
AFIX   0
I19   5    0.503573    0.150773    0.379776    11.00000    0.02733    0.03408 =
         0.05046    0.01019    0.00021    0.00775
C20   1    0.173108    0.728260    0.198577    11.00000    0.02765    0.02096 =
         0.02914    0.00185   -0.00156   -0.00038
C21   1    0.144728    0.763469    0.296672    11.00000    0.03022    0.03375 =
         0.02989   -0.00224    0.00341   -0.00061
AFIX  43
H21   2    0.091647    0.743280    0.329818    11.00000   -1.20000
AFIX   0
C22   1    0.193733    0.828290    0.346758    11.00000    0.04253    0.03101 =
         0.03281   -0.01138    0.00116    0.00509
AFIX  43
H22   2    0.173445    0.852911    0.413154    11.00000   -1.20000
AFIX   0
C23   1    0.270851    0.856400    0.300446    11.00000    0.03212    0.02429 =
         0.03769   -0.00133   -0.00930    0.00421
C24   1    0.301201    0.822586    0.203452    11.00000    0.03292    0.03523 =
         0.04624    0.00297   -0.00029   -0.00630
AFIX  43
H24   2    0.354908    0.842714    0.171525    11.00000   -1.20000
AFIX   0
C25   1    0.251072    0.757926    0.153108    11.00000    0.03007    0.03444 =
         0.04369   -0.00665    0.00586   -0.00364
AFIX  43
H25   2    0.271179    0.733924    0.086123    11.00000   -1.20000
AFIX   0
I26   5    0.343446    0.956915    0.372412    11.00000    0.04290    0.02718 =
         0.05777   -0.00542   -0.01763    0.00030
O27   4   -0.068142    0.494409    0.148197    11.00000    0.02985    0.03288 =
         0.02504    0.00169    0.00343    0.00009
O28   4    0.016172    0.407392    0.265203    11.00000    0.05038    0.04151 =
         0.04546    0.00874    0.00794    0.00818
C29   1   -0.044164    0.459341    0.247457    11.00000    0.03636    0.03237 =
         0.03645    0.00234    0.00547   -0.00102
C30   1   -0.096893    0.488960    0.344011    11.00000    0.03861    0.03933 =
         0.03568   -0.00235    0.00644   -0.00842
C31   1   -0.146777    0.559493    0.334628    11.00000    0.05039    0.04012 =
         0.04349   -0.00722    0.00910    0.00072
AFIX  43
H31   2   -0.149840    0.588231    0.263476    11.00000   -1.20000
AFIX   0
N32   3   -0.190093    0.588071    0.420948    11.00000    0.07026    0.04700 =
         0.04816   -0.00256    0.02059    0.00067
C33   1   -0.184772    0.545565    0.518518    11.00000    0.06815    0.06137 =
         0.03549   -0.00962    0.01785   -0.00397
AFIX  43
H33   2   -0.213242    0.566674    0.581856    11.00000   -1.20000
AFIX   0
C34   1   -0.142096    0.474318    0.535948    11.00000    0.07270    0.05985 =
         0.04033    0.00884    0.02226    0.01179
AFIX  43
H34   2   -0.145196    0.445681    0.606118    11.00000   -1.20000
AFIX   0
C35   1   -0.095228    0.445889    0.449838    11.00000    0.06435    0.04772 =
         0.04126    0.00626    0.01348    0.00824
AFIX  43
H35   2   -0.061731    0.397835    0.460096    11.00000   -1.20000
AFIX   0
HKLF 4
REM  Compound ti32
REM R1 =  0.0399 for    4946 Fo > 4sig(Fo)  and  0.0565 for all    6485 data
REM    322 parameters refined using      0 restraints
END
WGHT      0.0645      0.0000
REM Highest difference peak  1.842,  deepest hole -0.878,  1-sigma level  0.136
Q1    1   0.3726  0.9566  0.3072  11.00000  0.05    1.47
Q2    1   0.5182  0.1434  0.3063  11.00000  0.05    1.35
Q3    1   0.0188  0.4990 -0.0768  11.00000  0.05    1.31
Q4    1  -0.0004  0.8030 -0.0008  11.00000  0.05    1.08
Q5    1   0.4977  0.3462  0.1179  11.00000  0.05    1.08
Q6    1  -0.0017  0.5904 -0.0009  11.00000  0.05    1.07
Q7    1   0.3439  1.0470  0.3734  11.00000  0.05    1.04
Q8    1   0.1625  0.6955  0.0046  11.00000  0.05    0.98
Q9    1   0.1541  0.6954  0.2448  11.00000  0.05    0.95
Q10   1  -0.0054  0.5002  0.2393  11.00000  0.05    0.79
Q11   1   0.1595  0.3071  0.0025  11.00000  0.05    0.78
Q12   1   0.1572  0.3924  0.2459  11.00000  0.05    0.78
Q13   1   0.1612  0.3932  0.0071  11.00000  0.05    0.77
Q14   1   0.1590  0.6070  0.0092  11.00000  0.05    0.76
Q15   1   0.3139  0.4975  0.2525  11.00000  0.05    0.74
Q16   1   0.4967  0.2635  0.1183  11.00000  0.05    0.69
Q17   1   0.1552  0.3089  0.2474  11.00000  0.05    0.69
Q18   1   0.5013  0.9374  0.3797  11.00000  0.05    0.66
Q19   1   0.1791  0.3459 -0.1372  11.00000  0.05    0.65
Q20   1   0.1964  0.8513  0.1158  11.00000  0.05    0.62
;
_shelxl_version_number           .000002012
#END Tags that were not found in dictionaries
loop_
_space_group_symop_operation_xyz
'x, y, z'
'-x, y+1/2, -z+1/2'
'-x, -y, -z'
'x, -y-1/2, z-1/2'
loop_
_atom_site_type_symbol
_atom_site_label
_atom_site_fract_x
_atom_site_fract_y
_atom_site_fract_z
_atom_site_U_iso_or_equiv
_atom_site_adp_type
_atom_site_calc_flag
_atom_site_occupancy
Sn Sn 0.0000 0.5000 0.0000 0.02279(10) Uani d 1
C C1 0.1882(3) 0.3807(2) 0.1151(3) 0.0266(8) Uani d 1
C C2 0.1113(3) 0.3454(2) 0.0432(4) 0.0264(8) Uani d 1
C C3 -0.1067(3) 0.7351(2) -0.0065(4) 0.0290(8) Uani d 1
H H3 -0.1539 0.7738 -0.0294 0.035 Uiso calc 1
C C4 -0.0233(3) 0.7455(2) 0.0661(4) 0.0310(9) Uani d 1
H H4 -0.0021 0.7927 0.1046 0.037 Uiso calc 1
C C5 0.0275(3) 0.6733(2) 0.0751(3) 0.0269(8) Uani d 1
C C6 0.1197(3) 0.6589(2) 0.1399(3) 0.0261(8) Uani d 1
C C7 0.1686(3) 0.5878(2) 0.1501(3) 0.0253(8) Uani d 1
C C8 0.2597(3) 0.5728(2) 0.2198(3) 0.0289(8) Uani d 1
H H8 0.2998 0.6105 0.2629 0.035 Uiso calc 1
C C9 0.2786(3) 0.4957(2) 0.2136(4) 0.0300(9) Uani d 1
H H9 0.3343 0.4697 0.2509 0.036 Uiso calc 1
C C10 0.2000(3) 0.4609(2) 0.1412(3) 0.0256(8) Uani d 1
N N11 0.1341(2) 0.51760(18) 0.1017(3) 0.0242(6) Uani d 1
N N12 -0.0278(2) 0.61913(17) 0.0089(3) 0.0243(6) Uani d 1
C C13 0.2640(3) 0.3270(2) 0.1748(4) 0.0267(8) Uani d 1
C C14 0.3579(3) 0.3288(2) 0.1511(4) 0.0339(9) Uani d 1
H H14 0.3754 0.3647 0.0949 0.041 Uiso calc 1
C C15 0.4268(3) 0.2786(3) 0.2084(4) 0.0384(10) Uani d 1
H H15 0.4912 0.2803 0.1922 0.046 Uiso calc 1
C C16 0.4000(3) 0.2261(2) 0.2897(4) 0.0311(9) Uani d 1
C C17 0.3068(3) 0.2232(2) 0.3141(4) 0.0329(9) Uani d 1
H H17 0.2896 0.1871 0.3702 0.039 Uiso calc 1
C C18 0.2384(3) 0.2731(2) 0.2566(4) 0.0322(9) Uani d 1
H H18 0.1739 0.2709 0.2726 0.039 Uiso calc 1
I I19 0.50357(2) 0.15077(2) 0.37978(3) 0.03780(10) Uani d 1
C C20 0.1731(3) 0.7283(2) 0.1986(3) 0.0265(8) Uani d 1
C C21 0.1447(3) 0.7635(2) 0.2967(4) 0.0314(9) Uani d 1
H H21 0.0916 0.7433 0.3298 0.038 Uiso calc 1
C C22 0.1937(3) 0.8283(2) 0.3468(4) 0.0359(10) Uani d 1
H H22 0.1734 0.8529 0.4132 0.043 Uiso calc 1
C C23 0.2709(3) 0.8564(2) 0.3004(4) 0.0327(9) Uani d 1
C C24 0.3012(3) 0.8226(2) 0.2035(4) 0.0387(10) Uani d 1
H H24 0.3549 0.8427 0.1715 0.046 Uiso calc 1
C C25 0.2511(3) 0.7579(2) 0.1531(4) 0.0360(10) Uani d 1
H H25 0.2712 0.7339 0.0861 0.043 Uiso calc 1
I I26 0.34345(2) 0.95691(2) 0.37241(3) 0.04500(11) Uani d 1
O O27 -0.0681(2) 0.49441(15) 0.1482(2) 0.0293(6) Uani d 1
O O28 0.0162(2) 0.40739(17) 0.2652(3) 0.0457(8) Uani d 1
C C29 -0.0442(3) 0.4593(2) 0.2475(4) 0.0350(10) Uani d 1
C C30 -0.0969(3) 0.4890(2) 0.3440(4) 0.0378(10) Uani d 1
C C31 -0.1468(4) 0.5595(3) 0.3346(5) 0.0444(11) Uani d 1
H H31 -0.1498 0.5882 0.2635 0.053 Uiso calc 1
N N32 -0.1901(3) 0.5881(2) 0.4209(4) 0.0540(11) Uani d 1
C C33 -0.1848(4) 0.5456(3) 0.5185(5) 0.0540(14) Uani d 1
H H33 -0.2132 0.5667 0.5819 0.065 Uiso calc 1
C C34 -0.1421(4) 0.4743(3) 0.5359(5) 0.0563(14) Uani d 1
H H34 -0.1452 0.4457 0.6061 0.068 Uiso calc 1
C C35 -0.0952(4) 0.4459(3) 0.4498(5) 0.0505(13) Uani d 1
H H35 -0.0617 0.3978 0.4601 0.061 Uiso calc 1
loop_
_atom_site_aniso_label
_atom_site_aniso_U_11
_atom_site_aniso_U_22
_atom_site_aniso_U_33
_atom_site_aniso_U_12
_atom_site_aniso_U_13
_atom_site_aniso_U_23
Sn 0.0225(2) 0.02082(18) 0.0242(2) 0.00167(12) 0.00014(14) 0.00078(13)
C1 0.0227(19) 0.0314(19) 0.026(2) 0.0045(15) 0.0047(15) 0.0061(16)
C2 0.024(2) 0.0247(19) 0.030(2) 0.0014(14) 0.0030(16) 0.0019(15)
C3 0.030(2) 0.0244(18) 0.031(2) 0.0030(15) 0.0002(17) -0.0010(16)
C4 0.030(2) 0.0249(19) 0.038(2) -0.0007(15) 0.0018(18) -0.0048(16)
C5 0.030(2) 0.0245(18) 0.027(2) -0.0003(15) 0.0060(16) -0.0032(15)
C6 0.027(2) 0.0257(18) 0.026(2) -0.0010(14) 0.0048(16) -0.0011(15)
C7 0.0222(19) 0.0286(19) 0.024(2) -0.0017(14) 0.0008(15) 0.0000(15)
C8 0.027(2) 0.034(2) 0.024(2) -0.0026(16) -0.0003(16) 0.0030(16)
C9 0.024(2) 0.032(2) 0.034(2) 0.0022(15) 0.0046(17) 0.0049(16)
C10 0.023(2) 0.0280(19) 0.025(2) 0.0014(14) 0.0024(16) 0.0057(15)
N11 0.0215(16) 0.0254(15) 0.0260(17) 0.0025(12) 0.0040(13) 0.0022(13)
N12 0.0246(16) 0.0238(15) 0.0234(17) 0.0004(12) -0.0009(13) 0.0013(12)
C13 0.025(2) 0.0228(17) 0.031(2) 0.0032(14) -0.0013(16) -0.0002(15)
C14 0.028(2) 0.033(2) 0.040(3) 0.0053(16) 0.0049(19) 0.0098(18)
C15 0.023(2) 0.040(2) 0.053(3) 0.0025(17) 0.009(2) 0.008(2)
C16 0.024(2) 0.0262(19) 0.041(2) 0.0057(15) -0.0009(18) 0.0061(17)
C17 0.032(2) 0.033(2) 0.034(2) 0.0021(16) 0.0051(18) 0.0089(17)
C18 0.024(2) 0.036(2) 0.037(2) 0.0030(16) 0.0060(18) 0.0068(18)
I19 0.02733(16) 0.03408(17) 0.0505(2) 0.00775(10) 0.00021(13) 0.01019(12)
C20 0.028(2) 0.0210(17) 0.029(2) -0.0004(14) -0.0016(17) 0.0019(15)
C21 0.030(2) 0.034(2) 0.030(2) -0.0006(16) 0.0034(17) -0.0022(17)
C22 0.043(3) 0.031(2) 0.033(2) 0.0051(17) 0.0012(19) -0.0114(17)
C23 0.032(2) 0.0243(19) 0.038(2) 0.0042(15) -0.0093(18) -0.0013(16)
C24 0.033(2) 0.035(2) 0.046(3) -0.0063(18) 0.000(2) 0.0030(19)
C25 0.030(2) 0.034(2) 0.044(3) -0.0036(17) 0.0059(19) -0.0066(19)
I26 0.04290(19) 0.02718(16) 0.0578(2) 0.00030(11) -0.01763(15) -0.00542(12)
O27 0.0298(15) 0.0329(14) 0.0250(15) 0.0001(11) 0.0034(12) 0.0017(11)
O28 0.050(2) 0.0415(17) 0.045(2) 0.0082(15) 0.0079(16) 0.0087(15)
C29 0.036(2) 0.032(2) 0.036(3) -0.0010(17) 0.0055(19) 0.0023(17)
C30 0.039(3) 0.039(2) 0.036(3) -0.0084(18) 0.006(2) -0.0023(19)
C31 0.050(3) 0.040(2) 0.043(3) 0.001(2) 0.009(2) -0.007(2)
N32 0.070(3) 0.047(2) 0.048(3) 0.001(2) 0.021(2) -0.003(2)
C33 0.068(4) 0.061(3) 0.035(3) -0.004(3) 0.018(3) -0.010(2)
C34 0.073(4) 0.060(3) 0.040(3) 0.012(3) 0.022(3) 0.009(2)
C35 0.064(3) 0.048(3) 0.041(3) 0.008(2) 0.013(3) 0.006(2)
loop_
_atom_type_symbol
_atom_type_description
_atom_type_scat_dispersion_real
_atom_type_scat_dispersion_imag
_atom_type_scat_source
C C 0.0033 0.0016 'International Tables Vol C Tables 4.2.6.8 and 6.1.1.4'
H H 0.0000 0.0000 'International Tables Vol C Tables 4.2.6.8 and 6.1.1.4'
N N 0.0061 0.0033 'International Tables Vol C Tables 4.2.6.8 and 6.1.1.4'
O O 0.0106 0.0060 'International Tables Vol C Tables 4.2.6.8 and 6.1.1.4'
I I -0.4742 1.8119 'International Tables Vol C Tables 4.2.6.8 and 6.1.1.4'
Sn Sn -0.6537 1.4246 'International Tables Vol C Tables 4.2.6.8 and 6.1.1.4'
loop_
_geom_angle_atom_site_label_1
_geom_angle_atom_site_label_2
_geom_angle_atom_site_label_3
_geom_angle_site_symmetry_1
_geom_angle_site_symmetry_3
_geom_angle
O27 Sn O27 3_565 . 180.0
O27 Sn N12 3_565 3_565 83.90(11)
O27 Sn N12 . 3_565 96.10(11)
O27 Sn N12 3_565 . 96.10(11)
O27 Sn N12 . . 83.90(11)
N12 Sn N12 3_565 . 180.0
O27 Sn N11 3_565 . 88.05(11)
O27 Sn N11 . . 91.95(11)
N12 Sn N11 3_565 . 90.51(12)
N12 Sn N11 . . 89.49(12)
O27 Sn N11 3_565 3_565 91.95(11)
O27 Sn N11 . 3_565 88.05(11)
N12 Sn N11 3_565 3_565 89.49(12)
N12 Sn N11 . 3_565 90.51(12)
N11 Sn N11 . 3_565 180.0
C2 C1 C10 . . 127.2(3)
C2 C1 C13 . . 116.1(3)
C10 C1 C13 . . 116.7(3)
N12 C2 C1 3_565 . 126.9(3)
N12 C2 C3 3_565 3_565 107.2(3)
C1 C2 C3 . 3_565 125.8(3)
C4 C3 C2 . 3_565 107.8(3)
C4 C3 H3 . . 126.1
C2 C3 H3 3_565 . 126.1
C3 C4 C5 . . 108.0(3)
C3 C4 H4 . . 126.0
C5 C4 H4 . . 126.0
N12 C5 C6 . . 125.1(3)
N12 C5 C4 . . 108.2(3)
C6 C5 C4 . . 126.7(3)
C7 C6 C5 . . 126.6(3)
C7 C6 C20 . . 116.4(3)
C5 C6 C20 . . 116.9(3)
N11 C7 C6 . . 125.9(3)
N11 C7 C8 . . 107.6(3)
C6 C7 C8 . . 126.3(4)
C9 C8 C7 . . 108.2(4)
C9 C8 H8 . . 125.9
C7 C8 H8 . . 125.9
C8 C9 C10 . . 107.5(4)
C8 C9 H9 . . 126.2
C10 C9 H9 . . 126.2
N11 C10 C1 . . 124.5(4)
N11 C10 C9 . . 109.1(3)
C1 C10 C9 . . 126.4(4)
C10 N11 C7 . . 107.6(3)
C10 N11 Sn . . 126.3(3)
C7 N11 Sn . . 125.8(2)
C5 N12 C2 . 3_565 108.7(3)
C5 N12 Sn . . 126.7(3)
C2 N12 Sn 3_565 . 124.4(2)
C14 C13 C18 . . 119.3(3)
C14 C13 C1 . . 122.1(3)
C18 C13 C1 . . 118.6(3)
C13 C14 C15 . . 120.8(4)
C13 C14 H14 . . 119.6
C15 C14 H14 . . 119.6
C16 C15 C14 . . 119.0(4)
C16 C15 H15 . . 120.5
C14 C15 H15 . . 120.5
C17 C16 C15 . . 121.0(4)
C17 C16 I19 . . 119.3(3)
C15 C16 I19 . . 119.7(3)
C16 C17 C18 . . 119.8(4)
C16 C17 H17 . . 120.1
C18 C17 H17 . . 120.1
C17 C18 C13 . . 120.1(4)
C17 C18 H18 . . 120.0
C13 C18 H18 . . 120.0
C25 C20 C21 . . 118.8(4)
C25 C20 C6 . . 119.6(4)
C21 C20 C6 . . 121.6(3)
C22 C21 C20 . . 120.2(4)
C22 C21 H21 . . 119.9
C20 C21 H21 . . 119.9
C23 C22 C21 . . 119.9(4)
C23 C22 H22 . . 120.1
C21 C22 H22 . . 120.1
C22 C23 C24 . . 121.4(4)
C22 C23 I26 . . 120.3(3)
C24 C23 I26 . . 118.3(3)
C23 C24 C25 . . 118.3(4)
C23 C24 H24 . . 120.8
C25 C24 H24 . . 120.8
C20 C25 C24 . . 121.4(4)
C20 C25 H25 . . 119.3
C24 C25 H25 . . 119.3
C29 O27 Sn . . 130.8(3)
O28 C29 O27 . . 125.0(4)
O28 C29 C30 . . 121.6(4)
O27 C29 C30 . . 113.4(4)
C31 C30 C35 . . 117.8(4)
C31 C30 C29 . . 122.0(4)
C35 C30 C29 . . 120.2(4)
N32 C31 C30 . . 122.8(5)
N32 C31 H31 . . 118.6
C30 C31 H31 . . 118.6
C31 N32 C33 . . 116.6(5)
N32 C33 C34 . . 125.9(5)
N32 C33 H33 . . 117.0
C34 C33 H33 . . 117.0
C35 C34 C33 . . 117.8(5)
C35 C34 H34 . . 121.1
C33 C34 H34 . . 121.1
C34 C35 C30 . . 119.0(5)
C34 C35 H35 . . 120.5
C30 C35 H35 . . 120.5
loop_
_geom_bond_atom_site_label_1
_geom_bond_atom_site_label_2
_geom_bond_site_symmetry_2
_geom_bond_distance
_geom_bond_publ_flag
Sn O27 3_565 2.069(3) ?
Sn O27 . 2.069(3) ?
Sn N12 3_565 2.090(3) ?
Sn N12 . 2.090(3) ?
Sn N11 . 2.094(3) ?
Sn N11 3_565 2.094(3) ?
C1 C2 . 1.402(5) ?
C1 C10 . 1.415(5) ?
C1 C13 . 1.501(5) ?
C2 N12 3_565 1.381(5) ?
C2 C3 3_565 1.445(5) ?
C3 C4 . 1.351(6) ?
C3 C2 3_565 1.445(5) ?
C3 H3 . 0.9500 ?
C4 C5 . 1.429(5) ?
C4 H4 . 0.9500 ?
C5 N12 . 1.371(5) ?
C5 C6 . 1.422(6) ?
C6 C7 . 1.399(5) ?
C6 C20 . 1.516(5) ?
C7 N11 . 1.387(5) ?
C7 C8 . 1.433(5) ?
C8 C9 . 1.357(6) ?
C8 H8 . 0.9500 ?
C9 C10 . 1.416(6) ?
C9 H9 . 0.9500 ?
C10 N11 . 1.377(5) ?
N12 C2 3_565 1.381(5) ?
C13 C14 . 1.385(6) ?
C13 C18 . 1.401(5) ?
C14 C15 . 1.391(6) ?
C14 H14 . 0.9500 ?
C15 C16 . 1.388(6) ?
C15 H15 . 0.9500 ?
C16 C17 . 1.379(6) ?
C16 I19 . 2.106(4) ?
C17 C18 . 1.385(5) ?
C17 H17 . 0.9500 ?
C18 H18 . 0.9500 ?
C20 C25 . 1.377(5) ?
C20 C21 . 1.386(6) ?
C21 C22 . 1.391(6) ?
C21 H21 . 0.9500 ?
C22 C23 . 1.362(6) ?
C22 H22 . 0.9500 ?
C23 C24 . 1.376(6) ?
C23 I26 . 2.114(4) ?
C24 C25 . 1.397(6) ?
C24 H24 . 0.9500 ?
C25 H25 . 0.9500 ?
O27 C29 . 1.291(5) ?
O28 C29 . 1.229(5) ?
C29 C30 . 1.506(6) ?
C30 C31 . 1.397(6) ?
C30 C35 . 1.420(7) ?
C31 N32 . 1.328(6) ?
C31 H31 . 0.9500 ?
N32 C33 . 1.330(7) ?
C33 C34 . 1.366(8) ?
C33 H33 . 0.9500 ?
C34 C35 . 1.354(7) ?
C34 H34 . 0.9500 ?
C35 H35 . 0.9500 ?
I19 I26 3_666 3.7955(4) yes
I19 I26 1_545 4.0162(4) yes
loop_
_platon_squeeze_void_nr
_platon_squeeze_void_average_x
_platon_squeeze_void_average_y
_platon_squeeze_void_average_z
_platon_squeeze_void_volume
_platon_squeeze_void_count_electrons
_platon_squeeze_void_content
1 0.500 1.000 0.000 202 61 ' '
2 0.500 0.500 0.500 202 61 ' '
