#------------------------------------------------------------------------------
#$Date: 2016-02-20 05:06:23 +0200 (Sat, 20 Feb 2016) $
#$Revision: 176774 $
#$URL: svn://www.crystallography.net/cod/cif/2/20/78/2207819.cif $
#------------------------------------------------------------------------------
#
# This file is available in the Crystallography Open Database (COD),
# http://www.crystallography.net/. The original data for this entry
# were provided by IUCr Journals, http://journals.iucr.org/.
#
# The file may be used within the scientific community so long as
# proper attribution is given to the journal article from which the
# data were obtained.
#
data_2207819
loop_
_publ_author_name
'Sophia Lipstman'
'Israel Goldberg'
_publ_section_title
;
 Unsolvated (dimethylformamide)(tetraphenylporphyrinato)zinc(II)
;
_journal_coeditor_code           KP6076
_journal_issue                   1
_journal_name_full               'Acta Crystallographica Section E'
_journal_page_first              m158
_journal_page_last               m160
_journal_paper_doi               10.1107/S1600536805042224
_journal_volume                  62
_journal_year                    2006
_chemical_formula_iupac          '[Zn (C44 H28 N4) (C3 H7 N O)]'
_chemical_formula_moiety         'C47 H35 N5 O Zn'
_chemical_formula_sum            'C47 H35 N5 O Zn'
_chemical_formula_weight         751.17
_chemical_name_systematic
;
(dimethylformamide)(tetraphenylporphyrinato)zinc(II)
;
_space_group_IT_number           14
_symmetry_cell_setting           monoclinic
_symmetry_space_group_name_Hall  '-P 2ybc'
_symmetry_space_group_name_H-M   'P 1 21/c 1'
_atom_sites_solution_hydrogens   geom
_atom_sites_solution_primary     direct
_atom_sites_solution_secondary   difmap
_audit_creation_method           SHELXL-97
_cell_angle_alpha                90.00
_cell_angle_beta                 101.7186(13)
_cell_angle_gamma                90.00
_cell_formula_units_Z            4
_cell_length_a                   13.7419(3)
_cell_length_b                   9.2278(2)
_cell_length_c                   29.3016(7)
_cell_measurement_reflns_used    8468
_cell_measurement_temperature    110(2)
_cell_measurement_theta_max      28.19
_cell_measurement_theta_min      2.32
_cell_volume                     3638.22(14)
_computing_cell_refinement       'DENZO (Otwinowski & Minor, 1997)'
_computing_data_collection       'COLLECT (Nonius, 1999)'
_computing_data_reduction        'DENZO (Otwinowski & Minor, 1997)'
_computing_molecular_graphics
;
ORTEP-III (Burnett & Johnson, 1996) and
 MERCURY (Bruno <i>et al.</i>,  2002)
;
_computing_publication_material  'SHELXL97 (Sheldrick, 1997)'
_computing_structure_refinement  'SHELXL97 (Sheldrick, 1997)'
_computing_structure_solution    'SIR92 (Altomare <i>et al.</i>,  1994)'
_diffrn_ambient_temperature      110(2)
_diffrn_detector_area_resol_mean '56 microns'
_diffrn_measured_fraction_theta_full 0.972
_diffrn_measured_fraction_theta_max 0.972
_diffrn_measurement_device_type  'Nonius KappaCCD'
_diffrn_measurement_method       '\f and \w scans'
_diffrn_radiation_monochromator  graphite
_diffrn_radiation_source         'fine-focus sealed tube'
_diffrn_radiation_type           MoK\a
_diffrn_radiation_wavelength     0.71073
_diffrn_reflns_av_R_equivalents  0.0590
_diffrn_reflns_av_sigmaI/netI    0.0713
_diffrn_reflns_limit_h_max       18
_diffrn_reflns_limit_h_min       -18
_diffrn_reflns_limit_k_max       12
_diffrn_reflns_limit_k_min       -12
_diffrn_reflns_limit_l_max       37
_diffrn_reflns_limit_l_min       -38
_diffrn_reflns_number            29748
_diffrn_reflns_theta_full        28.19
_diffrn_reflns_theta_max         28.19
_diffrn_reflns_theta_min         2.32
_diffrn_standards_decay_%        0
_diffrn_standards_interval_count 0
_diffrn_standards_interval_time  0
_diffrn_standards_number         0
_exptl_absorpt_coefficient_mu    0.720
_exptl_absorpt_correction_type   none
_exptl_crystal_colour            red
_exptl_crystal_density_diffrn    1.371
_exptl_crystal_density_method    'not measured'
_exptl_crystal_description       prism
_exptl_crystal_F_000             1560
_exptl_crystal_size_max          0.20
_exptl_crystal_size_mid          0.15
_exptl_crystal_size_min          0.15
_refine_diff_density_max         0.845
_refine_diff_density_min         -0.636
_refine_ls_extinction_method     none
_refine_ls_goodness_of_fit_ref   1.034
_refine_ls_hydrogen_treatment    constr
_refine_ls_matrix_type           full
_refine_ls_number_parameters     489
_refine_ls_number_reflns         8697
_refine_ls_number_restraints     0
_refine_ls_restrained_S_all      1.034
_refine_ls_R_factor_all          0.0963
_refine_ls_R_factor_gt           0.0518
_refine_ls_shift/su_max          0.003
_refine_ls_shift/su_mean         0.000
_refine_ls_structure_factor_coef Fsqd
_refine_ls_weighting_details
'calc w=1/[\s^2^(Fo^2^)+(0.0580P)^2^+1.2438P] where P=(Fo^2^+2Fc^2^)/3'
_refine_ls_weighting_scheme      calc
_refine_ls_wR_factor_gt          0.1139
_refine_ls_wR_factor_ref         0.1316
_reflns_number_gt                5627
_reflns_number_total             8697
_reflns_threshold_expression     >2sigma(I)
_cod_data_source_file            kp6076.cif
_cod_data_source_block           I
_cod_original_sg_symbol_H-M      'P 21/c'
_cod_database_code               2207819
loop_
_symmetry_equiv_pos_as_xyz
'x, y, z'
'-x, y+1/2, -z+1/2'
'-x, -y, -z'
'x, -y-1/2, z-1/2'
loop_
_atom_site_label
_atom_site_fract_x
_atom_site_fract_y
_atom_site_fract_z
_atom_site_U_iso_or_equiv
_atom_site_adp_type
_atom_site_calc_flag
_atom_site_refinement_flags
_atom_site_occupancy
_atom_site_type_symbol
Zn 0.27658(2) 0.24348(3) 0.894088(10) 0.02084(10) Uani d . 1 Zn
C1 0.04751(18) 0.2034(3) 0.88257(9) 0.0231(6) Uani d . 1 C
C2 -0.0296(2) 0.1944(3) 0.90945(9) 0.0300(7) Uani d . 1 C
H2 -0.0977 0.1731 0.8977 0.036 Uiso calc R 1 H
C3 0.0130(2) 0.2218(3) 0.95413(9) 0.0293(7) Uani d . 1 C
H3 -0.0195 0.2233 0.9798 0.035 Uiso calc R 1 H
C4 0.11684(19) 0.2483(3) 0.95587(9) 0.0232(6) Uani d . 1 C
C5 0.18809(19) 0.2700(3) 0.99681(9) 0.0238(6) Uani d . 1 C
C6 0.29151(19) 0.2725(3) 1.00014(9) 0.0230(6) Uani d . 1 C
C7 0.3634(2) 0.2901(3) 1.04308(9) 0.0285(7) Uani d . 1 C
H7 0.3495 0.3074 1.0731 0.034 Uiso calc R 1 H
C8 0.4543(2) 0.2772(3) 1.03261(9) 0.0281(7) Uani d . 1 C
H8 0.5163 0.2837 1.0539 0.034 Uiso calc R 1 H
C9 0.43969(18) 0.2517(3) 0.98299(8) 0.0221(6) Uani d . 1 C
C10 0.51630(18) 0.2214(3) 0.95946(9) 0.0222(6) Uani d . 1 C
C11 0.50308(18) 0.1851(3) 0.91205(9) 0.0227(6) Uani d . 1 C
C12 0.58215(19) 0.1554(3) 0.88778(9) 0.0271(6) Uani d . 1 C
H12 0.6512 0.1535 0.9011 0.033 Uiso calc R 1 H
C13 0.54055(18) 0.1309(3) 0.84283(9) 0.0257(6) Uani d . 1 C
H13 0.5746 0.1089 0.8185 0.031 Uiso calc R 1 H
C14 0.43358(18) 0.1444(3) 0.83833(9) 0.0218(6) Uani d . 1 C
C15 0.36284(18) 0.1337(3) 0.79652(9) 0.0219(6) Uani d . 1 C
C16 0.25902(18) 0.1433(3) 0.79266(8) 0.0216(6) Uani d . 1 C
C17 0.18718(18) 0.1212(3) 0.74991(9) 0.0239(6) Uani d . 1 C
H17 0.2012 0.1014 0.7201 0.029 Uiso calc R 1 H
C18 0.09645(18) 0.1340(3) 0.76037(8) 0.0234(6) Uani d . 1 C
H18 0.0345 0.1256 0.7391 0.028 Uiso calc R 1 H
C19 0.11052(18) 0.1624(3) 0.80944(8) 0.0221(6) Uani d . 1 C
C20 0.03357(17) 0.1770(3) 0.83449(8) 0.0215(6) Uani d . 1 C
N21 0.13662(15) 0.2360(2) 0.91168(7) 0.0224(5) Uani d . 1 N
N22 0.33965(15) 0.2524(2) 0.96387(7) 0.0214(5) Uani d . 1 N
N23 0.41256(15) 0.1766(2) 0.88132(7) 0.0218(5) Uani d . 1 N
N24 0.21054(14) 0.1700(3) 0.82855(7) 0.0221(5) Uani d . 1 N
C25 0.1518(2) 0.2820(3) 1.04185(9) 0.0274(7) Uani d . 1 C
C26 0.1004(2) 0.4026(4) 1.05195(10) 0.0342(7) Uani d . 1 C
H26 0.0869 0.4795 1.0300 0.041 Uiso calc R 1 H
C27 0.0680(2) 0.4127(4) 1.09381(11) 0.0427(8) Uani d . 1 C
H27 0.0321 0.4955 1.1003 0.051 Uiso calc R 1 H
C28 0.0883(2) 0.3026(4) 1.12576(11) 0.0463(9) Uani d . 1 C
H28 0.0672 0.3103 1.1546 0.056 Uiso calc R 1 H
C29 0.1386(2) 0.1820(4) 1.11649(11) 0.0475(9) Uani d . 1 C
H29 0.1520 0.1059 1.1387 0.057 Uiso calc R 1 H
C30 0.1705(2) 0.1706(4) 1.07419(10) 0.0411(8) Uani d . 1 C
H30 0.2050 0.0864 1.0676 0.049 Uiso calc R 1 H
C31 0.62109(19) 0.2259(3) 0.98724(9) 0.0237(6) Uani d . 1 C
C32 0.6652(2) 0.3566(3) 1.00331(10) 0.0318(7) Uani d . 1 C
H32 0.6284 0.4441 0.9975 0.038 Uiso calc R 1 H
C33 0.76340(19) 0.3599(3) 1.02803(10) 0.0315(7) Uani d . 1 C
H33 0.7934 0.4499 1.0385 0.038 Uiso calc R 1 H
C34 0.8170(2) 0.2336(3) 1.03736(9) 0.0288(7) Uani d . 1 C
H34 0.8841 0.2363 1.0537 0.035 Uiso calc R 1 H
C35 0.7725(2) 0.1032(4) 1.02281(10) 0.0375(7) Uani d . 1 C
H35 0.8084 0.0154 1.0301 0.045 Uiso calc R 1 H
C36 0.6752(2) 0.0996(3) 0.99752(10) 0.0344(7) Uani d . 1 C
H36 0.6455 0.0092 0.9872 0.041 Uiso calc R 1 H
C37 0.39887(17) 0.1146(3) 0.75206(9) 0.0227(6) Uani d . 1 C
C38 0.45292(17) -0.0066(3) 0.74393(9) 0.0255(6) Uani d . 1 C
H38 0.4690 -0.0788 0.7674 0.031 Uiso calc R 1 H
C39 0.48369(18) -0.0235(3) 0.70193(10) 0.0306(7) Uani d . 1 C
H39 0.5218 -0.1059 0.6972 0.037 Uiso calc R 1 H
C40 0.45926(19) 0.0787(4) 0.66696(10) 0.0330(7) Uani d . 1 C
H40 0.4785 0.0650 0.6379 0.040 Uiso calc R 1 H
C41 0.4069(2) 0.2004(4) 0.67459(10) 0.0317(7) Uani d . 1 C
H41 0.3915 0.2721 0.6510 0.038 Uiso calc R 1 H
C42 0.37632(19) 0.2189(3) 0.71677(9) 0.0262(6) Uani d . 1 C
H42 0.3399 0.3030 0.7216 0.031 Uiso calc R 1 H
C43 -0.07116(17) 0.1582(3) 0.80790(8) 0.0217(6) Uani d . 1 C
C44 -0.10151(18) 0.0328(3) 0.78242(9) 0.0250(6) Uani d . 1 C
H44 -0.0553 -0.0435 0.7820 0.030 Uiso calc R 1 H
C45 -0.19850(19) 0.0183(3) 0.75757(9) 0.0288(6) Uani d . 1 C
H45 -0.2179 -0.0669 0.7399 0.035 Uiso calc R 1 H
C46 -0.2667(2) 0.1274(4) 0.75856(10) 0.0329(7) Uani d . 1 C
H46 -0.3331 0.1171 0.7417 0.040 Uiso calc R 1 H
C47 -0.2383(2) 0.2517(3) 0.78414(10) 0.0325(7) Uani d . 1 C
H47 -0.2853 0.3265 0.7851 0.039 Uiso calc R 1 H
C48 -0.14061(19) 0.2674(3) 0.80847(10) 0.0283(6) Uani d . 1 C
H48 -0.1213 0.3537 0.8256 0.034 Uiso calc R 1 H
O49 0.29027(15) 0.4680(2) 0.87671(7) 0.0377(5) Uani d . 1 O
C50 0.2233(2) 0.5474(4) 0.86032(10) 0.0376(8) Uani d . 1 C
H50 0.1587 0.5066 0.8519 0.045 Uiso calc R 1 H
N51 0.23272(17) 0.6899(3) 0.85300(8) 0.0305(5) Uani d . 1 N
C52 0.1458(2) 0.7731(4) 0.83234(12) 0.0443(9) Uani d . 1 C
H52A 0.0877 0.7092 0.8259 0.066 Uiso calc R 1 H
H52B 0.1559 0.8169 0.8032 0.066 Uiso calc R 1 H
H52C 0.1350 0.8496 0.8540 0.066 Uiso calc R 1 H
C53 0.3246(2) 0.7675(4) 0.86449(12) 0.0428(8) Uani d . 1 C
H53A 0.3795 0.6987 0.8733 0.064 Uiso calc R 1 H
H53B 0.3229 0.8331 0.8906 0.064 Uiso calc R 1 H
H53C 0.3343 0.8238 0.8374 0.064 Uiso calc R 1 H
loop_
_atom_site_aniso_label
_atom_site_aniso_U_11
_atom_site_aniso_U_22
_atom_site_aniso_U_33
_atom_site_aniso_U_12
_atom_site_aniso_U_13
_atom_site_aniso_U_23
Zn 0.02044(16) 0.02527(19) 0.01600(16) 0.00285(13) 0.00177(12) 0.00048(13)
C1 0.0214(13) 0.0271(16) 0.0203(14) 0.0037(11) 0.0035(11) 0.0024(11)
C2 0.0235(13) 0.0405(19) 0.0257(15) -0.0013(13) 0.0047(12) -0.0011(13)
C3 0.0255(13) 0.041(2) 0.0225(14) 0.0003(12) 0.0073(12) -0.0018(13)
C4 0.0256(13) 0.0235(15) 0.0210(13) 0.0033(11) 0.0056(11) 0.0015(12)
C5 0.0287(13) 0.0254(16) 0.0181(13) 0.0007(11) 0.0064(11) 0.0015(11)
C6 0.0266(13) 0.0235(16) 0.0186(13) 0.0010(11) 0.0034(11) 0.0006(11)
C7 0.0306(14) 0.0365(18) 0.0175(14) -0.0012(12) 0.0024(12) -0.0010(12)
C8 0.0262(14) 0.0359(19) 0.0191(14) 0.0000(12) -0.0027(11) -0.0007(12)
C9 0.0239(12) 0.0244(15) 0.0155(12) -0.0007(11) -0.0019(10) 0.0006(11)
C10 0.0230(13) 0.0221(16) 0.0188(13) 0.0001(11) -0.0020(11) 0.0015(11)
C11 0.0222(12) 0.0217(15) 0.0225(14) 0.0014(11) 0.0007(11) 0.0028(11)
C12 0.0208(13) 0.0329(18) 0.0263(15) 0.0002(12) 0.0016(11) 0.0005(13)
C13 0.0200(12) 0.0325(17) 0.0241(14) 0.0031(11) 0.0033(11) 0.0014(12)
C14 0.0207(12) 0.0222(15) 0.0232(14) 0.0007(11) 0.0061(11) -0.0016(11)
C15 0.0233(12) 0.0229(15) 0.0195(13) 0.0010(11) 0.0046(11) 0.0002(11)
C16 0.0219(12) 0.0229(15) 0.0194(13) 0.0015(11) 0.0024(11) 0.0020(11)
C17 0.0239(13) 0.0292(16) 0.0189(13) 0.0010(11) 0.0052(11) 0.0004(12)
C18 0.0199(12) 0.0316(17) 0.0169(13) 0.0002(11) -0.0005(10) 0.0011(12)
C19 0.0213(12) 0.0246(16) 0.0191(13) 0.0029(11) 0.0015(11) 0.0014(11)
C20 0.0190(12) 0.0268(16) 0.0184(13) 0.0031(11) 0.0030(10) 0.0000(11)
N21 0.0194(10) 0.0303(14) 0.0163(11) 0.0035(9) 0.0010(9) 0.0007(10)
N22 0.0221(10) 0.0241(13) 0.0172(11) 0.0005(9) 0.0020(9) 0.0009(10)
N23 0.0218(10) 0.0260(13) 0.0162(11) 0.0023(9) 0.0009(9) -0.0003(10)
N24 0.0201(10) 0.0281(14) 0.0182(11) 0.0034(9) 0.0046(9) -0.0014(10)
C25 0.0285(14) 0.0363(19) 0.0170(13) -0.0061(12) 0.0036(11) -0.0038(12)
C26 0.0305(15) 0.045(2) 0.0277(16) -0.0031(14) 0.0068(13) -0.0075(14)
C27 0.0361(17) 0.060(2) 0.0352(18) -0.0090(16) 0.0134(14) -0.0187(17)
C28 0.0391(17) 0.081(3) 0.0226(16) -0.0206(18) 0.0147(14) -0.0158(18)
C29 0.053(2) 0.068(3) 0.0222(16) -0.0129(19) 0.0106(15) 0.0085(17)
C30 0.0495(18) 0.047(2) 0.0291(17) -0.0015(16) 0.0131(15) 0.0019(15)
C31 0.0218(12) 0.0295(17) 0.0190(13) -0.0022(11) 0.0026(11) -0.0009(11)
C32 0.0323(15) 0.0258(17) 0.0334(16) 0.0019(13) -0.0024(13) 0.0022(13)
C33 0.0274(14) 0.0323(18) 0.0318(16) -0.0055(13) -0.0012(12) -0.0012(13)
C34 0.0225(13) 0.0388(19) 0.0237(14) -0.0001(13) 0.0013(11) -0.0021(13)
C35 0.0335(15) 0.0307(19) 0.0421(18) 0.0043(14) -0.0072(14) -0.0016(15)
C36 0.0317(15) 0.0270(18) 0.0373(17) -0.0013(13) -0.0098(13) -0.0023(14)
C37 0.0168(12) 0.0294(16) 0.0207(14) -0.0036(11) 0.0010(10) -0.0041(12)
C38 0.0164(12) 0.0334(17) 0.0253(14) -0.0013(11) 0.0011(11) -0.0036(12)
C39 0.0201(13) 0.0369(19) 0.0349(17) 0.0015(12) 0.0060(12) -0.0108(14)
C40 0.0280(14) 0.049(2) 0.0227(15) -0.0069(14) 0.0076(12) -0.0090(14)
C41 0.0319(15) 0.0414(19) 0.0218(15) -0.0058(14) 0.0052(12) -0.0023(13)
C42 0.0234(13) 0.0348(18) 0.0200(14) -0.0007(12) 0.0037(11) -0.0035(12)
C43 0.0197(12) 0.0301(17) 0.0156(13) -0.0004(11) 0.0040(10) 0.0033(11)
C44 0.0256(13) 0.0305(17) 0.0195(13) 0.0002(12) 0.0057(11) 0.0028(12)
C45 0.0322(14) 0.0340(18) 0.0200(14) -0.0105(13) 0.0049(12) 0.0001(12)
C46 0.0225(13) 0.046(2) 0.0284(15) -0.0091(13) 0.0005(12) 0.0043(14)
C47 0.0203(13) 0.042(2) 0.0341(16) 0.0052(13) 0.0032(12) -0.0002(15)
C48 0.0231(13) 0.0314(18) 0.0297(15) 0.0024(12) 0.0035(12) -0.0017(13)
O49 0.0475(12) 0.0383(14) 0.0270(11) 0.0116(11) 0.0073(10) 0.0032(10)
C50 0.0302(15) 0.054(2) 0.0288(17) -0.0022(15) 0.0059(13) -0.0073(15)
N51 0.0428(14) 0.0229(14) 0.0255(13) 0.0003(11) 0.0062(11) 0.0015(11)
C52 0.0319(16) 0.056(2) 0.044(2) 0.0019(15) 0.0048(14) -0.0003(17)
C53 0.0323(16) 0.049(2) 0.0438(19) 0.0049(15) 0.0003(14) -0.0047(16)
loop_
_atom_type_symbol
_atom_type_description
_atom_type_scat_dispersion_real
_atom_type_scat_dispersion_imag
_atom_type_scat_source
C C 0.0033 0.0016 'International Tables Vol C Tables 4.2.6.8 and 6.1.1.4'
H H 0.0000 0.0000 'International Tables Vol C Tables 4.2.6.8 and 6.1.1.4'
O O 0.0106 0.0060 'International Tables Vol C Tables 4.2.6.8 and 6.1.1.4'
N N 0.0061 0.0033 'International Tables Vol C Tables 4.2.6.8 and 6.1.1.4'
Zn Zn 0.2839 1.4301 'International Tables Vol C Tables 4.2.6.8 and 6.1.1.4'
loop_
_geom_angle_atom_site_label_1
_geom_angle_atom_site_label_2
_geom_angle_atom_site_label_3
_geom_angle
_geom_angle_publ_flag
N22 Zn N24 162.90(9) yes
N22 Zn N23 88.74(8) yes
N24 Zn N23 88.64(8) yes
N22 Zn N21 88.81(8) yes
N24 Zn N21 88.04(8) yes
N23 Zn N21 160.51(9) yes
N22 Zn O49 99.08(8) yes
N24 Zn O49 98.01(8) yes
N23 Zn O49 96.81(8) yes
N21 Zn O49 102.67(8) yes
N21 C1 C20 125.6(2) ?
N21 C1 C2 109.5(2) ?
C20 C1 C2 124.8(2) ?
C3 C2 C1 107.3(2) ?
C3 C2 H2 126.3 ?
C1 C2 H2 126.3 ?
C2 C3 C4 107.4(2) ?
C2 C3 H3 126.3 ?
C4 C3 H3 126.3 ?
N21 C4 C5 125.4(2) ?
N21 C4 C3 109.6(2) ?
C5 C4 C3 124.8(2) ?
C4 C5 C6 125.7(2) ?
C4 C5 C25 117.6(2) ?
C6 C5 C25 116.6(2) ?
N22 C6 C5 125.7(2) ?
N22 C6 C7 109.7(2) ?
C5 C6 C7 124.5(2) ?
C8 C7 C6 107.0(2) ?
C8 C7 H7 126.5 ?
C6 C7 H7 126.5 ?
C7 C8 C9 107.3(2) ?
C7 C8 H8 126.4 ?
C9 C8 H8 126.4 ?
N22 C9 C10 126.2(2) ?
N22 C9 C8 109.4(2) ?
C10 C9 C8 124.3(2) ?
C9 C10 C11 125.2(2) ?
C9 C10 C31 117.5(2) ?
C11 C10 C31 117.3(2) ?
N23 C11 C10 125.2(2) ?
N23 C11 C12 109.7(2) ?
C10 C11 C12 125.1(2) ?
C13 C12 C11 107.6(2) ?
C13 C12 H12 126.2 ?
C11 C12 H12 126.2 ?
C12 C13 C14 107.2(2) ?
C12 C13 H13 126.4 ?
C14 C13 H13 126.4 ?
N23 C14 C15 125.1(2) ?
N23 C14 C13 109.3(2) ?
C15 C14 C13 125.5(2) ?
C14 C15 C16 125.1(2) ?
C14 C15 C37 118.4(2) ?
C16 C15 C37 116.5(2) ?
N24 C16 C15 126.0(2) ?
N24 C16 C17 109.7(2) ?
C15 C16 C17 124.3(2) ?
C18 C17 C16 107.0(2) ?
C18 C17 H17 126.5 ?
C16 C17 H17 126.5 ?
C17 C18 C19 107.5(2) ?
C17 C18 H18 126.2 ?
C19 C18 H18 126.2 ?
N24 C19 C20 125.1(2) ?
N24 C19 C18 109.7(2) ?
C20 C19 C18 125.2(2) ?
C1 C20 C19 125.1(2) ?
C1 C20 C43 117.5(2) ?
C19 C20 C43 117.4(2) ?
C1 N21 C4 106.2(2) ?
C1 N21 Zn 127.01(16) ?
C4 N21 Zn 126.48(17) ?
C6 N22 C9 106.5(2) ?
C6 N22 Zn 127.12(17) ?
C9 N22 Zn 126.17(16) ?
C14 N23 C11 106.22(19) ?
C14 N23 Zn 126.31(16) ?
C11 N23 Zn 126.21(17) ?
C19 N24 C16 106.2(2) ?
C19 N24 Zn 127.51(16) ?
C16 N24 Zn 125.43(16) ?
C26 C25 C30 118.8(3) ?
C26 C25 C5 121.4(3) ?
C30 C25 C5 119.7(3) ?
C25 C26 C27 120.8(3) ?
C25 C26 H26 119.6 ?
C27 C26 H26 119.6 ?
C28 C27 C26 119.7(3) ?
C28 C27 H27 120.1 ?
C26 C27 H27 120.1 ?
C29 C28 C27 120.6(3) ?
C29 C28 H28 119.7 ?
C27 C28 H28 119.7 ?
C28 C29 C30 119.9(3) ?
C28 C29 H29 120.0 ?
C30 C29 H29 120.0 ?
C25 C30 C29 120.2(3) ?
C25 C30 H30 119.9 ?
C29 C30 H30 119.9 ?
C36 C31 C32 118.7(2) ?
C36 C31 C10 120.5(2) ?
C32 C31 C10 120.8(2) ?
C31 C32 C33 120.3(3) ?
C31 C32 H32 119.8 ?
C33 C32 H32 119.8 ?
C34 C33 C32 120.4(3) ?
C34 C33 H33 119.8 ?
C32 C33 H33 119.8 ?
C33 C34 C35 119.5(3) ?
C33 C34 H34 120.3 ?
C35 C34 H34 120.3 ?
C34 C35 C36 120.3(3) ?
C34 C35 H35 119.9 ?
C36 C35 H35 119.9 ?
C31 C36 C35 120.8(3) ?
C31 C36 H36 119.6 ?
C35 C36 H36 119.6 ?
C38 C37 C42 118.2(2) ?
C38 C37 C15 121.8(2) ?
C42 C37 C15 120.0(2) ?
C39 C38 C37 120.8(3) ?
C39 C38 H38 119.6 ?
C37 C38 H38 119.6 ?
C40 C39 C38 120.6(3) ?
C40 C39 H39 119.7 ?
C38 C39 H39 119.7 ?
C41 C40 C39 119.5(3) ?
C41 C40 H40 120.3 ?
C39 C40 H40 120.3 ?
C40 C41 C42 120.4(3) ?
C40 C41 H41 119.8 ?
C42 C41 H41 119.8 ?
C41 C42 C37 120.6(3) ?
C41 C42 H42 119.7 ?
C37 C42 H42 119.7 ?
C48 C43 C44 118.5(2) ?
C48 C43 C20 119.9(2) ?
C44 C43 C20 121.7(2) ?
C45 C44 C43 120.8(3) ?
C45 C44 H44 119.6 ?
C43 C44 H44 119.6 ?
C46 C45 C44 120.1(3) ?
C46 C45 H45 119.9 ?
C44 C45 H45 119.9 ?
C45 C46 C47 119.9(3) ?
C45 C46 H46 120.0 ?
C47 C46 H46 120.0 ?
C46 C47 C48 120.0(3) ?
C46 C47 H47 120.0 ?
C48 C47 H47 120.0 ?
C43 C48 C47 120.7(3) ?
C43 C48 H48 119.6 ?
C47 C48 H48 119.6 ?
C50 O49 Zn 126.0(2) yes
O49 C50 N51 124.9(3) ?
O49 C50 H50 117.6 ?
N51 C50 H50 117.6 ?
C50 N51 C53 124.2(3) ?
C50 N51 C52 119.3(3) ?
C53 N51 C52 116.5(3) ?
N51 C52 H52A 109.5 ?
N51 C52 H52B 109.5 ?
H52A C52 H52B 109.5 ?
N51 C52 H52C 109.5 ?
H52A C52 H52C 109.5 ?
H52B C52 H52C 109.5 ?
N51 C53 H53A 109.5 ?
N51 C53 H53B 109.5 ?
H53A C53 H53B 109.5 ?
N51 C53 H53C 109.5 ?
H53A C53 H53C 109.5 ?
H53B C53 H53C 109.5 ?
loop_
_geom_bond_atom_site_label_1
_geom_bond_atom_site_label_2
_geom_bond_distance
_geom_bond_publ_flag
Zn N22 2.054(2) yes
Zn N24 2.065(2) yes
Zn N23 2.073(2) yes
Zn N21 2.091(2) yes
Zn O49 2.150(2) yes
C1 N21 1.376(3) ?
C1 C20 1.404(3) ?
C1 C2 1.445(4) ?
C2 C3 1.345(4) ?
C2 H2 0.9500 ?
C3 C4 1.438(4) ?
C3 H3 0.9500 ?
C4 N21 1.381(3) ?
C4 C5 1.400(4) ?
C5 C6 1.405(4) ?
C5 C25 1.506(3) ?
C6 N22 1.374(3) ?
C6 C7 1.442(4) ?
C7 C8 1.350(4) ?
C7 H7 0.9500 ?
C8 C9 1.446(4) ?
C8 H8 0.9500 ?
C9 N22 1.375(3) ?
C9 C10 1.399(4) ?
C10 C11 1.404(4) ?
C10 C31 1.504(3) ?
C11 N23 1.382(3) ?
C11 C12 1.441(4) ?
C12 C13 1.344(4) ?
C12 H12 0.9500 ?
C13 C14 1.454(3) ?
C13 H13 0.9500 ?
C14 N23 1.381(3) ?
C14 C15 1.404(3) ?
C15 C16 1.411(3) ?
C15 C37 1.495(3) ?
C16 N24 1.377(3) ?
C16 C17 1.443(4) ?
C17 C18 1.348(3) ?
C17 H17 0.9500 ?
C18 C19 1.435(3) ?
C18 H18 0.9500 ?
C19 N24 1.377(3) ?
C19 C20 1.411(3) ?
C20 C43 1.501(3) ?
C25 C26 1.383(4) ?
C25 C30 1.386(4) ?
C26 C27 1.390(4) ?
C26 H26 0.9500 ?
C27 C28 1.371(5) ?
C27 H27 0.9500 ?
C28 C29 1.367(5) ?
C28 H28 0.9500 ?
C29 C30 1.400(4) ?
C29 H29 0.9500 ?
C30 H30 0.9500 ?
C31 C36 1.383(4) ?
C31 C32 1.388(4) ?
C32 C33 1.396(4) ?
C32 H32 0.9500 ?
C33 C34 1.376(4) ?
C33 H33 0.9500 ?
C34 C35 1.378(4) ?
C34 H34 0.9500 ?
C35 C36 1.391(4) ?
C35 H35 0.9500 ?
C36 H36 0.9500 ?
C37 C38 1.389(4) ?
C37 C42 1.401(4) ?
C38 C39 1.389(4) ?
C38 H38 0.9500 ?
C39 C40 1.383(4) ?
C39 H39 0.9500 ?
C40 C41 1.376(4) ?
C40 H40 0.9500 ?
C41 C42 1.395(4) ?
C41 H41 0.9500 ?
C42 H42 0.9500 ?
C43 C48 1.390(4) ?
C43 C44 1.394(4) ?
C44 C45 1.389(4) ?
C44 H44 0.9500 ?
C45 C46 1.380(4) ?
C45 H45 0.9500 ?
C46 C47 1.383(4) ?
C46 H46 0.9500 ?
C47 C48 1.393(4) ?
C47 H47 0.9500 ?
C48 H48 0.9500 ?
O49 C50 1.199(3) ?
C50 N51 1.342(4) ?
C50 H50 0.9500 ?
N51 C53 1.431(4) ?
N51 C52 1.445(4) ?
C52 H52A 0.9800 ?
C52 H52B 0.9800 ?
C52 H52C 0.9800 ?
C53 H53A 0.9800 ?
C53 H53B 0.9800 ?
C53 H53C 0.9800 ?
