#------------------------------------------------------------------------------
#$Date: 2016-03-21 05:29:08 +0200 (Mon, 21 Mar 2016) $
#$Revision: 178480 $
#$URL: svn://www.crystallography.net/cod/cif/4/03/01/4030121.cif $
#------------------------------------------------------------------------------
#
# This file is available in the Crystallography Open Database (COD),
# http://www.crystallography.net/
#
# All data on this site have been placed in the public domain by the
# contributors.
#
data_4030121
loop_
_publ_author_name
'Fosu, Stacy C.'
'Ferrence, Gregory M.'
'Lash, Timothy D.'
_publ_section_title
;
 Synthesis and metalation of dimethoxybenziporphyrins,
 thiabenziporphyrins, and dibenziporphyrins.
;
_journal_issue                   22
_journal_name_full               'The Journal of organic chemistry'
_journal_page_first              11061
_journal_page_last               11074
_journal_paper_doi               10.1021/jo502063w
_journal_volume                  79
_journal_year                    2014
_chemical_formula_moiety         'C47  H30  N2  O2  S  Pd,  C  H  Cl3'
_chemical_formula_sum            'C48 H31 Cl3 N2 O2 Pd S'
_chemical_formula_weight         912.56
_chemical_name_systematic
;
[4-Methoxy-6,11,16,21-tetraphenyl-24-thiaoxybenziporphyrinato]palladium(II)
;
_space_group_IT_number           14
_symmetry_cell_setting           monoclinic
_symmetry_Int_Tables_number      14
_symmetry_space_group_name_Hall  '-P 2ybc'
_symmetry_space_group_name_H-M   'P 1 21/c 1'
_atom_sites_solution_hydrogens   geom
_atom_sites_solution_primary     iterative
_atom_sites_solution_secondary   difmap
_audit_creation_date             2014-09-02T07:06:29-00:00
_audit_creation_method           'WinGX routine CIF_UPDATE'
_cell_angle_alpha                90
_cell_angle_beta                 108.926(8)
_cell_angle_gamma                90
_cell_formula_units_Z            4
_cell_length_a                   12.952(5)
_cell_length_b                   23.282(9)
_cell_length_c                   13.420(5)
_cell_measurement_reflns_used    974
_cell_measurement_temperature    100(2)
_cell_measurement_theta_max      17.55
_cell_measurement_theta_min      2.58
_cell_volume                     3828(3)
_computing_cell_refinement       'APEX2 & SAINT (Bruker, 2013)'
_computing_data_collection       'APEX2 (Bruker, 2013)'
_computing_data_reduction        SAINT
_computing_molecular_graphics
;
<i>Ortep-3</i> for Windows (Farrugia, 2012) and <i>Mercury CSD</i> (Macrae et
 al., 2008)
;
_computing_publication_material
;
        <i>WinGX</i> (Farrugia, 2012) and <i>publCIF</i> (Westrip, 2010)
;
_computing_structure_refinement  'SHELXL-2012 (Sheldrick, 2012)'
_computing_structure_solution    'SUPERFLIP (Palatinus & Chapuis, 2007)'
_diffrn_ambient_temperature      100(2)
_diffrn_measured_fraction_theta_full 0.993
_diffrn_measured_fraction_theta_max 0.984
_diffrn_measurement_details
;
A total of 1116 frames were collected.  The total exposure time was 93.00 hours.
;
_diffrn_measurement_device_type  'Bruker APEX-II CCD diffractometer'
_diffrn_measurement_method       '\w scans'
_diffrn_radiation_monochromator  graphite
_diffrn_radiation_type           MoK\a
_diffrn_radiation_wavelength     0.71073
_diffrn_reflns_av_R_equivalents  0.2385
_diffrn_reflns_av_unetI/netI     0.2126
_diffrn_reflns_Laue_measured_fraction_full 0.993
_diffrn_reflns_Laue_measured_fraction_max 0.984
_diffrn_reflns_limit_h_max       15
_diffrn_reflns_limit_h_min       -15
_diffrn_reflns_limit_k_max       27
_diffrn_reflns_limit_k_min       -27
_diffrn_reflns_limit_l_max       15
_diffrn_reflns_limit_l_min       -15
_diffrn_reflns_number            30854
_diffrn_reflns_point_group_measured_fraction_full 0.993
_diffrn_reflns_point_group_measured_fraction_max 0.984
_diffrn_reflns_theta_full        25
_diffrn_reflns_theta_max         25.132
_diffrn_reflns_theta_min         1.827
_diffrn_standards_decay_%        0
_diffrn_standards_number         0
_exptl_absorpt_coefficient_mu    0.794
_exptl_absorpt_correction_T_max  0.7452
_exptl_absorpt_correction_T_min  0.6123
_exptl_absorpt_correction_type   multi-scan
_exptl_absorpt_process_details   'Apex2 v2013.2-0 (Bruker, 2013)'
_exptl_crystal_colour            brown
_exptl_crystal_density_diffrn    1.583
_exptl_crystal_density_method    'not measured'
_exptl_crystal_description       plate
_exptl_crystal_F_000             1848
_exptl_crystal_size_max          0.1
_exptl_crystal_size_mid          0.05
_exptl_crystal_size_min          0.02
_refine_diff_density_max         0.884
_refine_diff_density_min         -1.095
_refine_diff_density_rms         0.139
_refine_ls_extinction_method     none
_refine_ls_goodness_of_fit_ref   0.968
_refine_ls_hydrogen_treatment    constr
_refine_ls_matrix_type           full
_refine_ls_number_constraints    0
_refine_ls_number_parameters     515
_refine_ls_number_reflns         6727
_refine_ls_number_restraints     0
_refine_ls_restrained_S_all      0.968
_refine_ls_R_factor_all          0.1765
_refine_ls_R_factor_gt           0.0611
_refine_ls_shift/su_max          0
_refine_ls_shift/su_mean         0
_refine_ls_structure_factor_coef Fsqd
_refine_ls_weighting_details
;
 w=1/[\s^2^(Fo^2^)+(0.0429P)^2^]
 where P=(Fo^2^+2Fc^2^)/3
;
_refine_ls_weighting_scheme      calc
_refine_ls_wR_factor_ref         0.1408
_reflns_number_gt                3272
_reflns_number_total             6727
_reflns_threshold_expression     'I > 2\s(I)'
_iucr_refine_instructions_details
;
        TITL GMF14019_0m in P2(1)/c
CELL  0.71073  12.9518  23.2817  13.4203   90.000  108.926   90.000
ZERR     4.00   0.0050   0.0090   0.0050    0.000    0.008    0.000
        LATT   1
        SYMM  - X, 1/2 + Y, 1/2 - Z
        SFAC  C    H    N    O    S    CL   PD
        UNIT  192  124  8    8    4    12   4
        MERG   2
        OMIT     1   1   0
        FMAP   2
        PLAN   20
        SIZE     0.020   0.050   0.100
        ACTA    50.00
        BOND   $H
        CONF
        LIST   4
        L.S.  16
        TEMP  -173.00
        WGHT    0.042900
        FVAR       0.09809
        MOLE    1
PD1   7    0.851871    0.069619    0.075830    11.00000    0.02330    0.01612 =
         0.01716    0.00038    0.00534   -0.00050
C22   1    0.750091    0.053783    0.160846    11.00000    0.01552    0.02598 =
         0.02044    0.01144   -0.00136    0.00410
N23   3    0.924738    0.138034    0.165790    11.00000    0.02964    0.01549 =
         0.01992    0.00298    0.01064    0.00500
S24   5    0.978185    0.077362   -0.005621    11.00000    0.02627    0.01917 =
         0.01865   -0.00136    0.00622   -0.00068
N25   3    0.787537    0.005498   -0.028240    11.00000    0.02779    0.02191 =
         0.01704    0.00161    0.00845   -0.00217
C1    1    0.694017    0.002325    0.152948    11.00000    0.02194    0.01841 =
         0.01475   -0.00188   -0.00483    0.00061
C2    1    0.632863   -0.005866    0.232010    11.00000    0.03583    0.04041 =
         0.01439   -0.00211    0.00608   -0.01123
O2    4    0.621264   -0.055511    0.262754    11.00000    0.06222    0.03498 =
         0.02880   -0.00662    0.02185   -0.01702
C3    1    0.586011    0.043799    0.260117    11.00000    0.02931    0.02798 =
         0.02346   -0.00733    0.00935   -0.00059
        AFIX  43
H3    2    0.522922    0.041382    0.281310    11.00000   -1.20000
        AFIX   0
C4    1    0.633589    0.094419    0.255865    11.00000    0.03409    0.02020 =
         0.01880   -0.00345    0.00845    0.00155
O4    4    0.594934    0.145981    0.270980    11.00000    0.02830    0.03486 =
         0.03267   -0.00722    0.01273    0.00753
C4A   1    0.508747    0.146830    0.318098    11.00000    0.05549    0.07153 =
         0.04798   -0.01508    0.02100   -0.01107
        AFIX 137
H4A1  2    0.449723    0.121081    0.278799    11.00000   -1.50000
H4A2  2    0.480366    0.185997    0.315860    11.00000   -1.50000
H4A3  2    0.537926    0.133984    0.391468    11.00000   -1.50000
        AFIX   0
C5    1    0.736760    0.096552    0.231398    11.00000    0.02548    0.01952 =
         0.00961    0.00286   -0.00137    0.00406
C6    1    0.815188    0.136774    0.284876    11.00000    0.02631    0.01051 =
         0.01556   -0.00102    0.00546    0.00791
C6A   1    0.805279    0.167299    0.379757    11.00000    0.01895    0.02307 =
         0.01984   -0.00003    0.00376    0.00124
C6B   1    0.794925    0.136285    0.464940    11.00000    0.01748    0.02728 =
         0.02453    0.00410    0.00428   -0.00388
        AFIX  43
H6B   2    0.797340    0.095507    0.464427    11.00000   -1.20000
        AFIX   0
C6C   1    0.781040    0.165035    0.550815    11.00000    0.02707    0.04155 =
         0.01212    0.00282    0.01279   -0.00118
        AFIX  43
H6C   2    0.772092    0.143583    0.607675    11.00000   -1.20000
        AFIX   0
C6D   1    0.780126    0.224487    0.554287    11.00000    0.01946    0.04224 =
         0.03162   -0.00579    0.01150    0.00245
        AFIX  43
H6D   2    0.770745    0.243670    0.613239    11.00000   -1.20000
        AFIX   0
C6E   1    0.793012    0.255952    0.471026    11.00000    0.02692    0.02781 =
         0.02539   -0.00272   -0.00249   -0.00063
        AFIX  43
H6E   2    0.793597    0.296736    0.473377    11.00000   -1.20000
        AFIX   0
C6F   1    0.804983    0.227662    0.384721    11.00000    0.02714    0.03213 =
         0.02438    0.00221    0.01222   -0.00114
        AFIX  43
H6F   2    0.813146    0.249390    0.327823    11.00000   -1.20000
        AFIX   0
C7    1    0.909936    0.150608    0.260578    11.00000    0.02907    0.00977 =
         0.01724    0.00200    0.00591    0.00892
C8    1    0.999962    0.184644    0.323801    11.00000    0.02488    0.01864 =
         0.01681   -0.00235    0.00916   -0.00347
        AFIX  43
H8    2    1.011684    0.197155    0.393994    11.00000   -1.20000
        AFIX   0
C9    1    1.064509    0.195498    0.265222    11.00000    0.02854    0.00808 =
         0.02645   -0.00323    0.00156   -0.00927
        AFIX  43
H9    2    1.130070    0.217274    0.287037    11.00000   -1.20000
        AFIX   0
C10   1    1.018153    0.168868    0.164847    11.00000    0.02351    0.01672 =
         0.02124   -0.00190    0.00730    0.00150
C11   1    1.050981    0.180182    0.076478    11.00000    0.01910    0.01971 =
         0.02529    0.00019   -0.00227   -0.00091
C11A  1    1.114998    0.233615    0.078724    11.00000    0.02039    0.01871 =
         0.01794   -0.00095    0.00879    0.00241
C11B  1    1.082527    0.286089    0.110983    11.00000    0.02333    0.03361 =
         0.01372   -0.00077    0.00711   -0.00190
        AFIX  43
H11B  2    1.019267    0.287486    0.132045    11.00000   -1.20000
        AFIX   0
C11C  1    1.141994    0.335991    0.112408    11.00000    0.03037    0.02662 =
         0.02127   -0.00266    0.00412   -0.00135
        AFIX  43
H11C  2    1.119107    0.371357    0.133709    11.00000   -1.20000
        AFIX   0
C11D  1    1.233939    0.333867    0.082870    11.00000    0.03924    0.01869 =
         0.03278   -0.00447    0.00722   -0.00063
        AFIX  43
H11D  2    1.275717    0.367680    0.085195    11.00000   -1.20000
        AFIX   0
C11E  1    1.265899    0.282595    0.049721    11.00000    0.02353    0.03508 =
         0.02675    0.00764    0.01072   -0.00183
        AFIX  43
H11E  2    1.329145    0.281728    0.028592    11.00000   -1.20000
        AFIX   0
C11F  1    1.207218    0.232428    0.046791    11.00000    0.02514    0.01867 =
         0.02991   -0.00309    0.00514    0.00319
        AFIX  43
H11F  2    1.229672    0.197577    0.023236    11.00000   -1.20000
        AFIX   0
C12   1    1.024547    0.146466   -0.013417    11.00000    0.01377    0.01180 =
         0.02392   -0.00420    0.00385    0.00294
C13   1    1.020544    0.155679   -0.119438    11.00000    0.02254    0.01844 =
         0.03269   -0.00476    0.01194   -0.00928
        AFIX  43
H13   2    1.049512    0.189110   -0.141162    11.00000   -1.20000
        AFIX   0
C14   1    0.971992    0.112841   -0.187019    11.00000    0.01840    0.02977 =
         0.02239    0.00540    0.00910    0.01057
        AFIX  43
H14   2    0.966017    0.113190   -0.259465    11.00000   -1.20000
        AFIX   0
C15   1    0.930541    0.067050   -0.139509    11.00000    0.02590    0.01603 =
         0.01263    0.00163    0.00193    0.00540
C16   1    0.860740    0.022074   -0.180036    11.00000    0.01737    0.01544 =
         0.01769    0.00095    0.00290    0.00488
C16A  1    0.846664    0.004672   -0.292265    11.00000    0.02679    0.00909 =
         0.02086    0.00118    0.00657    0.00052
C16B  1    0.937743   -0.010649   -0.318629    11.00000    0.03555    0.02592 =
         0.02254    0.00367    0.01700    0.00184
        AFIX  43
H16B  2    1.008014   -0.009779   -0.266746    11.00000   -1.20000
        AFIX   0
C16C  1    0.926193   -0.027450   -0.421947    11.00000    0.05382    0.02043 =
         0.03998   -0.00229    0.03056    0.00268
        AFIX  43
H16C  2    0.988241   -0.039144   -0.439817    11.00000   -1.20000
        AFIX   0
C16D  1    0.824629   -0.026933   -0.497363    11.00000    0.04754    0.02817 =
         0.02354   -0.00863    0.01466   -0.00013
        AFIX  43
H16D  2    0.817387   -0.037480   -0.567693    11.00000   -1.20000
        AFIX   0
C16E  1    0.733898   -0.011495   -0.472830    11.00000    0.04312    0.01535 =
         0.01877   -0.00295    0.00284   -0.00243
        AFIX  43
H16E  2    0.664402   -0.011374   -0.525982    11.00000   -1.20000
        AFIX   0
C16F  1    0.743186    0.004109   -0.369704    11.00000    0.03728    0.01089 =
         0.03001    0.00047    0.01092   -0.00469
        AFIX  43
H16F  2    0.680136    0.014233   -0.352165    11.00000   -1.20000
        AFIX   0
C17   1    0.801693   -0.008558   -0.124584    11.00000    0.02750    0.02042 =
         0.01707    0.00069    0.00370    0.00366
C18   1    0.748172   -0.061259   -0.162871    11.00000    0.02571    0.02393 =
         0.01892   -0.00342    0.00320    0.00220
        AFIX  43
H18   2    0.745827   -0.080065   -0.226390    11.00000   -1.20000
        AFIX   0
C19   1    0.700550   -0.079951   -0.091231    11.00000    0.03347    0.01660 =
         0.01891   -0.00185    0.00578   -0.00203
        AFIX  43
H19   2    0.658962   -0.114049   -0.095857    11.00000   -1.20000
        AFIX   0
C20   1    0.725398   -0.038216   -0.007710    11.00000    0.01738    0.02251 =
         0.01490    0.00786    0.00519    0.00023
C21   1    0.685540   -0.041696    0.077586    11.00000    0.01829    0.01566 =
         0.01574    0.00577   -0.00664   -0.00064
C21A  1    0.622139   -0.095453    0.076458    11.00000    0.02761    0.02330 =
         0.01413    0.00135    0.00175   -0.00072
C21B  1    0.673853   -0.145285    0.122108    11.00000    0.02919    0.02791 =
         0.02990    0.00366    0.00941   -0.00175
        AFIX  43
H21B  2    0.750142   -0.144356    0.158552    11.00000   -1.20000
        AFIX   0
C21C  1    0.618186   -0.196639    0.116548    11.00000    0.03922    0.02318 =
         0.02806    0.00695    0.00715    0.00112
        AFIX  43
H21C  2    0.655652   -0.230284    0.149114    11.00000   -1.20000
        AFIX   0
C21D  1    0.507470   -0.198179    0.062980    11.00000    0.05086    0.02502 =
         0.03656   -0.00276    0.02542   -0.01175
        AFIX  43
H21D  2    0.468102   -0.233063    0.058207    11.00000   -1.20000
        AFIX   0
C21E  1    0.454046   -0.148804    0.016298    11.00000    0.02484    0.03669 =
         0.02830    0.00376    0.00524   -0.00623
        AFIX  43
H21E  2    0.378231   -0.150018   -0.022134    11.00000   -1.20000
        AFIX   0
C21F  1    0.510434   -0.097852    0.025350    11.00000    0.03463    0.02379 =
         0.02840    0.01066    0.00760   -0.00925
        AFIX  43
H21F  2    0.472157   -0.063791   -0.003907    11.00000   -1.20000
        AFIX   0
        MOLE    2
C1S   1    0.541520    0.353363    0.206529    11.00000    0.03335    0.03284 =
         0.03458   -0.00019    0.01328   -0.00533
        AFIX  13
H1S   2    0.481708    0.360160    0.237121    11.00000   -1.20000
        AFIX   0
CL1S  6    0.661790    0.385602    0.288090    11.00000    0.06004    0.06518 =
         0.04527    0.00478    0.00405   -0.02659
CL2S  6    0.504009    0.384277    0.079208    11.00000    0.04783    0.05688 =
         0.03600    0.00720    0.01420   -0.00022
CL3S  6    0.560455    0.278757    0.197982    11.00000    0.04582    0.04650 =
         0.05068   -0.00044    0.01638    0.00566
        HKLF    4
        REM  GMF14019_0m in P2(1)/c
REM R1 =  0.0611 for    3272 Fo > 4sig(Fo)  and  0.1765 for all    6727 data
        REM    515 parameters refined using      0 restraints
        END
        WGHT      0.0418      0.0000
REM Highest difference peak  0.884,  deepest hole -1.095,  1-sigma level  0.139
        Q1    1   0.5106  0.4320  0.2196  11.00000  0.05    0.88
        Q2    1   0.9814  0.0687  0.1216  11.00000  0.05    0.63
        Q3    1   0.8305  0.0868  0.0063  11.00000  0.05    0.61
        Q4    1   0.7293 -0.1107 -0.3206  11.00000  0.05    0.61
        Q5    1   0.8778  0.0410  0.2008  11.00000  0.05    0.60
        Q6    1   0.5029 -0.0503 -0.0974  11.00000  0.05    0.58
        Q7    1   0.4944  0.2054  0.2850  11.00000  0.05    0.57
        Q8    1   0.7380  0.0399  0.0780  11.00000  0.05    0.56
        Q9    1   0.5495  0.4548  0.2613  11.00000  0.05    0.53
        Q10   1   0.8590  0.1411  0.1427  11.00000  0.05    0.52
        Q11   1   1.2396  0.2163 -0.0434  11.00000  0.05    0.52
        Q12   1   0.9506  0.0902  0.0340  11.00000  0.05    0.52
        Q13   1   0.7476  0.0916  0.0362  11.00000  0.05    0.51
        Q14   1   0.7301  0.0297 -0.0729  11.00000  0.05    0.51
        Q15   1   0.5524 -0.0741  0.2369  11.00000  0.05    0.51
        Q16   1   0.8308  0.0472  0.0278  11.00000  0.05    0.51
        Q17   1   0.7655  0.0659 -0.0427  11.00000  0.05    0.51
        Q18   1   0.9649  0.1303 -0.3753  11.00000  0.05    0.50
        Q19   1   0.6214 -0.0313  0.1406  11.00000  0.05    0.49
        Q20   1   0.7857  0.1261  0.0672  11.00000  0.05    0.49
;
_cod_data_source_file            jo502063w_si_002.cif
_cod_data_source_block           shelx
_cod_depositor_comments
'Adding full bibliography for 4030120--4030121.cif.'
_cod_original_sg_symbol_H-M      'P 21/c'
_cod_database_code               4030121
#BEGIN Tags that were not found in dictionaries:
_shelxl_version_number           0.000002012
#END Tags that were not found in dictionaries
loop_
_symmetry_equiv_pos_as_xyz
'x, y, z'
'-x, y+1/2, -z+1/2'
'-x, -y, -z'
'x, -y-1/2, z-1/2'
loop_
_atom_site_label
_atom_site_fract_x
_atom_site_fract_y
_atom_site_fract_z
_atom_site_U_iso_or_equiv
_atom_site_adp_type
_atom_site_calc_flag
_atom_site_occupancy
_atom_site_type_symbol
Pd1 0.85187(5) 0.06962(3) 0.07583(5) 0.01916(18) Uani d 1 Pd
C22 0.7501(6) 0.0538(3) 0.1608(6) 0.022(2) Uani d 1 C
N23 0.9247(5) 0.1380(3) 0.1658(5) 0.0211(16) Uani d 1 N
S24 0.97819(16) 0.07736(8) -0.00562(15) 0.0216(5) Uani d 1 S
N25 0.7875(5) 0.0055(3) -0.0282(5) 0.0220(16) Uani d 1 N
C1 0.6940(6) 0.0023(3) 0.1529(6) 0.021(2) Uani d 1 C
C2 0.6329(7) -0.0059(4) 0.2320(6) 0.031(2) Uani d 1 C
O2 0.6213(5) -0.0555(2) 0.2628(4) 0.0403(17) Uani d 1 O
C3 0.5860(7) 0.0438(3) 0.2601(6) 0.027(2) Uani d 1 C
H3 0.5229 0.0414 0.2813 0.032 Uiso calc 1 H
C4 0.6336(7) 0.0944(4) 0.2559(6) 0.024(2) Uani d 1 C
O4 0.5949(5) 0.1460(2) 0.2710(4) 0.0313(15) Uani d 1 O
C4A 0.5087(9) 0.1468(4) 0.3181(8) 0.057(3) Uani d 1 C
H4A1 0.4497 0.1211 0.2788 0.086 Uiso calc 1 H
H4A2 0.4804 0.186 0.3159 0.086 Uiso calc 1 H
H4A3 0.5379 0.134 0.3915 0.086 Uiso calc 1 H
C5 0.7368(7) 0.0966(3) 0.2314(6) 0.0199(19) Uani d 1 C
C6 0.8152(7) 0.1368(3) 0.2849(6) 0.0178(19) Uani d 1 C
C6A 0.8053(6) 0.1673(3) 0.3798(6) 0.0212(19) Uani d 1 C
C6B 0.7949(6) 0.1363(4) 0.4649(6) 0.024(2) Uani d 1 C
H6B 0.7973 0.0955 0.4644 0.028 Uiso calc 1 H
C6C 0.7810(7) 0.1650(4) 0.5508(6) 0.025(2) Uani d 1 C
H6C 0.7721 0.1436 0.6077 0.03 Uiso calc 1 H
C6D 0.7801(6) 0.2245(4) 0.5543(6) 0.030(2) Uani d 1 C
H6D 0.7707 0.2437 0.6132 0.036 Uiso calc 1 H
C6E 0.7930(7) 0.2560(4) 0.4710(6) 0.029(2) Uani d 1 C
H6E 0.7936 0.2967 0.4734 0.035 Uiso calc 1 H
C6F 0.8050(6) 0.2277(4) 0.3847(6) 0.027(2) Uani d 1 C
H6F 0.8131 0.2494 0.3278 0.032 Uiso calc 1 H
C7 0.9099(7) 0.1506(3) 0.2606(6) 0.0191(19) Uani d 1 C
C8 1.0000(7) 0.1846(3) 0.3238(6) 0.0195(19) Uani d 1 C
H8 1.0117 0.1972 0.394 0.023 Uiso calc 1 H
C9 1.0645(7) 0.1955(3) 0.2652(6) 0.023(2) Uani d 1 C
H9 1.1301 0.2173 0.287 0.027 Uiso calc 1 H
C10 1.0182(7) 0.1689(3) 0.1648(6) 0.020(2) Uani d 1 C
C11 1.0510(7) 0.1802(3) 0.0765(6) 0.024(2) Uani d 1 C
C11A 1.1150(6) 0.2336(3) 0.0787(6) 0.0184(19) Uani d 1 C
C11B 1.0825(7) 0.2861(3) 0.1110(5) 0.023(2) Uani d 1 C
H11B 1.0193 0.2875 0.132 0.028 Uiso calc 1 H
C11C 1.1420(7) 0.3360(4) 0.1124(6) 0.027(2) Uani d 1 C
H11C 1.1191 0.3714 0.1337 0.033 Uiso calc 1 H
C11D 1.2339(8) 0.3339(4) 0.0829(6) 0.031(2) Uani d 1 C
H11D 1.2757 0.3677 0.0852 0.038 Uiso calc 1 H
C11E 1.2659(7) 0.2826(4) 0.0497(6) 0.028(2) Uani d 1 C
H11E 1.3291 0.2817 0.0286 0.033 Uiso calc 1 H
C11F 1.2072(7) 0.2324(3) 0.0468(6) 0.025(2) Uani d 1 C
H11F 1.2297 0.1976 0.0232 0.031 Uiso calc 1 H
C12 1.0245(6) 0.1465(3) -0.0134(6) 0.0170(19) Uani d 1 C
C13 1.0205(6) 0.1557(3) -0.1194(6) 0.024(2) Uani d 1 C
H13 1.0495 0.1891 -0.1412 0.029 Uiso calc 1 H
C14 0.9720(6) 0.1128(3) -0.1870(6) 0.023(2) Uani d 1 C
H14 0.966 0.1132 -0.2595 0.028 Uiso calc 1 H
C15 0.9305(6) 0.0670(3) -0.1395(5) 0.0192(18) Uani d 1 C
C16 0.8607(6) 0.0221(3) -0.1800(6) 0.0175(19) Uani d 1 C
C16A 0.8467(7) 0.0047(3) -0.2923(6) 0.0192(19) Uani d 1 C
C16B 0.9377(7) -0.0106(3) -0.3186(6) 0.026(2) Uani d 1 C
H16B 1.008 -0.0098 -0.2667 0.031 Uiso calc 1 H
C16C 0.9262(8) -0.0274(3) -0.4219(7) 0.034(2) Uani d 1 C
H16C 0.9882 -0.0391 -0.4398 0.041 Uiso calc 1 H
C16D 0.8246(8) -0.0269(4) -0.4974(7) 0.032(2) Uani d 1 C
H16D 0.8174 -0.0375 -0.5677 0.039 Uiso calc 1 H
C16E 0.7339(8) -0.0115(3) -0.4728(6) 0.027(2) Uani d 1 C
H16E 0.6644 -0.0114 -0.526 0.033 Uiso calc 1 H
C16F 0.7432(7) 0.0041(3) -0.3697(6) 0.026(2) Uani d 1 C
H16F 0.6801 0.0142 -0.3522 0.031 Uiso calc 1 H
C17 0.8017(7) -0.0086(3) -0.1246(6) 0.023(2) Uani d 1 C
C18 0.7482(6) -0.0613(3) -0.1629(6) 0.024(2) Uani d 1 C
H18 0.7458 -0.0801 -0.2264 0.029 Uiso calc 1 H
C19 0.7006(7) -0.0800(3) -0.0912(6) 0.024(2) Uani d 1 C
H19 0.659 -0.114 -0.0959 0.028 Uiso calc 1 H
C20 0.7254(6) -0.0382(3) -0.0077(6) 0.0183(19) Uani d 1 C
C21 0.6855(6) -0.0417(3) 0.0776(6) 0.0195(19) Uani d 1 C
C21A 0.6221(7) -0.0955(3) 0.0765(6) 0.023(2) Uani d 1 C
C21B 0.6739(7) -0.1453(3) 0.1221(6) 0.029(2) Uani d 1 C
H21B 0.7501 -0.1444 0.1586 0.035 Uiso calc 1 H
C21C 0.6182(8) -0.1966(4) 0.1165(6) 0.031(2) Uani d 1 C
H21C 0.6557 -0.2303 0.1491 0.037 Uiso calc 1 H
C21D 0.5075(8) -0.1982(4) 0.0630(7) 0.035(2) Uani d 1 C
H21D 0.4681 -0.2331 0.0582 0.042 Uiso calc 1 H
C21E 0.4540(7) -0.1488(4) 0.0163(6) 0.031(2) Uani d 1 C
H21E 0.3782 -0.15 -0.0221 0.037 Uiso calc 1 H
C21F 0.5104(7) -0.0979(3) 0.0253(6) 0.030(2) Uani d 1 C
H21F 0.4722 -0.0638 -0.0039 0.035 Uiso calc 1 H
C1S 0.5415(7) 0.3534(3) 0.2065(6) 0.033(2) Uani d 1 C
H1S 0.4817 0.3602 0.2371 0.04 Uiso calc 1 H
Cl1S 0.6618(2) 0.38560(11) 0.2881(2) 0.0600(8) Uani d 1 Cl
Cl2S 0.5040(2) 0.38428(11) 0.07921(18) 0.0468(7) Uani d 1 Cl
Cl3S 0.5605(2) 0.27876(10) 0.19798(19) 0.0475(7) Uani d 1 Cl
loop_
_atom_site_aniso_label
_atom_site_aniso_U_11
_atom_site_aniso_U_22
_atom_site_aniso_U_33
_atom_site_aniso_U_12
_atom_site_aniso_U_13
_atom_site_aniso_U_23
Pd1 0.0233(3) 0.0161(3) 0.0172(3) -0.0005(3) 0.0053(3) 0.0004(3)
C22 0.016(5) 0.026(5) 0.020(5) 0.004(4) -0.001(4) 0.011(4)
N23 0.030(4) 0.015(4) 0.020(4) 0.005(3) 0.011(3) 0.003(3)
S24 0.0263(12) 0.0192(12) 0.0187(11) -0.0007(10) 0.0062(9) -0.0014(9)
N25 0.028(4) 0.022(4) 0.017(4) -0.002(3) 0.008(3) 0.002(3)
C1 0.022(5) 0.018(5) 0.015(4) 0.001(4) -0.005(4) -0.002(4)
C2 0.036(6) 0.040(6) 0.014(5) -0.011(5) 0.006(4) -0.002(4)
O2 0.062(5) 0.035(4) 0.029(4) -0.017(3) 0.022(3) -0.007(3)
C3 0.029(5) 0.028(5) 0.023(5) -0.001(4) 0.009(4) -0.007(4)
C4 0.034(6) 0.020(5) 0.019(5) 0.002(4) 0.008(4) -0.003(4)
O4 0.028(4) 0.035(4) 0.033(4) 0.008(3) 0.013(3) -0.007(3)
C4A 0.055(7) 0.072(8) 0.048(7) -0.011(6) 0.021(6) -0.015(6)
C5 0.025(5) 0.020(5) 0.010(4) 0.004(4) -0.001(4) 0.003(3)
C6 0.026(5) 0.011(4) 0.016(4) 0.008(4) 0.005(4) -0.001(3)
C6A 0.019(5) 0.023(5) 0.020(5) 0.001(4) 0.004(4) 0.000(4)
C6B 0.017(5) 0.027(5) 0.025(5) -0.004(4) 0.004(4) 0.004(4)
C6C 0.027(5) 0.042(6) 0.012(5) -0.001(4) 0.013(4) 0.003(4)
C6D 0.019(5) 0.042(6) 0.032(5) 0.002(4) 0.012(4) -0.006(4)
C6E 0.027(5) 0.028(5) 0.025(5) -0.001(4) -0.002(4) -0.003(4)
C6F 0.027(5) 0.032(6) 0.024(5) -0.001(4) 0.012(4) 0.002(4)
C7 0.029(5) 0.010(4) 0.017(5) 0.009(4) 0.006(4) 0.002(3)
C8 0.025(5) 0.019(5) 0.017(4) -0.003(4) 0.009(4) -0.002(3)
C9 0.029(5) 0.008(4) 0.026(5) -0.009(4) 0.002(4) -0.003(4)
C10 0.024(5) 0.017(5) 0.021(5) 0.002(4) 0.007(4) -0.002(4)
C11 0.019(5) 0.020(5) 0.025(5) -0.001(4) -0.002(4) 0.000(4)
C11A 0.020(5) 0.019(5) 0.018(5) 0.002(4) 0.009(4) -0.001(3)
C11B 0.023(5) 0.034(5) 0.014(4) -0.002(4) 0.007(4) -0.001(4)
C11C 0.030(5) 0.027(5) 0.021(5) -0.001(4) 0.004(4) -0.003(4)
C11D 0.039(6) 0.019(5) 0.033(5) -0.001(4) 0.007(5) -0.004(4)
C11E 0.024(5) 0.035(6) 0.027(5) -0.002(4) 0.011(4) 0.008(4)
C11F 0.025(5) 0.019(5) 0.030(5) 0.003(4) 0.005(4) -0.003(4)
C12 0.014(4) 0.012(4) 0.024(5) 0.003(3) 0.004(4) -0.004(3)
C13 0.023(5) 0.018(5) 0.033(5) -0.009(4) 0.012(4) -0.005(4)
C14 0.018(5) 0.030(5) 0.022(5) 0.011(4) 0.009(4) 0.005(4)
C15 0.026(5) 0.016(4) 0.013(4) 0.005(4) 0.002(4) 0.002(4)
C16 0.017(5) 0.015(4) 0.018(4) 0.005(4) 0.003(4) 0.001(3)
C16A 0.027(5) 0.009(4) 0.021(5) 0.001(4) 0.007(4) 0.001(3)
C16B 0.036(6) 0.026(5) 0.023(5) 0.002(4) 0.017(5) 0.004(4)
C16C 0.054(7) 0.020(5) 0.040(6) 0.003(5) 0.031(6) -0.002(4)
C16D 0.048(6) 0.028(5) 0.024(5) 0.000(5) 0.015(5) -0.009(4)
C16E 0.043(6) 0.015(5) 0.019(5) -0.002(4) 0.003(5) -0.003(3)
C16F 0.037(6) 0.011(4) 0.030(5) -0.005(4) 0.011(5) 0.000(4)
C17 0.027(5) 0.020(5) 0.017(5) 0.004(4) 0.004(4) 0.001(4)
C18 0.026(5) 0.024(5) 0.019(4) 0.002(4) 0.003(4) -0.003(4)
C19 0.033(5) 0.017(5) 0.019(4) -0.002(4) 0.006(4) -0.002(3)
C20 0.017(5) 0.023(5) 0.015(4) 0.000(4) 0.005(4) 0.008(3)
C21 0.018(5) 0.016(4) 0.016(5) -0.001(4) -0.007(4) 0.006(3)
C21A 0.028(5) 0.023(5) 0.014(4) -0.001(4) 0.002(4) 0.001(4)
C21B 0.029(5) 0.028(6) 0.030(5) -0.002(4) 0.009(5) 0.004(4)
C21C 0.039(6) 0.023(5) 0.028(5) 0.001(5) 0.007(5) 0.007(4)
C21D 0.051(7) 0.025(5) 0.037(6) -0.012(5) 0.025(5) -0.003(4)
C21E 0.025(5) 0.037(6) 0.028(5) -0.006(5) 0.005(4) 0.004(4)
C21F 0.035(6) 0.024(5) 0.028(5) -0.009(4) 0.008(5) 0.011(4)
C1S 0.033(6) 0.033(6) 0.035(6) -0.005(4) 0.013(5) 0.000(4)
Cl1S 0.0600(19) 0.0652(19) 0.0453(16) -0.0266(15) 0.0040(15) 0.0048(13)
Cl2S 0.0478(16) 0.0569(17) 0.0360(15) -0.0002(13) 0.0142(13) 0.0072(12)
Cl3S 0.0458(16) 0.0465(16) 0.0507(16) 0.0057(13) 0.0164(14) -0.0004(12)
loop_
_atom_type_symbol
_atom_type_description
_atom_type_scat_dispersion_real
_atom_type_scat_dispersion_imag
_atom_type_scat_source
C C 0.0033 0.0016 'International Tables Vol C Tables 4.2.6.8 and 6.1.1.4'
H H 0 0 'International Tables Vol C Tables 4.2.6.8 and 6.1.1.4'
N N 0.0061 0.0033 'International Tables Vol C Tables 4.2.6.8 and 6.1.1.4'
O O 0.0106 0.006 'International Tables Vol C Tables 4.2.6.8 and 6.1.1.4'
S S 0.1246 0.1234 'International Tables Vol C Tables 4.2.6.8 and 6.1.1.4'
Cl Cl 0.1484 0.1585 'International Tables Vol C Tables 4.2.6.8 and 6.1.1.4'
Pd Pd -0.9988 1.0072 'International Tables Vol C Tables 4.2.6.8 and 6.1.1.4'
loop_
_geom_angle_atom_site_label_1
_geom_angle_atom_site_label_2
_geom_angle_atom_site_label_3
_geom_angle
N25 Pd1 N23 172.5(3)
N25 Pd1 C22 93.2(3)
N23 Pd1 C22 94.0(3)
N25 Pd1 S24 85.73(19)
N23 Pd1 S24 87.43(19)
C22 Pd1 S24 172.3(2)
C1 C22 C5 118.8(7)
C1 C22 Pd1 122.1(6)
C5 C22 Pd1 119.1(6)
C7 N23 C10 106.1(6)
C7 N23 Pd1 122.5(5)
C10 N23 Pd1 128.8(5)
C15 S24 C12 94.6(4)
C15 S24 Pd1 115.2(3)
C12 S24 Pd1 115.1(3)
C20 N25 C17 105.7(6)
C20 N25 Pd1 122.8(5)
C17 N25 Pd1 131.2(5)
C22 C1 C21 126.6(8)
C22 C1 C2 115.5(7)
C21 C1 C2 117.8(7)
O2 C2 C3 124.0(8)
O2 C2 C1 119.2(8)
C3 C2 C1 116.6(8)
C4 C3 C2 117.7(8)
C4 C3 H3 121.1
C2 C3 H3 121.1
C3 C4 O4 125.6(8)
C3 C4 C5 120.1(7)
O4 C4 C5 114.4(7)
C4 O4 C4A 117.1(7)
O4 C4A H4A1 109.5
O4 C4A H4A2 109.5
H4A1 C4A H4A2 109.5
O4 C4A H4A3 109.5
H4A1 C4A H4A3 109.5
H4A2 C4A H4A3 109.5
C6 C5 C22 125.9(8)
C6 C5 C4 117.9(7)
C22 C5 C4 116.0(7)
C5 C6 C7 125.4(7)
C5 C6 C6A 120.4(7)
C7 C6 C6A 114.2(7)
C6B C6A C6F 118.4(7)
C6B C6A C6 120.5(7)
C6F C6A C6 121.1(7)
C6C C6B C6A 120.1(8)
C6C C6B H6B 120
C6A C6B H6B 120
C6D C6C C6B 120.8(7)
C6D C6C H6C 119.6
C6B C6C H6C 119.6
C6C C6D C6E 119.7(8)
C6C C6D H6D 120.2
C6E C6D H6D 120.2
C6F C6E C6D 119.8(8)
C6F C6E H6E 120.1
C6D C6E H6E 120.1
C6E C6F C6A 121.2(7)
C6E C6F H6F 119.4
C6A C6F H6F 119.4
N23 C7 C6 124.0(7)
N23 C7 C8 109.4(7)
C6 C7 C8 126.3(7)
C9 C8 C7 107.3(7)
C9 C8 H8 126.3
C7 C8 H8 126.3
C8 C9 C10 108.6(7)
C8 C9 H9 125.7
C10 C9 H9 125.7
C11 C10 N23 126.6(7)
C11 C10 C9 124.4(8)
N23 C10 C9 108.2(7)
C12 C11 C10 124.8(7)
C12 C11 C11A 118.0(7)
C10 C11 C11A 117.2(7)
C11F C11A C11B 118.9(7)
C11F C11A C11 120.3(7)
C11B C11A C11 120.8(7)
C11C C11B C11A 120.7(8)
C11C C11B H11B 119.6
C11A C11B H11B 119.6
C11D C11C C11B 119.6(8)
C11D C11C H11C 120.2
C11B C11C H11C 120.2
C11C C11D C11E 120.1(8)
C11C C11D H11D 119.9
C11E C11D H11D 119.9
C11D C11E C11F 121.2(8)
C11D C11E H11E 119.4
C11F C11E H11E 119.4
C11E C11F C11A 119.4(7)
C11E C11F H11F 120.3
C11A C11F H11F 120.3
C11 C12 C13 134.7(7)
C11 C12 S24 117.8(6)
C13 C12 S24 107.4(5)
C14 C13 C12 114.6(7)
C14 C13 H13 122.7
C12 C13 H13 122.7
C13 C14 C15 114.1(7)
C13 C14 H14 122.9
C15 C14 H14 122.9
C16 C15 C14 133.1(7)
C16 C15 S24 119.2(6)
C14 C15 S24 107.6(6)
C15 C16 C17 124.9(7)
C15 C16 C16A 116.7(7)
C17 C16 C16A 118.4(7)
C16B C16A C16F 119.8(7)
C16B C16A C16 119.1(7)
C16F C16A C16 121.1(7)
C16A C16B C16C 119.9(8)
C16A C16B H16B 120
C16C C16B H16B 120
C16D C16C C16B 119.7(9)
C16D C16C H16C 120.2
C16B C16C H16C 120.2
C16E C16D C16C 121.1(8)
C16E C16D H16D 119.4
C16C C16D H16D 119.4
C16D C16E C16F 120.1(8)
C16D C16E H16E 119.9
C16F C16E H16E 119.9
C16E C16F C16A 119.3(8)
C16E C16F H16F 120.3
C16A C16F H16F 120.3
N25 C17 C16 128.3(7)
N25 C17 C18 109.9(7)
C16 C17 C18 121.8(7)
C19 C18 C17 107.4(7)
C19 C18 H18 126.3
C17 C18 H18 126.3
C18 C19 C20 107.1(7)
C18 C19 H19 126.4
C20 C19 H19 126.4
N25 C20 C21 126.8(7)
N25 C20 C19 109.9(7)
C21 C20 C19 123.3(7)
C20 C21 C1 125.2(7)
C20 C21 C21A 112.7(7)
C1 C21 C21A 121.8(7)
C21B C21A C21F 117.7(8)
C21B C21A C21 120.9(7)
C21F C21A C21 121.4(7)
C21A C21B C21C 122.2(8)
C21A C21B H21B 118.9
C21C C21B H21B 118.9
C21D C21C C21B 119.0(8)
C21D C21C H21C 120.5
C21B C21C H21C 120.5
C21C C21D C21E 119.8(8)
C21C C21D H21D 120.1
C21E C21D H21D 120.1
C21F C21E C21D 120.2(8)
C21F C21E H21E 119.9
C21D C21E H21E 119.9
C21E C21F C21A 121.1(8)
C21E C21F H21F 119.5
C21A C21F H21F 119.5
Cl1S C1S Cl3S 110.4(5)
Cl1S C1S Cl2S 109.8(5)
Cl3S C1S Cl2S 109.8(5)
Cl1S C1S H1S 109
Cl3S C1S H1S 109
Cl2S C1S H1S 109
loop_
_geom_bond_atom_site_label_1
_geom_bond_atom_site_label_2
_geom_bond_distance
Pd1 N25 2.029(6)
Pd1 N23 2.036(6)
Pd1 C22 2.037(8)
Pd1 S24 2.250(2)
C22 C1 1.387(10)
C22 C5 1.423(10)
N23 C7 1.378(9)
N23 C10 1.410(10)
S24 C15 1.717(7)
S24 C12 1.732(8)
N25 C20 1.380(9)
N25 C17 1.402(9)
C1 C21 1.419(10)
C1 C2 1.528(11)
C2 O2 1.253(9)
C2 C3 1.413(11)
C3 C4 1.340(10)
C3 H3 0.95
C4 O4 1.341(9)
C4 C5 1.477(11)
O4 C4A 1.451(11)
C4A H4A1 0.98
C4A H4A2 0.98
C4A H4A3 0.98
C5 C6 1.397(10)
C6 C7 1.406(11)
C6 C6A 1.500(10)
C6A C6B 1.395(10)
C6A C6F 1.407(10)
C6B C6C 1.394(10)
C6B H6B 0.95
C6C C6D 1.385(11)
C6C H6C 0.95
C6D C6E 1.391(11)
C6D H6D 0.95
C6E C6F 1.384(11)
C6E H6E 0.95
C6F H6F 0.95
C7 C8 1.437(10)
C8 C9 1.344(10)
C8 H8 0.95
C9 C10 1.426(10)
C9 H9 0.95
C10 C11 1.408(11)
C11 C12 1.386(10)
C11 C11A 1.490(10)
C11A C11F 1.394(10)
C11A C11B 1.405(10)
C11B C11C 1.391(10)
C11B H11B 0.95
C11C C11D 1.373(11)
C11C H11C 0.95
C11D C11E 1.383(11)
C11D H11D 0.95
C11E C11F 1.387(11)
C11E H11E 0.95
C11F H11F 0.95
C12 C13 1.423(11)
C13 C14 1.357(10)
C13 H13 0.95
C14 C15 1.433(10)
C14 H14 0.95
C15 C16 1.375(10)
C16 C17 1.420(10)
C16 C16A 1.513(10)
C16A C16B 1.384(11)
C16A C16F 1.405(10)
C16B C16C 1.401(10)
C16B H16B 0.95
C16C C16D 1.375(12)
C16C H16C 0.95
C16D C16E 1.367(11)
C16D H16D 0.95
C16E C16F 1.398(10)
C16E H16E 0.95
C16F H16F 0.95
C17 C18 1.421(10)
C18 C19 1.371(10)
C18 H18 0.95
C19 C20 1.439(10)
C19 H19 0.95
C20 C21 1.402(10)
C21 C21A 1.494(10)
C21A C21B 1.380(10)
C21A C21F 1.387(11)
C21B C21C 1.386(11)
C21B H21B 0.95
C21C C21D 1.380(12)
C21C H21C 0.95
C21D C21E 1.383(11)
C21D H21D 0.95
C21E C21F 1.378(11)
C21E H21E 0.95
C21F H21F 0.95
C1S Cl1S 1.756(9)
C1S Cl3S 1.763(8)
C1S Cl2S 1.771(8)
C1S H1S 1
loop_
_geom_torsion_atom_site_label_1
_geom_torsion_atom_site_label_2
_geom_torsion_atom_site_label_3
_geom_torsion_atom_site_label_4
_geom_torsion
C5 C22 C1 C21 170.9(7)
Pd1 C22 C1 C21 -9.7(11)
C5 C22 C1 C2 -7.0(10)
Pd1 C22 C1 C2 172.4(5)
C22 C1 C2 O2 -149.3(8)
C21 C1 C2 O2 32.6(11)
C22 C1 C2 C3 35.0(10)
C21 C1 C2 C3 -143.0(7)
O2 C2 C3 C4 156.2(8)
C1 C2 C3 C4 -28.3(11)
C2 C3 C4 O4 174.0(7)
C2 C3 C4 C5 -5.2(11)
C3 C4 O4 C4A 14.4(11)
C5 C4 O4 C4A -166.5(7)
C1 C22 C5 C6 149.4(8)
Pd1 C22 C5 C6 -29.9(10)
C1 C22 C5 C4 -25.2(10)
Pd1 C22 C5 C4 155.4(5)
C3 C4 C5 C6 -141.8(8)
O4 C4 C5 C6 39.0(9)
C3 C4 C5 C22 33.3(10)
O4 C4 C5 C22 -145.9(7)
C22 C5 C6 C7 15.5(12)
C4 C5 C6 C7 -169.9(7)
C22 C5 C6 C6A -161.5(7)
C4 C5 C6 C6A 13.1(10)
C5 C6 C6A C6B 54.6(11)
C7 C6 C6A C6B -122.6(8)
C5 C6 C6A C6F -124.7(8)
C7 C6 C6A C6F 58.1(10)
C6F C6A C6B C6C 2.1(12)
C6 C6A C6B C6C -177.2(7)
C6A C6B C6C C6D -1.7(12)
C6B C6C C6D C6E 0.1(12)
C6C C6D C6E C6F 1.0(12)
C6D C6E C6F C6A -0.5(13)
C6B C6A C6F C6E -1.0(12)
C6 C6A C6F C6E 178.3(8)
C10 N23 C7 C6 168.2(7)
Pd1 N23 C7 C6 -28.7(10)
C10 N23 C7 C8 -5.8(8)
Pd1 N23 C7 C8 157.3(5)
C5 C6 C7 N23 17.7(12)
C6A C6 C7 N23 -165.2(7)
C5 C6 C7 C8 -169.3(7)
C6A C6 C7 C8 7.8(11)
N23 C7 C8 C9 3.8(9)
C6 C7 C8 C9 -170.0(7)
C7 C8 C9 C10 -0.2(9)
C7 N23 C10 C11 -164.4(7)
Pd1 N23 C10 C11 33.9(11)
C7 N23 C10 C9 5.6(8)
Pd1 N23 C10 C9 -156.0(5)
C8 C9 C10 C11 167.0(7)
C8 C9 C10 N23 -3.3(9)
N23 C10 C11 C12 -26.2(13)
C9 C10 C11 C12 165.3(8)
N23 C10 C11 C11A 151.2(7)
C9 C10 C11 C11A -17.3(12)
C12 C11 C11A C11F -46.9(10)
C10 C11 C11A C11F 135.5(8)
C12 C11 C11A C11B 131.9(8)
C10 C11 C11A C11B -45.8(10)
C11F C11A C11B C11C -0.8(11)
C11 C11A C11B C11C -179.6(7)
C11A C11B C11C C11D -0.6(11)
C11B C11C C11D C11E 1.4(12)
C11C C11D C11E C11F -0.8(12)
C11D C11E C11F C11A -0.6(11)
C11B C11A C11F C11E 1.4(11)
C11 C11A C11F C11E -179.8(7)
C10 C11 C12 C13 159.2(9)
C11A C11 C12 C13 -18.2(13)
C10 C11 C12 S24 -16.9(11)
C11A C11 C12 S24 165.7(6)
C15 S24 C12 C11 166.1(6)
Pd1 S24 C12 C11 45.4(7)
C15 S24 C12 C13 -11.0(6)
Pd1 S24 C12 C13 -131.7(5)
C11 C12 C13 C14 -169.3(9)
S24 C12 C13 C14 7.0(9)
C12 C13 C14 C15 1.9(10)
C13 C14 C15 C16 166.3(8)
C13 C14 C15 S24 -10.0(8)
C12 S24 C15 C16 -164.9(6)
Pd1 S24 C15 C16 -44.4(7)
C12 S24 C15 C14 12.0(6)
Pd1 S24 C15 C14 132.6(5)
C14 C15 C16 C17 -159.0(8)
S24 C15 C16 C17 16.9(11)
C14 C15 C16 C16A 20.8(12)
S24 C15 C16 C16A -163.2(5)
C15 C16 C16A C16B 56.9(10)
C17 C16 C16A C16B -123.3(8)
C15 C16 C16A C16F -122.8(8)
C17 C16 C16A C16F 57.0(10)
C16F C16A C16B C16C -0.9(11)
C16 C16A C16B C16C 179.4(7)
C16A C16B C16C C16D 2.0(12)
C16B C16C C16D C16E -1.5(12)
C16C C16D C16E C16F 0.0(12)
C16D C16E C16F C16A 1.1(11)
C16B C16A C16F C16E -0.6(11)
C16 C16A C16F C16E 179.1(7)
C20 N25 C17 C16 -179.1(7)
Pd1 N25 C17 C16 -5.3(12)
C20 N25 C17 C18 -0.2(8)
Pd1 N25 C17 C18 173.7(5)
C15 C16 C17 N25 11.4(13)
C16A C16 C17 N25 -168.4(7)
C15 C16 C17 C18 -167.4(7)
C16A C16 C17 C18 12.8(11)
N25 C17 C18 C19 0.2(9)
C16 C17 C18 C19 179.2(7)
C17 C18 C19 C20 -0.1(9)
C17 N25 C20 C21 -176.6(7)
Pd1 N25 C20 C21 8.9(10)
C17 N25 C20 C19 0.1(8)
Pd1 N25 C20 C19 -174.4(5)
C18 C19 C20 N25 0.0(9)
C18 C19 C20 C21 176.9(7)
N25 C20 C21 C1 6.3(12)
C19 C20 C21 C1 -170.0(7)
N25 C20 C21 C21A -179.2(7)
C19 C20 C21 C21A 4.4(10)
C22 C1 C21 C20 -5.7(13)
C2 C1 C21 C20 172.1(7)
C22 C1 C21 C21A -179.7(7)
C2 C1 C21 C21A -1.9(10)
C20 C21 C21A C21B 87.0(9)
C1 C21 C21A C21B -98.3(9)
C20 C21 C21A C21F -89.9(9)
C1 C21 C21A C21F 84.8(10)
C21F C21A C21B C21C 1.1(12)
C21 C21A C21B C21C -175.9(7)
C21A C21B C21C C21D 0.5(13)
C21B C21C C21D C21E -0.2(13)
C21C C21D C21E C21F -1.6(13)
C21D C21E C21F C21A 3.3(13)
C21B C21A C21F C21E -3.0(12)
C21 C21A C21F C21E 174.0(7)
