#------------------------------------------------------------------------------
#$Date: 2017-07-09 05:09:38 +0300 (Sun, 09 Jul 2017) $
#$Revision: 198584 $
#$URL: file:///home/coder/svn-repositories/cod/cif/4/03/26/4032621.cif $
#------------------------------------------------------------------------------
#
# This file is available in the Crystallography Open Database (COD),
# http://www.crystallography.net/
#
# All data on this site have been placed in the public domain by the
# contributors.
#
data_4032621
loop_
_publ_author_name
'Roche, C\'ecile'
'Luo, Qianfu'
'Gil-Ram\'irez, Guzm\'an'
'Jiang, Hua-Wei'
'Kohn, Daniel R.'
'Xiong, Yaoyao'
'Thompson, Amber L.'
'Anderson, Harry L.'
_publ_section_title
;
 Unexpected Interactions between Alkyl Straps and Pyridine Ligands in
 Sulfur-Strapped Porphyrin Nanorings.
;
_journal_name_full               'The Journal of organic chemistry'
_journal_paper_doi               10.1021/acs.joc.7b01128
_journal_year                    2017
_chemical_formula_moiety         'C49 H43 N5 O2 S2 Zn1'
_chemical_formula_sum            'C49 H43 N5 O2 S2 Zn'
_chemical_formula_weight         863.42
_chemical_melting_point          ?
_space_group_IT_number           14
_symmetry_cell_setting           monoclinic
_symmetry_space_group_name_Hall  '-P 2yab'
_symmetry_space_group_name_H-M   'P 1 21/a 1'
_atom_sites_solution_hydrogens   difmap
_atom_sites_solution_primary     other
_audit_creation_date             2017-02-14
_audit_creation_method           CRYSTALS_ver_14.61_build_6019
_cell_angle_alpha                90
_cell_angle_beta                 92.324(5)
_cell_angle_gamma                90
_cell_formula_units_Z            4
_cell_length_a                   9.1845(6)
_cell_length_b                   49.152(6)
_cell_length_c                   9.3517(6)
_cell_measurement_reflns_used    5403
_cell_measurement_temperature    300
_cell_measurement_theta_max      75
_cell_measurement_theta_min      5
_cell_volume                     4218.2(6)
_computing_cell_refinement       'CrysAlisPro, (Agilent, 2011)'
_computing_data_collection       'SuperNova, (Oxford Diffraction, 2010)'
_computing_data_reduction        'CrysAlisPro, (Agilent, 2011)'
_computing_molecular_graphics    'CAMERON (Watkin et al., 1996)'
_computing_publication_material  'CRYSTALS (Betteridge et al., 2003)'
_computing_structure_refinement  'CRYSTALS (Betteridge et al., 2003)'
_computing_structure_solution    'Superflip (Palatinus & Chapuis, 2007)'
_diffrn_ambient_temperature      300
_diffrn_measured_fraction_theta_full 0.996
_diffrn_measured_fraction_theta_max 0.985
_diffrn_measurement_device       Area
_diffrn_measurement_device_type  'Oxford Diffraction SuperNova'
_diffrn_measurement_method       \w
_diffrn_radiation_monochromator  graphite
_diffrn_radiation_type           'Cu K\a'
_diffrn_radiation_wavelength     1.54184
_diffrn_reflns_av_R_equivalents  0.063
_diffrn_reflns_limit_h_max       11
_diffrn_reflns_limit_h_min       -7
_diffrn_reflns_limit_k_max       61
_diffrn_reflns_limit_k_min       -59
_diffrn_reflns_limit_l_max       11
_diffrn_reflns_limit_l_min       -11
_diffrn_reflns_number            24727
_diffrn_reflns_theta_full        74.017
_diffrn_reflns_theta_max         76.306
_diffrn_reflns_theta_min         3.597
_diffrn_standards_number         0
_exptl_absorpt_coefficient_mu    2.099
_exptl_absorpt_correction_T_max  0.96
_exptl_absorpt_correction_T_min  0.73
_exptl_absorpt_correction_type   multi-scan
_exptl_absorpt_process_details   'CrysAlisPro, (Agilent, 2011)'
_exptl_crystal_colour            clear_intense_red
_exptl_crystal_density_diffrn    1.359
_exptl_crystal_density_meas      ?
_exptl_crystal_density_method    'not measured'
_exptl_crystal_description       plate
_exptl_crystal_F_000             1800
_exptl_crystal_size_max          0.28
_exptl_crystal_size_mid          0.18
_exptl_crystal_size_min          0.02
_refine_diff_density_max         0.76
_refine_diff_density_min         -0.89
_refine_ls_extinction_method     None
_refine_ls_goodness_of_fit_ref   0.9997
_refine_ls_hydrogen_treatment    constr
_refine_ls_matrix_type           full
_refine_ls_number_parameters     532
_refine_ls_number_reflns         8711
_refine_ls_number_restraints     142
_refine_ls_R_factor_all          0.1190
_refine_ls_R_factor_gt           0.1028
_refine_ls_shift/su_max          0.0003297
_refine_ls_shift/su_mean         0.0000196
_refine_ls_structure_factor_coef Fsqd
_refine_ls_weighting_details
;
 Method= Modified Sheldrick 
 w=1/[\s^2^(F^2^) + ( 0.06P)^2^ +18.71P] 
 ,where P=(max(Fo^2^,0) + 2Fc^2^)/3 
;
_refine_ls_weighting_scheme      calc
_refine_ls_wR_factor_all         0.2579
_refine_ls_wR_factor_gt          0.2467
_refine_ls_wR_factor_ref         0.2579
_reflns_limit_h_max              11
_reflns_limit_h_min              -11
_reflns_limit_k_max              61
_reflns_limit_k_min              0
_reflns_limit_l_max              11
_reflns_limit_l_min              0
_reflns_number_gt                6896
_reflns_number_total             8714
_reflns_threshold_expression     I>2.0\s(I)
_oxford_diffrn_Wilson_B_factor   4.76
_oxford_diffrn_Wilson_scale      0.27
_oxford_refine_ls_r_factor_ref   0.1190
_oxford_refine_ls_scale          2.96(4)
_oxford_reflns_number_all        8711
_oxford_reflns_threshold_expression_ref I>-3.0\s(I)
_oxford_structure_analysis_title 6701
_iucr_refine_instructions_details
;
#
# Punched on 14/02/17 at 16:48:42
#
#LIST     12                                                                    
BLOCK SCALE X'S  U'S 
RIDE C   (   2,X'S) H   (  21,X'S) 
RIDE C   (   3,X'S) H   (  31,X'S) 
RIDE C   (   5,X'S) H   (  51,X'S) 
RIDE C   (   7,X'S) H   (  71,X'S) 
RIDE C   (   8,X'S) H   (  81,X'S) 
RIDE C   (  12,X'S) H   ( 121,X'S) 
RIDE C   (  13,X'S) H   ( 131,X'S) 
RIDE C   (  15,X'S) H   ( 151,X'S) 
RIDE C   (  17,X'S) H   ( 171,X'S) 
RIDE C   (  18,X'S) H   ( 181,X'S) 
RIDE C   (  21,X'S) H   ( 211,X'S) 
RIDE C   (  22,X'S) H   ( 221,X'S) 
RIDE C   (  23,X'S) H   ( 231,X'S) 
RIDE C   (  24,X'S) H   ( 241,X'S) 
RIDE C   (  25,X'S) H   ( 251,X'S) 
RIDE C   (  32,X'S) H   ( 321,X'S) 
RIDE C   (  33,X'S) H   ( 331,X'S) 
RIDE C   (  34,X'S) H   ( 341,X'S) 
RIDE C   (  35,X'S) H   ( 351,X'S) 
RIDE C   (  42,X'S) H   ( 421,X'S) 
RIDE C   (  43,X'S) H   ( 431,X'S) 
RIDE C   (  44,X'S) H   ( 441,X'S) 
RIDE C   (  45,X'S) H   ( 451,X'S) 
RIDE C   (  52,X'S) H   ( 521,X'S) H   ( 522,X'S) 
RIDE C   (  53,X'S) H   ( 531,X'S) H   ( 532,X'S) 
RIDE C   (  54,X'S) H   ( 541,X'S) H   ( 542,X'S) 
RIDE C   (  55,X'S) H   ( 551,X'S) H   ( 552,X'S) 
RIDE C   (  56,X'S) H   ( 561,X'S) H   ( 562,X'S) 
RIDE C   (  57,X'S) H   ( 571,X'S) H   ( 572,X'S) 
RIDE C   (  58,X'S) H   ( 581,X'S) H   ( 582,X'S) 
RIDE C   (  59,X'S) H   ( 591,X'S) H   ( 592,X'S) 
RIDE C   (  60,X'S) H   ( 601,X'S) H   ( 602,X'S) 
RIDE C   (  61,X'S) H   ( 611,X'S) H   ( 612,X'S) 
END                                                                             
#
# Punched on 14/02/17 at 16:48:42
#
#LIST     16                                                                    
DIST 1.54,0.01 = 
CONT C(52) TO C(53) C(53) TO C(54) C(54) TO C(55) C(55) TO C(56) C(56) TO C(57) 
CONT C(57) TO C(58) C(58) TO C(59) C(59) TO C(60) C(60) TO C(61) 
ANGLE 109.5,0.1 = 
CONT C(51) TO C(52) TO C(53) C(52) TO C(53) TO C(54) C(53) TO C(54) TO C(55) 
CONT C(54) TO C(55) TO C(56) C(55) TO C(56) TO C(57) C(56) TO C(57) TO C(58) 
CONT C(57) TO C(58) TO C(59) C(58) TO C(59) TO C(60) C(59) TO C(60) TO C(61) 
CONT C(60) TO C(61) TO C(62) 
REM   HREST   START (DO NOT REMOVE THIS LINE) 
REM   HREST   END (DO NOT REMOVE THIS LINE) 
VIBR .0, 0.00200 = S(1) TO C(51) 
VIBR .0, 0.00500 = C(51) TO C(36) 
VIBR .0, 0.00200 = S(2) TO C(62) 
VIBR .0, 0.00500 = C(62) TO C(46) 
VIBR .0, 0.00200 = O(1) TO C(51) 
VIBR .0, 0.00200 = O(2) TO C(62) 
VIBR .0, 0.00200 = C(51) TO C(52) 
VIBR .0, 0.00500 = O(1) TO S(1) 
VIBR .0, 0.00500 = C(52) TO S(1) 
VIBR .0, 0.00500 = C(52) TO O(1) 
VIBR .0, 0.00200 = C(52) TO C(53) 
VIBR .0, 0.00500 = C(53) TO C(51) 
VIBR .0, 0.00200 = C(53) TO C(54) 
VIBR .0, 0.00500 = C(54) TO C(52) 
VIBR .0, 0.00200 = C(54) TO C(55) 
VIBR .0, 0.00500 = C(55) TO C(53) 
VIBR .0, 0.00200 = C(55) TO C(56) 
VIBR .0, 0.00500 = C(56) TO C(54) 
VIBR .0, 0.00200 = C(56) TO C(57) 
VIBR .0, 0.00500 = C(57) TO C(55) 
VIBR .0, 0.00200 = C(57) TO C(58) 
VIBR .0, 0.00500 = C(58) TO C(56) 
VIBR .0, 0.00200 = C(58) TO C(59) 
VIBR .0, 0.00500 = C(59) TO C(57) 
VIBR .0, 0.00200 = C(59) TO C(60) 
VIBR .0, 0.00500 = C(60) TO C(58) 
VIBR .0, 0.00200 = C(60) TO C(61) 
VIBR .0, 0.00500 = C(61) TO C(59) 
VIBR .0, 0.00200 = C(61) TO C(62) 
VIBR .0, 0.00500 = C(62) TO C(60) 
VIBR .0, 0.00500 = S(2) TO C(61) 
VIBR .0, 0.00500 = O(2) TO C(61) 
VIBR .0, 0.00500 = O(2) TO S(2) 
U(IJ) .0, 0.04000 = S(1) TO C(51) 
U(IJ) .0, 0.04000 = S(2) TO C(62) 
U(IJ) .0, 0.08000 = O(1) TO C(51) 
U(IJ) .0, 0.08000 = O(2) TO C(62) 
U(IJ) .0, 0.04000 = C(51) TO C(52) 
U(IJ) .0, 0.04000 = C(52) TO C(53) 
U(IJ) .0, 0.04000 = C(53) TO C(54) 
U(IJ) .0, 0.04000 = C(54) TO C(55) 
U(IJ) .0, 0.04000 = C(55) TO C(56) 
U(IJ) .0, 0.04000 = C(56) TO C(57) 
U(IJ) .0, 0.04000 = C(57) TO C(58) 
U(IJ) .0, 0.04000 = C(58) TO C(59) 
U(IJ) .0, 0.04000 = C(59) TO C(60) 
U(IJ) .0, 0.04000 = C(60) TO C(61) 
U(IJ) .0, 0.04000 = C(61) TO C(62) 
END                                                                             
;
_cod_data_source_file            jo7b01128_si_002.cif
_cod_data_source_block           6c-I
_cod_depositor_comments
;
The following automatic conversions were performed:

'_chemical_melting_point' value 'not measured' was changed to '?' -
the value is undefined or not given.

'_atom_sites_solution_primary' value 'Other' changed to 'other'
according to
/home/data/users/saulius/crontab/automatic-downloads/rss-feeds/ACS/lib/dictionaries/cif_core.dic
dictionary named 'cif_core.dic' version 2.4.2 from 2011-04-26.

'_exptl_crystal_density_meas' value 'not measured' was changed to '?'
- the value is perceived as not measured.

Automatic conversion script
Id: cif_fix_values 4973 2017-02-22 13:04:09Z antanas 
;
_cod_original_sg_symbol_H-M      'P 21/a '
_cod_original_formula_sum        'C49 H43 N5 O2 S2 Zn1'
_cod_database_code               4032621
loop_
_symmetry_equiv_pos_as_xyz
x,y,z
-x,-y,-z
x+1/2,-y+1/2,z
-x+1/2,y+1/2,-z
loop_
_atom_site_label
_atom_site_type_symbol
_atom_site_fract_x
_atom_site_fract_y
_atom_site_fract_z
_atom_site_U_iso_or_equiv
_atom_site_occupancy
_atom_site_adp_type
_atom_site_refinement_flags_posn
_atom_site_refinement_flags_adp
Zn1 Zn 0.37414(9) 0.389780(16) 0.31948(9) 0.0550 1.0000 Uani . .
N1 N 0.3846(6) 0.43124(10) 0.3605(6) 0.0556 1.0000 Uani . .
N2 N 0.1851(5) 0.38729(10) 0.4324(5) 0.0547 1.0000 Uani . .
N3 N 0.3924(6) 0.34795(10) 0.3439(6) 0.0614 1.0000 Uani . .
N4 N 0.5891(6) 0.39191(11) 0.2640(5) 0.0573 1.0000 Uani . .
N5 N 0.2662(6) 0.39191(12) 0.1100(6) 0.0619 1.0000 Uani . .
C1 C 0.4895(7) 0.44860(13) 0.3171(7) 0.0568 1.0000 Uani . .
C2 C 0.4446(8) 0.47617(14) 0.3474(9) 0.0718 1.0000 Uani . .
C3 C 0.3161(8) 0.47481(14) 0.4083(9) 0.0730 1.0000 Uani . .
C4 C 0.2760(7) 0.44628(13) 0.4144(8) 0.0618 1.0000 Uani . .
C5 C 0.1461(7) 0.43611(14) 0.4653(8) 0.0674 1.0000 Uani . .
C6 C 0.1044(7) 0.40908(13) 0.4694(7) 0.0583 1.0000 Uani . .
C7 C -0.0385(8) 0.39982(15) 0.5103(8) 0.0702 1.0000 Uani . .
C8 C -0.0404(8) 0.37282(15) 0.4981(7) 0.0669 1.0000 Uani . .
C9 C 0.1012(8) 0.36443(13) 0.4505(7) 0.0605 1.0000 Uani . .
C10 C 0.1506(8) 0.33793(13) 0.4302(7) 0.0623 1.0000 Uani . .
C11 C 0.2862(8) 0.33039(13) 0.3859(8) 0.0645 1.0000 Uani . .
C12 C 0.3420(9) 0.30300(14) 0.3758(9) 0.0787 1.0000 Uani . .
C13 C 0.4758(9) 0.30442(14) 0.3272(9) 0.0803 1.0000 Uani . .
C14 C 0.5075(8) 0.33274(14) 0.3052(8) 0.0688 1.0000 Uani . .
C15 C 0.6341(8) 0.34289(15) 0.2492(9) 0.0738 1.0000 Uani . .
C16 C 0.6715(7) 0.37007(15) 0.2267(8) 0.0663 1.0000 Uani . .
C17 C 0.8017(8) 0.37958(17) 0.1652(9) 0.0793 1.0000 Uani . .
C18 C 0.7988(8) 0.40695(17) 0.1639(8) 0.0719 1.0000 Uani . .
C19 C 0.6630(7) 0.41472(15) 0.2274(7) 0.0611 1.0000 Uani . .
C20 C 0.6179(7) 0.44143(13) 0.2533(7) 0.0578 1.0000 Uani . .
C21 C 0.2344(14) 0.4149(2) 0.0449(11) 0.1228 1.0000 Uani . .
C22 C 0.157(2) 0.4157(3) -0.0817(15) 0.1763 1.0000 Uani . .
C23 C 0.1048(15) 0.3930(3) -0.1417(12) 0.1452 1.0000 Uani . .
C24 C 0.1309(15) 0.3698(3) -0.0751(12) 0.1396 1.0000 Uani . .
C25 C 0.2153(11) 0.3696(2) 0.0491(9) 0.0983 1.0000 Uani . .
C31 C 0.7150(7) 0.46408(14) 0.2102(8) 0.0620 1.0000 Uani . .
C32 C 0.8210(9) 0.47411(19) 0.3089(10) 0.0880 1.0000 Uani . .
C33 C 0.9098(10) 0.4954(2) 0.2722(13) 0.1037 1.0000 Uani . .
C34 C 0.8961(10) 0.5075(2) 0.1409(13) 0.0987 1.0000 Uani . .
C35 C 0.7915(9) 0.49790(19) 0.0426(11) 0.0933 1.0000 Uani . .
C36 C 0.7007(7) 0.47650(16) 0.0756(9) 0.0717 1.0000 Uani . U
C41 C 0.0431(8) 0.31529(14) 0.4566(8) 0.0697 1.0000 Uani . .
C42 C 0.0054(11) 0.30935(18) 0.5976(10) 0.0930 1.0000 Uani . .
C43 C -0.0945(13) 0.2893(2) 0.6241(12) 0.1083 1.0000 Uani . .
C44 C -0.1552(12) 0.2744(2) 0.5152(13) 0.1058 1.0000 Uani . .
C45 C -0.1202(10) 0.27940(17) 0.3764(11) 0.0897 1.0000 Uani . .
C46 C -0.0209(8) 0.29971(14) 0.3473(9) 0.0709 1.0000 Uani . U
S1 S 0.5671(2) 0.46459(5) -0.0493(2) 0.0841 1.0000 Uani . U
S2 S 0.0139(2) 0.30718(4) 0.1680(2) 0.0788 1.0000 Uani . U
O1 O 0.8019(8) 0.45231(18) -0.1914(9) 0.1240 1.0000 Uani . U
O2 O 0.1309(8) 0.25824(12) 0.1876(9) 0.1120 1.0000 Uani . U
C51 C 0.6705(10) 0.4506(2) -0.1889(10) 0.0937 1.0000 Uani D U
C52 C 0.5810(12) 0.4378(2) -0.3082(8) 0.1428 1.0000 Uani D U
C53 C 0.5101(10) 0.4120(2) -0.2547(13) 0.1734 1.0000 Uani D U
C54 C 0.6099(13) 0.3878(2) -0.279(2) 0.2176 1.0000 Uani D U
C55 C 0.5351(12) 0.3614(2) -0.230(3) 0.2498 1.0000 Uani D U
C56 C 0.6398(16) 0.3379(2) -0.238(2) 0.2756 1.0000 Uani D U
C57 C 0.5788(15) 0.3130(3) -0.1575(18) 0.2664 1.0000 Uani D U
C58 C 0.4222(12) 0.3081(3) -0.207(2) 0.2886 1.0000 Uani D U
C59 C 0.3840(13) 0.2783(3) -0.1854(13) 0.2110 1.0000 Uani D U
C60 C 0.3286(10) 0.2744(3) -0.0363(12) 0.2003 1.0000 Uani D U
C61 C 0.1663(10) 0.2810(3) -0.0368(10) 0.1372 1.0000 Uani D U
C62 C 0.1116(9) 0.27762(17) 0.1131(11) 0.0887 1.0000 Uani D U
H21 H 0.4958 0.4920 0.3279 0.0858 1.0000 Uiso R .
H31 H 0.2626 0.4896 0.4416 0.0879 1.0000 Uiso R .
H51 H 0.0806 0.4487 0.4995 0.0809 1.0000 Uiso R .
H71 H -0.1152 0.4107 0.5393 0.0839 1.0000 Uiso R .
H81 H -0.1189 0.3614 0.5176 0.0800 1.0000 Uiso R .
H121 H 0.2927 0.2874 0.3992 0.0951 1.0000 Uiso R .
H131 H 0.5392 0.2900 0.3106 0.0959 1.0000 Uiso R .
H151 H 0.7035 0.3301 0.2250 0.0869 1.0000 Uiso R .
H171 H 0.8764 0.3687 0.1319 0.0937 1.0000 Uiso R .
H181 H 0.8694 0.4187 0.1290 0.0869 1.0000 Uiso R .
H211 H 0.2651 0.4312 0.0864 0.1460 1.0000 Uiso R .
H221 H 0.1395 0.4322 -0.1272 0.1992 1.0000 Uiso R .
H231 H 0.0528 0.3934 -0.2286 0.1778 1.0000 Uiso R .
H241 H 0.0926 0.3536 -0.1126 0.1639 1.0000 Uiso R .
H251 H 0.2384 0.3528 0.0917 0.1161 1.0000 Uiso R .
H321 H 0.8306 0.4663 0.4000 0.1040 1.0000 Uiso R .
H331 H 0.9811 0.5014 0.3383 0.1209 1.0000 Uiso R .
H341 H 0.9546 0.5221 0.1177 0.1199 1.0000 Uiso R .
H351 H 0.7818 0.5059 -0.0475 0.1111 1.0000 Uiso R .
H421 H 0.0493 0.3191 0.6730 0.1109 1.0000 Uiso R .
H431 H -0.1216 0.2863 0.7178 0.1259 1.0000 Uiso R .
H441 H -0.2212 0.2607 0.5356 0.1270 1.0000 Uiso R .
H451 H -0.1622 0.2692 0.3021 0.1080 1.0000 Uiso R .
H521 H 0.5042 0.4501 -0.3378 0.1702 1.0000 Uiso R .
H522 H 0.6420 0.4337 -0.3877 0.1701 1.0000 Uiso R .
H531 H 0.4892 0.4138 -0.1529 0.2054 1.0000 Uiso R .
H532 H 0.4204 0.4088 -0.3122 0.2052 1.0000 Uiso R .
H541 H 0.6991 0.3908 -0.2239 0.2590 1.0000 Uiso R .
H542 H 0.6289 0.3863 -0.3794 0.2590 1.0000 Uiso R .
H551 H 0.5099 0.3630 -0.1305 0.2981 1.0000 Uiso R .
H552 H 0.4497 0.3578 -0.2909 0.2981 1.0000 Uiso R .
H561 H 0.7335 0.3435 -0.1968 0.3282 1.0000 Uiso R .
H562 H 0.6467 0.3337 -0.3383 0.3282 1.0000 Uiso R .
H571 H 0.5847 0.3162 -0.0560 0.3160 1.0000 Uiso R .
H572 H 0.6328 0.2969 -0.1806 0.3159 1.0000 Uiso R .
H581 H 0.3605 0.3191 -0.1478 0.3453 1.0000 Uiso R .
H582 H 0.4087 0.3129 -0.3083 0.3452 1.0000 Uiso R .
H591 H 0.4725 0.2676 -0.1963 0.2541 1.0000 Uiso R .
H592 H 0.3092 0.2729 -0.2560 0.2543 1.0000 Uiso R .
H601 H 0.3816 0.2862 0.0300 0.2421 1.0000 Uiso R .
H602 H 0.3402 0.2555 -0.0106 0.2421 1.0000 Uiso R .
H611 H 0.1522 0.2997 -0.0671 0.1662 1.0000 Uiso R .
H612 H 0.1138 0.2690 -0.1022 0.1662 1.0000 Uiso R .
loop_
_atom_site_aniso_label
_atom_site_aniso_U_11
_atom_site_aniso_U_22
_atom_site_aniso_U_33
_atom_site_aniso_U_23
_atom_site_aniso_U_13
_atom_site_aniso_U_12
Zn1 0.0591(5) 0.0476(4) 0.0576(5) -0.0021(4) -0.0064(3) 0.0057(4)
N1 0.058(3) 0.047(3) 0.062(3) -0.006(2) 0.000(2) 0.002(2)
N2 0.059(3) 0.049(3) 0.056(3) 0.003(2) -0.003(2) -0.001(2)
N3 0.067(3) 0.048(3) 0.068(3) 0.000(2) -0.013(3) 0.009(2)
N4 0.058(3) 0.055(3) 0.058(3) -0.010(2) -0.006(2) 0.009(2)
N5 0.066(3) 0.065(3) 0.054(3) 0.001(2) -0.005(2) -0.003(3)
C1 0.059(3) 0.053(3) 0.058(3) -0.003(3) -0.001(3) 0.003(3)
C2 0.073(4) 0.048(3) 0.095(5) -0.003(3) 0.009(4) -0.002(3)
C3 0.068(4) 0.052(4) 0.100(6) -0.008(4) 0.013(4) 0.003(3)
C4 0.064(4) 0.046(3) 0.076(4) -0.003(3) 0.008(3) 0.003(3)
C5 0.058(4) 0.055(4) 0.090(5) 0.000(3) 0.015(3) 0.007(3)
C6 0.059(3) 0.060(4) 0.056(3) 0.004(3) 0.003(3) 0.006(3)
C7 0.059(4) 0.069(4) 0.083(5) 0.007(4) 0.008(3) 0.002(3)
C8 0.069(4) 0.069(4) 0.062(4) 0.010(3) -0.003(3) -0.013(3)
C9 0.071(4) 0.054(3) 0.056(3) 0.006(3) -0.004(3) -0.003(3)
C10 0.076(4) 0.053(3) 0.057(4) 0.005(3) -0.011(3) -0.007(3)
C11 0.067(4) 0.053(3) 0.071(4) 0.001(3) -0.016(3) 0.000(3)
C12 0.084(5) 0.047(3) 0.103(6) 0.004(4) -0.025(4) 0.000(3)
C13 0.089(6) 0.050(4) 0.100(6) -0.010(4) -0.025(4) 0.017(4)
C14 0.069(4) 0.053(3) 0.083(5) -0.002(3) -0.019(4) 0.015(3)
C15 0.073(5) 0.061(4) 0.086(5) -0.013(4) -0.009(4) 0.022(3)
C16 0.060(4) 0.063(4) 0.076(4) -0.009(3) 0.000(3) 0.014(3)
C17 0.065(4) 0.087(5) 0.087(5) -0.014(4) 0.009(4) 0.019(4)
C18 0.062(4) 0.081(5) 0.072(4) -0.001(4) 0.004(3) 0.010(4)
C19 0.058(4) 0.069(4) 0.056(3) -0.008(3) -0.003(3) 0.008(3)
C20 0.059(3) 0.060(3) 0.053(3) -0.002(3) -0.008(3) -0.001(3)
C21 0.182(11) 0.076(6) 0.104(7) 0.017(5) -0.070(8) 0.003(6)
C22 0.28(2) 0.117(10) 0.124(10) 0.035(9) -0.094(12) 0.014(12)
C23 0.175(12) 0.176(14) 0.078(7) 0.022(8) -0.069(7) -0.015(11)
C24 0.168(12) 0.153(12) 0.093(8) 0.002(8) -0.059(8) -0.030(9)
C25 0.135(8) 0.091(6) 0.066(5) -0.008(4) -0.024(5) -0.013(6)
C31 0.048(3) 0.062(4) 0.076(4) -0.005(3) 0.003(3) 0.004(3)
C32 0.065(4) 0.099(6) 0.100(6) -0.013(5) -0.002(4) -0.016(4)
C33 0.070(5) 0.114(8) 0.127(9) -0.039(7) 0.008(5) -0.028(5)
C34 0.068(5) 0.086(6) 0.144(9) -0.012(6) 0.029(6) -0.020(4)
C35 0.069(5) 0.093(6) 0.119(7) 0.021(5) 0.020(5) -0.003(4)
C36 0.051(3) 0.073(4) 0.092(4) 0.005(3) 0.016(3) 0.001(3)
C41 0.077(4) 0.052(3) 0.079(5) 0.009(3) -0.007(4) -0.003(3)
C42 0.124(7) 0.078(5) 0.076(5) 0.010(4) -0.009(5) -0.024(5)
C43 0.135(9) 0.083(6) 0.107(8) 0.029(6) 0.013(6) -0.019(6)
C44 0.110(7) 0.082(6) 0.126(9) 0.012(6) 0.002(6) -0.033(5)
C45 0.094(6) 0.065(5) 0.109(7) 0.001(5) -0.016(5) -0.013(4)
C46 0.070(4) 0.051(3) 0.089(5) 0.003(3) -0.021(3) -0.004(3)
S1 0.0648(10) 0.1113(16) 0.0757(12) 0.0179(11) -0.0027(8) -0.0018(11)
S2 0.0913(13) 0.0585(9) 0.0845(13) 0.0004(9) -0.0226(10) 0.0029(9)
O1 0.093(3) 0.148(7) 0.133(6) -0.030(5) 0.028(4) -0.019(4)
O2 0.109(5) 0.066(3) 0.160(6) 0.004(3) -0.010(4) 0.016(3)
C51 0.090(3) 0.117(7) 0.074(4) 0.017(3) 0.006(3) -0.001(4)
C52 0.120(7) 0.228(9) 0.081(6) -0.016(6) 0.011(5) -0.038(7)
C53 0.164(12) 0.204(10) 0.153(11) -0.052(9) 0.026(10) -0.060(7)
C54 0.176(14) 0.261(11) 0.222(16) 0.076(15) 0.092(12) 0.007(11)
C55 0.192(17) 0.222(12) 0.34(2) 0.017(18) 0.041(17) -0.036(10)
C56 0.232(18) 0.255(13) 0.34(2) 0.060(19) 0.049(18) 0.005(12)
C57 0.205(15) 0.271(14) 0.33(2) 0.068(16) 0.089(16) 0.036(13)
C58 0.270(17) 0.275(18) 0.32(2) 0.044(17) 0.024(18) -0.035(17)
C59 0.220(13) 0.232(15) 0.186(12) 0.014(15) 0.063(11) 0.054(12)
C60 0.178(10) 0.256(16) 0.170(12) -0.011(12) 0.047(9) 0.061(13)
C61 0.169(8) 0.126(9) 0.116(6) -0.019(5) 0.008(6) 0.031(8)
C62 0.091(5) 0.064(3) 0.109(5) -0.014(3) -0.022(4) 0.000(3)
loop_
_atom_type_symbol
_atom_type_scat_dispersion_real
_atom_type_scat_dispersion_imag
_atom_type_scat_Cromer_Mann_a1
_atom_type_scat_Cromer_Mann_b1
_atom_type_scat_Cromer_Mann_a2
_atom_type_scat_Cromer_Mann_b2
_atom_type_scat_Cromer_Mann_a3
_atom_type_scat_Cromer_Mann_b3
_atom_type_scat_Cromer_Mann_a4
_atom_type_scat_Cromer_Mann_b4
_atom_type_scat_Cromer_Mann_c
_atom_type_scat_source
C 0.0181 0.0091 2.3100 20.8439 1.0200 10.2075 1.5886 0.5687 0.8650 51.6512
0.2156 'International Tables Vol C 4.2.6.8 and 6.1.1.4'
H 0.0000 0.0000 0.4930 10.5109 0.3229 26.1257 0.1402 3.1424 0.0408 57.7998
0.0030 'International Tables Vol C 4.2.6.8 and 6.1.1.4'
N 0.0311 0.0180 12.2126 0.0057 3.1322 9.8933 2.0125 28.9975 1.1663 0.5826
-11.5290 'International Tables Vol C 4.2.6.8 and 6.1.1.4'
O 0.0492 0.0322 3.0485 13.2771 2.2868 5.7011 1.5463 0.3239 0.8670 32.9089
0.2508 'International Tables Vol C 4.2.6.8 and 6.1.1.4'
S 0.3331 0.5567 6.9053 1.4679 5.2034 22.2151 1.4379 0.2536 1.5863 56.1720
0.8669 'International Tables Vol C 4.2.6.8 and 6.1.1.4'
Zn -1.5491 0.6778 14.0743 3.2655 7.0318 0.2333 5.1652 10.3163 2.4100 58.7097
1.3041 'International Tables Vol C 4.2.6.8 and 6.1.1.4'
loop_
_geom_angle_atom_site_label_1
_geom_angle_atom_site_label_2
_geom_angle_atom_site_label_3
_geom_angle
_geom_angle_publ_flag
N1 Zn1 N2 89.8(2) yes
N1 Zn1 N3 161.8(2) yes
N2 Zn1 N3 87.2(2) yes
N1 Zn1 N4 87.6(2) yes
N2 Zn1 N4 163.9(2) yes
N3 Zn1 N4 90.2(2) yes
N1 Zn1 N5 97.8(2) yes
N2 Zn1 N5 95.8(2) yes
N3 Zn1 N5 100.4(2) yes
N4 Zn1 N5 100.3(2) yes
Zn1 N1 C1 126.0(4) yes
Zn1 N1 C4 125.1(4) yes
C1 N1 C4 108.0(5) yes
Zn1 N2 C6 124.2(4) yes
Zn1 N2 C9 126.6(4) yes
C6 N2 C9 107.4(5) yes
Zn1 N3 C11 126.8(4) yes
Zn1 N3 C14 125.3(5) yes
C11 N3 C14 107.5(6) yes
Zn1 N4 C16 124.7(5) yes
Zn1 N4 C19 126.6(4) yes
C16 N4 C19 107.2(5) yes
Zn1 N5 C21 123.2(6) yes
Zn1 N5 C25 119.7(5) yes
C21 N5 C25 116.7(7) yes
N1 C1 C2 108.5(5) yes
N1 C1 C20 126.4(6) yes
C2 C1 C20 125.1(6) yes
C1 C2 C3 107.5(6) yes
C1 C2 H21 126.4 no
C3 C2 H21 126.1 no
C2 C3 C4 107.2(6) yes
C2 C3 H31 126.0 no
C4 C3 H31 126.8 no
C3 C4 N1 108.7(6) yes
C3 C4 C5 125.5(6) yes
N1 C4 C5 125.7(6) yes
C4 C5 C6 126.5(6) yes
C4 C5 H51 117.1 no
C6 C5 H51 116.4 no
C5 C6 N2 126.6(6) yes
C5 C6 C7 124.2(6) yes
N2 C6 C7 109.2(6) yes
C6 C7 C8 107.3(7) yes
C6 C7 H71 126.6 no
C8 C7 H71 126.0 no
C7 C8 C9 107.5(6) yes
C7 C8 H81 126.1 no
C9 C8 H81 126.4 no
C8 C9 N2 108.6(6) yes
C8 C9 C10 127.4(6) yes
N2 C9 C10 124.0(6) yes
C9 C10 C11 126.5(6) yes
C9 C10 C41 116.5(6) yes
C11 C10 C41 117.0(6) yes
C10 C11 N3 125.3(6) yes
C10 C11 C12 126.7(7) yes
N3 C11 C12 108.0(6) yes
C11 C12 C13 108.0(7) yes
C11 C12 H121 125.5 no
C13 C12 H121 126.5 no
C12 C13 C14 107.2(7) yes
C12 C13 H131 127.5 no
C14 C13 H131 125.3 no
C13 C14 N3 109.3(7) yes
C13 C14 C15 125.4(7) yes
N3 C14 C15 125.2(6) yes
C14 C15 C16 128.0(7) yes
C14 C15 H151 116.3 no
C16 C15 H151 115.7 no
C15 C16 N4 124.8(7) yes
C15 C16 C17 126.1(7) yes
N4 C16 C17 109.1(6) yes
C16 C17 C18 108.4(7) yes
C16 C17 H171 125.9 no
C18 C17 H171 125.8 no
C17 C18 C19 106.0(7) yes
C17 C18 H181 127.3 no
C19 C18 H181 126.7 no
C18 C19 N4 109.3(6) yes
C18 C19 C20 125.5(7) yes
N4 C19 C20 125.1(6) yes
C19 C20 C1 125.0(6) yes
C19 C20 C31 118.0(6) yes
C1 C20 C31 117.0(6) yes
N5 C21 C22 121.8(11) yes
N5 C21 H211 119.3 no
C22 C21 H211 118.9 no
C21 C22 C23 120.9(12) yes
C21 C22 H221 119.9 no
C23 C22 H221 119.2 no
C22 C23 C24 118.1(10) yes
C22 C23 H231 121.0 no
C24 C23 H231 120.9 no
C23 C24 C25 119.6(12) yes
C23 C24 H241 120.2 no
C25 C24 H241 120.2 no
C24 C25 N5 122.8(10) yes
C24 C25 H251 118.4 no
N5 C25 H251 118.8 no
C20 C31 C32 119.4(7) yes
C20 C31 C36 122.2(6) yes
C32 C31 C36 118.4(7) yes
C31 C32 C33 120.3(9) yes
C31 C32 H321 119.4 no
C33 C32 H321 120.3 no
C32 C33 C34 121.4(9) yes
C32 C33 H331 118.9 no
C34 C33 H331 119.7 no
C33 C34 C35 118.9(8) yes
C33 C34 H341 121.0 no
C35 C34 H341 120.1 no
C34 C35 C36 121.3(9) yes
C34 C35 H351 119.7 no
C36 C35 H351 119.0 no
C31 C36 C35 119.7(8) yes
C31 C36 S1 119.3(5) yes
C35 C36 S1 121.0(7) yes
C10 C41 C42 119.4(7) yes
C10 C41 C46 123.0(7) yes
C42 C41 C46 117.6(7) yes
C41 C42 C43 120.6(9) yes
C41 C42 H421 119.2 no
C43 C42 H421 120.2 no
C42 C43 C44 120.5(10) yes
C42 C43 H431 119.2 no
C44 C43 H431 120.3 no
C43 C44 C45 120.7(9) yes
C43 C44 H441 119.2 no
C45 C44 H441 120.1 no
C44 C45 C46 119.7(9) yes
C44 C45 H451 120.3 no
C46 C45 H451 120.0 no
C41 C46 C45 121.0(8) yes
C41 C46 S2 120.0(6) yes
C45 C46 S2 118.9(6) yes
C36 S1 C51 103.7(4) yes
C46 S2 C62 102.5(4) yes
S1 C51 O1 123.2(8) yes
S1 C51 C52 114.5(7) yes
O1 C51 C52 122.2(9) yes
C51 C52 C53 109.56(10) yes
C51 C52 H521 108.9 no
C53 C52 H521 107.6 no
C51 C52 H522 109.9 no
C53 C52 H522 110.3 no
H521 C52 H522 110.5 no
C52 C53 C54 109.53(10) yes
C52 C53 H531 110.2 no
C54 C53 H531 110.9 no
C52 C53 H532 108.3 no
C54 C53 H532 107.0 no
H531 C53 H532 110.7 no
C53 C54 C55 109.48(10) yes
C53 C54 H541 107.7 no
C55 C54 H541 110.5 no
C53 C54 H542 109.8 no
C55 C54 H542 108.9 no
H541 C54 H542 110.5 no
C54 C55 C56 109.52(10) yes
C54 C55 H551 109.9 no
C56 C55 H551 106.8 no
C54 C55 H552 109.7 no
C56 C55 H552 109.7 no
H551 C55 H552 111.2 no
C55 C56 C57 109.53(10) yes
C55 C56 H561 108.9 no
C57 C56 H561 111.2 no
C55 C56 H562 106.4 no
C57 C56 H562 109.8 no
H561 C56 H562 110.9 no
C56 C57 C58 109.50(10) yes
C56 C57 H571 110.1 no
C58 C57 H571 110.2 no
C56 C57 H572 110.0 no
C58 C57 H572 106.8 no
H571 C57 H572 110.2 no
C57 C58 C59 109.52(10) yes
C57 C58 H581 107.6 no
C59 C58 H581 108.2 no
C57 C58 H582 109.9 no
C59 C58 H582 110.2 no
H581 C58 H582 111.3 no
C58 C59 C60 109.51(10) yes
C58 C59 H591 107.7 no
C60 C59 H591 109.9 no
C58 C59 H592 109.3 no
C60 C59 H592 109.7 no
H591 C59 H592 110.7 no
C59 C60 C61 109.54(10) yes
C59 C60 H601 109.6 no
C61 C60 H601 109.9 no
C59 C60 H602 108.2 no
C61 C60 H602 107.7 no
H601 C60 H602 111.8 no
C60 C61 C62 109.49(10) yes
C60 C61 H611 108.8 no
C62 C61 H611 109.2 no
C60 C61 H612 109.5 no
C62 C61 H612 110.0 no
H611 C61 H612 109.9 no
C61 C62 S2 111.3(7) yes
C61 C62 O2 125.6(9) yes
S2 C62 O2 123.0(9) yes
loop_
_geom_bond_atom_site_label_1
_geom_bond_atom_site_label_2
_geom_bond_distance
_geom_bond_publ_flag
Zn1 N1 2.075(5) yes
Zn1 N2 2.072(5) yes
Zn1 N3 2.075(5) yes
Zn1 N4 2.064(5) yes
Zn1 N5 2.162(5) yes
N1 C1 1.361(8) yes
N1 C4 1.355(8) yes
N2 C6 1.356(8) yes
N2 C9 1.377(8) yes
N3 C11 1.372(9) yes
N3 C14 1.356(9) yes
N4 C16 1.367(8) yes
N4 C19 1.362(9) yes
N5 C21 1.313(10) yes
N5 C25 1.312(10) yes
C1 C2 1.448(9) yes
C1 C20 1.389(9) yes
C2 C3 1.332(10) yes
C2 H21 0.931 no
C3 C4 1.452(9) yes
C3 H31 0.938 no
C4 C5 1.395(9) yes
C5 C6 1.384(9) yes
C5 H51 0.928 no
C6 C7 1.455(9) yes
C7 C8 1.332(10) yes
C7 H71 0.933 no
C8 C9 1.452(10) yes
C8 H81 0.938 no
C9 C10 1.395(9) yes
C10 C11 1.379(10) yes
C10 C41 1.515(9) yes
C11 C12 1.445(9) yes
C12 C13 1.329(12) yes
C12 H121 0.921 no
C13 C14 1.438(10) yes
C13 H131 0.934 no
C14 C15 1.387(11) yes
C15 C16 1.398(10) yes
C15 H151 0.929 no
C16 C17 1.426(11) yes
C17 C18 1.346(11) yes
C17 H171 0.934 no
C18 C19 1.454(9) yes
C18 H181 0.937 no
C19 C20 1.400(9) yes
C20 C31 1.492(9) yes
C21 C22 1.356(14) yes
C21 H211 0.925 no
C22 C23 1.330(18) yes
C22 H221 0.929 no
C23 C24 1.315(17) yes
C23 H231 0.926 no
C24 C25 1.370(12) yes
C24 H241 0.934 no
C25 H251 0.939 no
C31 C32 1.403(10) yes
C31 C36 1.401(10) yes
C32 C33 1.378(13) yes
C32 H321 0.935 no
C33 C34 1.367(15) yes
C33 H331 0.930 no
C34 C35 1.385(14) yes
C34 H341 0.926 no
C35 C36 1.385(11) yes
C35 H351 0.930 no
C36 S1 1.759(8) yes
C41 C42 1.407(11) yes
C41 C46 1.388(10) yes
C42 C43 1.377(12) yes
C42 H421 0.931 no
C43 C44 1.355(14) yes
C43 H431 0.932 no
C44 C45 1.372(13) yes
C44 H441 0.932 no
C45 C46 1.387(11) yes
C45 H451 0.929 no
C46 S2 1.758(9) yes
S1 C51 1.784(10) yes
S2 C62 1.793(9) yes
O1 C51 1.211(11) yes
O2 C62 1.190(11) yes
C51 C52 1.497(13) yes
C52 C53 1.521(8) yes
C52 H521 0.963 no
C52 H522 0.971 no
C53 C54 1.524(9) yes
C53 H531 0.983 no
C53 H532 0.977 no
C54 C55 1.547(9) yes
C54 H541 0.962 no
C54 H542 0.965 no
C55 C56 1.504(9) yes
C55 H551 0.971 no
C55 H552 0.967 no
C56 C57 1.554(9) yes
C56 H561 0.968 no
C56 H562 0.965 no
C57 C58 1.514(9) yes
C57 H571 0.961 no
C57 H572 0.966 no
C58 C59 1.523(9) yes
C58 H581 0.975 no
C58 H582 0.976 no
C59 C60 1.515(8) yes
C59 H591 0.976 no
C59 H592 0.970 no
C60 C61 1.526(8) yes
C60 H601 0.967 no
C60 H602 0.966 no
C61 C62 1.518(14) yes
C61 H611 0.970 no
C61 H612 0.966 no
loop_
_geom_hbond_atom_site_label_D
_geom_hbond_atom_site_label_H
_geom_hbond_atom_site_label_A
_geom_hbond_site_symmetry_A
_geom_hbond_angle_DHA
_geom_hbond_distance_DH
_geom_hbond_distance_HA
_geom_hbond_distance_DA
_geom_hbond_publ_flag
C23 H231 C7 1_554 167 0.93 2.57 3.477(14) yes
C45 H451 O2 3_455 152 0.93 2.53 3.382(14) yes
loop_
_oxford_refln_omitted_index_h
_oxford_refln_omitted_index_k
_oxford_refln_omitted_index_l
_oxford_refln_omitted_flag
1 4 2 x
0 12 1 x
1 10 0 x
