#------------------------------------------------------------------------------
#$Date: 2017-07-09 05:09:38 +0300 (Sun, 09 Jul 2017) $
#$Revision: 198584 $
#$URL: file:///home/coder/svn-repositories/cod/cif/4/03/26/4032623.cif $
#------------------------------------------------------------------------------
#
# This file is available in the Crystallography Open Database (COD),
# http://www.crystallography.net/
#
# All data on this site have been placed in the public domain by the
# contributors.
#
data_4032623
loop_
_publ_author_name
'Roche, C\'ecile'
'Luo, Qianfu'
'Gil-Ram\'irez, Guzm\'an'
'Jiang, Hua-Wei'
'Kohn, Daniel R.'
'Xiong, Yaoyao'
'Thompson, Amber L.'
'Anderson, Harry L.'
_publ_section_title
;
 Unexpected Interactions between Alkyl Straps and Pyridine Ligands in
 Sulfur-Strapped Porphyrin Nanorings.
;
_journal_name_full               'The Journal of organic chemistry'
_journal_paper_doi               10.1021/acs.joc.7b01128
_journal_year                    2017
_chemical_formula_moiety         'C46 H35 Br2 N5 O2 S2 Zn1'
_chemical_formula_sum            'C46 H35 Br2 N5 O2 S2 Zn'
_chemical_formula_weight         979.14
_chemical_melting_point          ?
_space_group_IT_number           2
_symmetry_cell_setting           triclinic
_symmetry_space_group_name_Hall  '-P 1'
_symmetry_space_group_name_H-M   'P -1'
_atom_sites_solution_hydrogens   difmap
_atom_sites_solution_primary     other
_audit_creation_date             2017-01-25
_audit_creation_method           CRYSTALS_ver_14.61_build_6019
_cell_angle_alpha                84.6169(18)
_cell_angle_beta                 83.5040(18)
_cell_angle_gamma                81.8061(18)
_cell_formula_units_Z            2
_cell_length_a                   8.6098(2)
_cell_length_b                   14.9172(3)
_cell_length_c                   16.4216(4)
_cell_measurement_reflns_used    23386
_cell_measurement_temperature    150
_cell_measurement_theta_max      76
_cell_measurement_theta_min      3
_cell_volume                     2067.68(8)
_computing_cell_refinement       'CrysAlisPro, (Agilent, 2011)'
_computing_data_collection       'SuperNova, (Oxford Diffraction, 2010)'
_computing_data_reduction        'CrysAlisPro, (Agilent, 2011)'
_computing_molecular_graphics    'CAMERON (Watkin et al., 1996)'
_computing_publication_material  'CRYSTALS (Betteridge et al., 2003)'
_computing_structure_refinement  'CRYSTALS (Betteridge et al., 2003)'
_computing_structure_solution    'Superflip (Palatinus & Chapuis, 2007)'
_diffrn_ambient_temperature      150
_diffrn_measured_fraction_theta_full 0.997
_diffrn_measured_fraction_theta_max 0.993
_diffrn_measurement_device       Area
_diffrn_measurement_device_type  'Oxford Diffraction SuperNova'
_diffrn_measurement_method       \w
_diffrn_radiation_monochromator  graphite
_diffrn_radiation_type           'Cu K\a'
_diffrn_radiation_wavelength     1.54180
_diffrn_reflns_av_R_equivalents  0.031
_diffrn_reflns_limit_h_max       10
_diffrn_reflns_limit_h_min       -10
_diffrn_reflns_limit_k_max       18
_diffrn_reflns_limit_k_min       -18
_diffrn_reflns_limit_l_max       20
_diffrn_reflns_limit_l_min       -20
_diffrn_reflns_number            47763
_diffrn_reflns_theta_full        74.830
_diffrn_reflns_theta_max         76.357
_diffrn_reflns_theta_min         3.002
_diffrn_standards_number         0
_exptl_absorpt_coefficient_mu    4.397
_exptl_absorpt_correction_T_max  0.92
_exptl_absorpt_correction_T_min  0.55
_exptl_absorpt_correction_type   multi-scan
_exptl_absorpt_process_details   'CrysAlisPro, (Agilent, 2011)'
_exptl_crystal_colour            clear_intense_red
_exptl_crystal_density_diffrn    1.573
_exptl_crystal_density_meas      ?
_exptl_crystal_density_method    'not measured'
_exptl_crystal_description       plate
_exptl_crystal_F_000             988
_exptl_crystal_size_max          0.18
_exptl_crystal_size_mid          0.08
_exptl_crystal_size_min          0.02
_refine_diff_density_max         0.89
_refine_diff_density_min         -0.55
_refine_ls_extinction_method     None
_refine_ls_goodness_of_fit_ref   0.9997
_refine_ls_hydrogen_treatment    constr
_refine_ls_matrix_type           full
_refine_ls_number_parameters     523
_refine_ls_number_reflns         8608
_refine_ls_number_restraints     0
_refine_ls_R_factor_all          0.0295
_refine_ls_R_factor_gt           0.0269
_refine_ls_shift/su_max          0.0016521
_refine_ls_shift/su_mean         0.0000624
_refine_ls_structure_factor_coef Fsqd
_refine_ls_weighting_details
;
 Method= Modified Sheldrick 
 w=1/[\s^2^(F^2^) + ( 0.04P)^2^ + 1.76P] 
 ,where P=(max(Fo^2^,0) + 2Fc^2^)/3 
;
_refine_ls_weighting_scheme      calc
_refine_ls_wR_factor_all         0.0713
_refine_ls_wR_factor_gt          0.0693
_refine_ls_wR_factor_ref         0.0713
_reflns_limit_h_max              10
_reflns_limit_h_min              -10
_reflns_limit_k_max              18
_reflns_limit_k_min              -18
_reflns_limit_l_max              20
_reflns_limit_l_min              0
_reflns_number_gt                7953
_reflns_number_total             8608
_reflns_threshold_expression     I>2.0\s(I)
_oxford_diffrn_Wilson_B_factor   2.11
_oxford_diffrn_Wilson_scale      0.11
_oxford_refine_ls_r_factor_ref   0.0295
_oxford_refine_ls_scale          2.705(13)
_oxford_reflns_number_all        8608
_oxford_reflns_threshold_expression_ref I>-3.0\s(I)
_oxford_structure_analysis_title 6545
_iucr_refine_instructions_details
;
#
# Punched on 25/01/17 at 12:33:04
#
#LIST     12                                                                    
BLOCK SCALE X'S  U'S 
RIDE C   (   2,X'S) H   (  21,X'S) 
RIDE C   (   3,X'S) H   (  31,X'S) 
RIDE C   (   7,X'S) H   (  71,X'S) 
RIDE C   (   8,X'S) H   (  81,X'S) 
RIDE C   (  12,X'S) H   ( 121,X'S) 
RIDE C   (  13,X'S) H   ( 131,X'S) 
RIDE C   (  17,X'S) H   ( 171,X'S) 
RIDE C   (  18,X'S) H   ( 181,X'S) 
RIDE C   (  21,X'S) H   ( 211,X'S) 
RIDE C   (  22,X'S) H   ( 221,X'S) 
RIDE C   (  23,X'S) H   ( 231,X'S) 
RIDE C   (  24,X'S) H   ( 241,X'S) 
RIDE C   (  25,X'S) H   ( 251,X'S) 
RIDE C   (  32,X'S) H   ( 321,X'S) 
RIDE C   (  33,X'S) H   ( 331,X'S) 
RIDE C   (  34,X'S) H   ( 341,X'S) 
RIDE C   (  35,X'S) H   ( 351,X'S) 
RIDE C   (  42,X'S) H   ( 421,X'S) 
RIDE C   (  43,X'S) H   ( 431,X'S) 
RIDE C   (  44,X'S) H   ( 441,X'S) 
RIDE C   (  45,X'S) H   ( 451,X'S) 
RIDE C   (  52,X'S) H   ( 521,X'S) H   ( 522,X'S) 
RIDE C   (  53,X'S) H   ( 531,X'S) H   ( 532,X'S) 
RIDE C   (  54,X'S) H   ( 541,X'S) H   ( 542,X'S) 
RIDE C   (  55,X'S) H   ( 551,X'S) H   ( 552,X'S) 
RIDE C   (  56,X'S) H   ( 561,X'S) H   ( 562,X'S) 
RIDE C   (  57,X'S) H   ( 571,X'S) H   ( 572,X'S) 
RIDE C   (  58,X'S) H   ( 581,X'S) H   ( 582,X'S) 
END                                                                             
#
# Punched on 25/01/17 at 12:33:04
#
#LIST     16                                                                    
NO 
REM   HREST   START (DO NOT REMOVE THIS LINE) 
REM   HREST   END (DO NOT REMOVE THIS LINE) 
END                                                                             
;
_cod_data_source_file            jo7b01128_si_002.cif
_cod_data_source_block           7a
_cod_depositor_comments
;
The following automatic conversions were performed:

'_chemical_melting_point' value 'not measured' was changed to '?' -
the value is undefined or not given.

'_atom_sites_solution_primary' value 'Other' changed to 'other'
according to
/home/data/users/saulius/crontab/automatic-downloads/rss-feeds/ACS/lib/dictionaries/cif_core.dic
dictionary named 'cif_core.dic' version 2.4.2 from 2011-04-26.

'_exptl_crystal_density_meas' value 'not measured' was changed to '?'
- the value is perceived as not measured.

Automatic conversion script
Id: cif_fix_values 4973 2017-02-22 13:04:09Z antanas 
;
_cod_original_sg_symbol_H-M      'P -1 '
_cod_original_formula_sum        'C46 H35 Br2 N5 O2 S2 Zn1'
_cod_database_code               4032623
loop_
_symmetry_equiv_pos_as_xyz
x,y,z
-x,-y,-z
loop_
_atom_site_label
_atom_site_type_symbol
_atom_site_fract_x
_atom_site_fract_y
_atom_site_fract_z
_atom_site_U_iso_or_equiv
_atom_site_occupancy
_atom_site_adp_type
_atom_site_refinement_flags_posn
Zn1 Zn 0.96007(2) 0.734945(14) 0.305108(13) 0.0182 1.0000 Uani .
N1 N 0.84061(17) 0.79742(10) 0.40606(9) 0.0213 1.0000 Uani .
N2 N 0.89546(17) 0.61269(10) 0.35952(9) 0.0202 1.0000 Uani .
N3 N 1.00521(17) 0.67722(10) 0.19409(9) 0.0214 1.0000 Uani .
N4 N 0.95363(17) 0.86107(10) 0.24108(9) 0.0221 1.0000 Uani .
N5 N 1.19540(17) 0.72490(10) 0.33531(9) 0.0227 1.0000 Uani .
C1 C 0.8098(2) 0.88924(12) 0.41455(12) 0.0243 1.0000 Uani .
C2 C 0.7422(2) 0.90473(13) 0.49701(13) 0.0307 1.0000 Uani .
C3 C 0.7349(2) 0.82261(13) 0.53842(12) 0.0302 1.0000 Uani .
C4 C 0.7938(2) 0.75534(12) 0.48105(11) 0.0231 1.0000 Uani .
C5 C 0.7967(2) 0.66105(12) 0.49560(11) 0.0236 1.0000 Uani .
C6 C 0.8409(2) 0.59434(12) 0.44015(11) 0.0221 1.0000 Uani .
C7 C 0.8311(2) 0.49812(12) 0.45611(12) 0.0280 1.0000 Uani .
C8 C 0.8794(2) 0.45997(12) 0.38494(12) 0.0279 1.0000 Uani .
C9 C 0.9180(2) 0.53149(12) 0.32419(11) 0.0225 1.0000 Uani .
C10 C 0.9684(2) 0.51929(12) 0.24120(11) 0.0239 1.0000 Uani .
C11 C 1.0061(2) 0.58774(12) 0.18089(11) 0.0235 1.0000 Uani .
C12 C 1.0551(2) 0.57368(13) 0.09544(12) 0.0291 1.0000 Uani .
C13 C 1.0867(2) 0.65418(13) 0.05807(12) 0.0289 1.0000 Uani .
C14 C 1.0553(2) 0.71903(12) 0.11973(11) 0.0232 1.0000 Uani .
C15 C 1.0691(2) 0.81165(12) 0.10761(11) 0.0235 1.0000 Uani .
C16 C 1.0214(2) 0.87854(12) 0.16270(11) 0.0233 1.0000 Uani .
C17 C 1.0267(2) 0.97495(13) 0.14599(13) 0.0297 1.0000 Uani .
C18 C 0.9585(2) 1.01471(13) 0.21400(13) 0.0311 1.0000 Uani .
C19 C 0.9136(2) 0.94361(12) 0.27363(12) 0.0245 1.0000 Uani .
C20 C 0.8417(2) 0.95747(12) 0.35298(12) 0.0253 1.0000 Uani .
C21 C 1.2622(3) 0.79901(14) 0.34140(16) 0.0384 1.0000 Uani .
C22 C 1.4197(3) 0.79539(17) 0.35314(18) 0.0473 1.0000 Uani .
C23 C 1.5101(2) 0.71227(18) 0.35872(15) 0.0422 1.0000 Uani .
C24 C 1.4424(3) 0.63494(16) 0.35382(15) 0.0391 1.0000 Uani .
C25 C 1.2844(2) 0.64424(13) 0.34166(12) 0.0285 1.0000 Uani .
C31 C 0.7956(2) 1.05457(12) 0.37226(12) 0.0274 1.0000 Uani .
C32 C 0.8912(3) 1.09809(15) 0.41384(15) 0.0384 1.0000 Uani .
C33 C 0.8525(3) 1.18930(16) 0.42814(17) 0.0446 1.0000 Uani .
C34 C 0.7188(3) 1.23867(14) 0.39948(16) 0.0401 1.0000 Uani .
C35 C 0.6226(2) 1.19694(13) 0.35766(15) 0.0352 1.0000 Uani .
C36 C 0.6582(2) 1.10470(13) 0.34569(12) 0.0276 1.0000 Uani .
C41 C 0.9877(2) 0.42475(12) 0.21396(11) 0.0267 1.0000 Uani .
C42 C 1.1396(3) 0.37985(13) 0.19636(13) 0.0323 1.0000 Uani .
C43 C 1.1646(3) 0.29352(14) 0.16833(14) 0.0383 1.0000 Uani .
C44 C 1.0364(3) 0.25099(14) 0.15800(14) 0.0407 1.0000 Uani .
C45 C 0.8848(3) 0.29339(14) 0.17586(13) 0.0374 1.0000 Uani .
C46 C 0.8596(3) 0.38055(13) 0.20321(12) 0.0301 1.0000 Uani .
Br1 Br 0.71572(3) 0.619192(14) 0.603369(12) 0.0363 1.0000 Uani .
Br2 Br 1.15661(3) 0.851798(14) 0.000880(12) 0.0314 1.0000 Uani .
S1 S 0.52163(6) 1.04816(3) 0.30362(3) 0.0304 1.0000 Uani .
S2 S 0.66335(6) 0.43577(4) 0.22181(3) 0.0349 1.0000 Uani .
O1 O 0.6236(2) 1.14030(13) 0.16695(11) 0.0532 1.0000 Uani .
O2 O 0.7272(3) 0.48139(13) 0.06335(10) 0.0563 1.0000 Uani .
C51 C 0.5474(3) 1.08200(15) 0.19592(14) 0.0364 1.0000 Uani .
C52 C 0.4716(3) 1.02219(19) 0.14778(17) 0.0498 1.0000 Uani .
C53 C 0.5993(3) 0.94080(19) 0.12251(18) 0.0520 1.0000 Uani .
C54 C 0.5297(3) 0.86259(19) 0.09543(18) 0.0506 1.0000 Uani .
C55 C 0.6529(3) 0.78636(19) 0.07028(18) 0.0504 1.0000 Uani .
C56 C 0.5927(3) 0.69740(19) 0.05344(17) 0.0520 1.0000 Uani .
C57 C 0.5089(3) 0.65424(19) 0.12969(18) 0.0514 1.0000 Uani .
C58 C 0.4806(3) 0.55620(17) 0.12211(16) 0.0449 1.0000 Uani .
C59 C 0.6323(3) 0.49228(15) 0.12187(14) 0.0390 1.0000 Uani .
H21 H 0.7087 0.9623 0.5175 0.0370 1.0000 Uiso R
H31 H 0.6995 0.8113 0.5932 0.0364 1.0000 Uiso R
H71 H 0.7971 0.4692 0.5071 0.0341 1.0000 Uiso R
H81 H 0.8880 0.3976 0.3748 0.0327 1.0000 Uiso R
H121 H 1.0625 0.5183 0.0720 0.0352 1.0000 Uiso R
H131 H 1.1199 0.6659 0.0034 0.0352 1.0000 Uiso R
H171 H 1.0691 1.0037 0.0977 0.0359 1.0000 Uiso R
H181 H 0.9435 1.0763 0.2223 0.0370 1.0000 Uiso R
H211 H 1.1974 0.8552 0.3378 0.0469 1.0000 Uiso R
H221 H 1.4640 0.8479 0.3580 0.0574 1.0000 Uiso R
H231 H 1.6160 0.7082 0.3652 0.0511 1.0000 Uiso R
H241 H 1.4984 0.5780 0.3580 0.0470 1.0000 Uiso R
H251 H 1.2346 0.5937 0.3367 0.0336 1.0000 Uiso R
H321 H 0.9835 1.0657 0.4320 0.0457 1.0000 Uiso R
H331 H 0.9180 1.2171 0.4566 0.0531 1.0000 Uiso R
H341 H 0.6916 1.2999 0.4079 0.0484 1.0000 Uiso R
H351 H 0.5325 1.2296 0.3377 0.0412 1.0000 Uiso R
H421 H 1.2265 0.4078 0.2039 0.0378 1.0000 Uiso R
H431 H 1.2684 0.2629 0.1567 0.0458 1.0000 Uiso R
H441 H 1.0533 0.1937 0.1378 0.0492 1.0000 Uiso R
H451 H 0.7986 0.2642 0.1703 0.0447 1.0000 Uiso R
H521 H 0.4304 1.0575 0.1022 0.0596 1.0000 Uiso R
H522 H 0.3855 0.9989 0.1834 0.0597 1.0000 Uiso R
H531 H 0.6722 0.9658 0.0759 0.0633 1.0000 Uiso R
H532 H 0.6589 0.9148 0.1719 0.0634 1.0000 Uiso R
H541 H 0.4647 0.8879 0.0487 0.0620 1.0000 Uiso R
H542 H 0.4604 0.8407 0.1435 0.0607 1.0000 Uiso R
H551 H 0.7175 0.8084 0.0203 0.0601 1.0000 Uiso R
H552 H 0.7180 0.7705 0.1161 0.0604 1.0000 Uiso R
H561 H 0.6831 0.6521 0.0327 0.0636 1.0000 Uiso R
H562 H 0.5154 0.7079 0.0102 0.0638 1.0000 Uiso R
H571 H 0.5814 0.6577 0.1740 0.0625 1.0000 Uiso R
H572 H 0.4052 0.6934 0.1426 0.0623 1.0000 Uiso R
H581 H 0.4105 0.5388 0.1703 0.0541 1.0000 Uiso R
H582 H 0.4335 0.5521 0.0731 0.0540 1.0000 Uiso R
loop_
_atom_site_aniso_label
_atom_site_aniso_U_11
_atom_site_aniso_U_22
_atom_site_aniso_U_33
_atom_site_aniso_U_23
_atom_site_aniso_U_13
_atom_site_aniso_U_12
Zn1 0.01817(11) 0.01640(11) 0.02002(11) -0.00031(8) -0.00258(8) -0.00226(8)
N1 0.0206(7) 0.0194(7) 0.0232(7) -0.0020(5) -0.0014(5) -0.0010(5)
N2 0.0217(7) 0.0183(7) 0.0206(7) -0.0006(5) -0.0017(5) -0.0033(5)
N3 0.0249(7) 0.0188(7) 0.0208(7) 0.0000(5) -0.0026(5) -0.0043(5)
N4 0.0233(7) 0.0177(7) 0.0244(7) 0.0008(5) -0.0029(6) -0.0009(5)
N5 0.0193(7) 0.0234(7) 0.0255(7) -0.0013(6) -0.0041(6) -0.0023(5)
C1 0.0232(8) 0.0203(8) 0.0292(9) -0.0046(7) -0.0022(7) -0.0010(6)
C2 0.0335(10) 0.0250(9) 0.0325(10) -0.0082(8) 0.0028(8) -0.0015(7)
C3 0.0349(10) 0.0274(9) 0.0265(9) -0.0050(7) 0.0048(8) -0.0021(8)
C4 0.0219(8) 0.0245(9) 0.0220(8) -0.0021(7) -0.0010(6) -0.0009(6)
C5 0.0229(8) 0.0247(9) 0.0209(8) 0.0023(7) -0.0004(6) 0.0001(7)
C6 0.0214(8) 0.0210(8) 0.0228(8) 0.0022(6) -0.0022(6) -0.0016(6)
C7 0.0343(10) 0.0215(9) 0.0261(9) 0.0035(7) 0.0012(7) -0.0034(7)
C8 0.0346(10) 0.0192(8) 0.0292(9) 0.0009(7) -0.0013(7) -0.0048(7)
C9 0.0240(8) 0.0178(8) 0.0259(9) -0.0004(6) -0.0030(7) -0.0041(6)
C10 0.0278(9) 0.0199(8) 0.0249(9) -0.0025(7) -0.0033(7) -0.0055(7)
C11 0.0271(8) 0.0211(8) 0.0231(8) -0.0033(7) -0.0029(7) -0.0050(7)
C12 0.0387(10) 0.0256(9) 0.0233(9) -0.0051(7) -0.0018(7) -0.0043(8)
C13 0.0379(10) 0.0276(9) 0.0205(8) -0.0012(7) -0.0011(7) -0.0037(8)
C14 0.0248(8) 0.0242(9) 0.0202(8) 0.0005(7) -0.0027(6) -0.0028(7)
C15 0.0238(8) 0.0252(9) 0.0206(8) 0.0046(7) -0.0031(6) -0.0038(7)
C16 0.0232(8) 0.0206(8) 0.0255(9) 0.0047(7) -0.0051(7) -0.0025(6)
C17 0.0341(10) 0.0208(9) 0.0324(10) 0.0057(7) -0.0007(8) -0.0041(7)
C18 0.0363(10) 0.0179(8) 0.0376(11) 0.0023(7) -0.0009(8) -0.0030(7)
C19 0.0246(8) 0.0171(8) 0.0313(9) 0.0003(7) -0.0049(7) -0.0009(6)
C20 0.0240(8) 0.0195(8) 0.0323(10) -0.0025(7) -0.0043(7) -0.0011(6)
C21 0.0308(10) 0.0253(10) 0.0620(15) -0.0056(9) -0.0166(10) -0.0032(8)
C22 0.0370(12) 0.0407(12) 0.0703(17) 0.0010(11) -0.0230(11) -0.0159(10)
C23 0.0224(9) 0.0563(14) 0.0488(13) 0.0023(11) -0.0125(9) -0.0057(9)
C24 0.0287(10) 0.0402(12) 0.0458(12) 0.0009(9) -0.0112(9) 0.0076(8)
C25 0.0272(9) 0.0242(9) 0.0335(10) 0.0007(7) -0.0062(7) -0.0008(7)
C31 0.0316(9) 0.0195(8) 0.0305(9) -0.0025(7) 0.0003(7) -0.0035(7)
C32 0.0400(11) 0.0276(10) 0.0494(13) -0.0064(9) -0.0113(10) -0.0037(8)
C33 0.0498(13) 0.0315(11) 0.0566(15) -0.0133(10) -0.0076(11) -0.0116(10)
C34 0.0404(11) 0.0200(9) 0.0592(14) -0.0115(9) 0.0082(10) -0.0062(8)
C35 0.0303(10) 0.0224(9) 0.0497(12) -0.0039(8) 0.0059(9) 0.0001(7)
C36 0.0276(9) 0.0216(9) 0.0326(10) -0.0031(7) 0.0021(7) -0.0038(7)
C41 0.0395(10) 0.0200(8) 0.0211(8) -0.0010(6) -0.0020(7) -0.0074(7)
C42 0.0414(11) 0.0256(9) 0.0305(10) -0.0048(8) -0.0031(8) -0.0047(8)
C43 0.0513(13) 0.0258(10) 0.0353(11) -0.0038(8) 0.0000(9) 0.0009(9)
C44 0.0668(15) 0.0219(9) 0.0338(11) -0.0056(8) 0.0017(10) -0.0099(9)
C45 0.0577(14) 0.0298(10) 0.0289(10) -0.0041(8) -0.0027(9) -0.0198(9)
C46 0.0416(11) 0.0264(9) 0.0234(9) 0.0006(7) -0.0019(8) -0.0110(8)
Br1 0.05107(13) 0.02642(11) 0.02372(10) 0.00382(8) 0.00949(9) 0.00675(9)
Br2 0.04161(12) 0.03059(11) 0.02163(10) 0.00474(7) -0.00047(8) -0.01022(8)
S1 0.0277(2) 0.0254(2) 0.0375(3) -0.00106(18) -0.00018(18) -0.00506(17)
S2 0.0356(2) 0.0401(3) 0.0309(2) -0.0024(2) -0.00146(19) -0.0135(2)
O1 0.0698(12) 0.0536(11) 0.0404(9) 0.0028(8) -0.0009(8) -0.0301(9)
O2 0.0767(13) 0.0523(11) 0.0307(8) -0.0037(7) 0.0029(8) 0.0166(9)
C51 0.0382(11) 0.0332(11) 0.0372(11) -0.0025(9) 0.0002(9) -0.0057(9)
C52 0.0496(14) 0.0589(16) 0.0452(14) -0.0071(11) -0.0078(11) -0.0176(12)
C53 0.0452(13) 0.0553(15) 0.0580(16) -0.0120(12) -0.0051(12) -0.0107(11)
C54 0.0403(13) 0.0528(15) 0.0593(16) 0.0004(12) -0.0091(11) -0.0079(11)
C55 0.0473(14) 0.0545(15) 0.0511(15) -0.0022(12) -0.0057(11) -0.0131(11)
C56 0.0559(15) 0.0514(15) 0.0475(14) -0.0086(11) -0.0042(12) -0.0012(12)
C57 0.0462(14) 0.0493(14) 0.0577(16) -0.0090(12) -0.0031(12) -0.0014(11)
C58 0.0425(12) 0.0454(13) 0.0480(13) -0.0049(10) -0.0086(10) -0.0058(10)
C59 0.0505(13) 0.0340(11) 0.0344(11) -0.0074(9) -0.0073(10) -0.0063(9)
loop_
_atom_type_symbol
_atom_type_scat_dispersion_real
_atom_type_scat_dispersion_imag
_atom_type_scat_Cromer_Mann_a1
_atom_type_scat_Cromer_Mann_b1
_atom_type_scat_Cromer_Mann_a2
_atom_type_scat_Cromer_Mann_b2
_atom_type_scat_Cromer_Mann_a3
_atom_type_scat_Cromer_Mann_b3
_atom_type_scat_Cromer_Mann_a4
_atom_type_scat_Cromer_Mann_b4
_atom_type_scat_Cromer_Mann_c
_atom_type_scat_source
C 0.0181 0.0091 2.3100 20.8439 1.0200 10.2075 1.5886 0.5687 0.8650 51.6512
0.2156 'International Tables Vol C 4.2.6.8 and 6.1.1.4'
H 0.0000 0.0000 0.4930 10.5109 0.3229 26.1257 0.1402 3.1424 0.0408 57.7998
0.0030 'International Tables Vol C 4.2.6.8 and 6.1.1.4'
N 0.0311 0.0180 12.2126 0.0057 3.1322 9.8933 2.0125 28.9975 1.1663 0.5826
-11.5290 'International Tables Vol C 4.2.6.8 and 6.1.1.4'
O 0.0492 0.0322 3.0485 13.2771 2.2868 5.7011 1.5463 0.3239 0.8670 32.9089
0.2508 'International Tables Vol C 4.2.6.8 and 6.1.1.4'
Zn -1.5491 0.6778 14.0743 3.2655 7.0318 0.2333 5.1652 10.3163 2.4100 58.7097
1.3041 'International Tables Vol C 4.2.6.8 and 6.1.1.4'
S 0.3331 0.5567 6.9053 1.4679 5.2034 22.2151 1.4379 0.2536 1.5863 56.1720
0.8669 'International Tables Vol C 4.2.6.8 and 6.1.1.4'
Br -0.6763 1.2805 17.1789 2.1723 5.2358 16.5796 5.6377 0.2609 3.9851 41.4328
2.9557 'International Tables Vol C 4.2.6.8 and 6.1.1.4'
loop_
_geom_angle_atom_site_label_1
_geom_angle_atom_site_label_2
_geom_angle_atom_site_label_3
_geom_angle
_geom_angle_publ_flag
N1 Zn1 N2 88.22(6) yes
N1 Zn1 N3 161.33(6) yes
N2 Zn1 N3 88.84(6) yes
N1 Zn1 N4 88.71(6) yes
N2 Zn1 N4 162.15(6) yes
N3 Zn1 N4 88.46(6) yes
N1 Zn1 N5 100.05(6) yes
N2 Zn1 N5 101.13(6) yes
N3 Zn1 N5 98.61(6) yes
N4 Zn1 N5 96.73(6) yes
Zn1 N1 C1 126.67(12) yes
Zn1 N1 C4 126.63(12) yes
C1 N1 C4 106.28(15) yes
Zn1 N2 C6 126.91(12) yes
Zn1 N2 C9 126.23(12) yes
C6 N2 C9 106.39(14) yes
Zn1 N3 C11 127.15(12) yes
Zn1 N3 C14 126.62(12) yes
C11 N3 C14 105.96(15) yes
Zn1 N4 C16 125.75(12) yes
Zn1 N4 C19 126.45(12) yes
C16 N4 C19 106.35(15) yes
Zn1 N5 C21 121.11(13) yes
Zn1 N5 C25 120.37(13) yes
C21 N5 C25 118.26(16) yes
N1 C1 C2 109.64(16) yes
N1 C1 C20 125.38(17) yes
C2 C1 C20 124.97(17) yes
C1 C2 C3 107.34(17) yes
C1 C2 H21 125.5 no
C3 C2 H21 127.1 no
C2 C3 C4 106.95(17) yes
C2 C3 H31 126.8 no
C4 C3 H31 126.2 no
C3 C4 N1 109.76(16) yes
C3 C4 C5 126.70(17) yes
N1 C4 C5 123.46(16) yes
C4 C5 C6 128.48(16) yes
C4 C5 Br1 115.69(13) yes
C6 C5 Br1 115.67(13) yes
C5 C6 N2 123.50(16) yes
C5 C6 C7 126.78(16) yes
N2 C6 C7 109.67(16) yes
C6 C7 C8 106.83(16) yes
C6 C7 H71 125.4 no
C8 C7 H71 127.8 no
C7 C8 C9 107.39(16) yes
C7 C8 H81 128.0 no
C9 C8 H81 124.6 no
C8 C9 N2 109.70(16) yes
C8 C9 C10 124.63(16) yes
N2 C9 C10 125.66(16) yes
C9 C10 C11 125.72(16) yes
C9 C10 C41 117.96(16) yes
C11 C10 C41 116.30(16) yes
C10 C11 N3 125.38(16) yes
C10 C11 C12 124.66(17) yes
N3 C11 C12 109.94(16) yes
C11 C12 C13 107.04(17) yes
C11 C12 H121 125.1 no
C13 C12 H121 127.8 no
C12 C13 C14 106.97(17) yes
C12 C13 H131 126.5 no
C14 C13 H131 126.5 no
C13 C14 N3 110.06(16) yes
C13 C14 C15 126.51(17) yes
N3 C14 C15 123.42(16) yes
C14 C15 C16 128.17(16) yes
C14 C15 Br2 115.47(14) yes
C16 C15 Br2 116.31(13) yes
C15 C16 N4 123.47(16) yes
C15 C16 C17 126.63(17) yes
N4 C16 C17 109.82(16) yes
C16 C17 C18 106.78(17) yes
C16 C17 H171 126.4 no
C18 C17 H171 126.8 no
C17 C18 C19 107.29(17) yes
C17 C18 H181 127.5 no
C19 C18 H181 125.2 no
C18 C19 N4 109.74(17) yes
C18 C19 C20 124.59(17) yes
N4 C19 C20 125.67(16) yes
C1 C20 C19 125.73(17) yes
C1 C20 C31 118.23(17) yes
C19 C20 C31 116.04(16) yes
N5 C21 C22 122.7(2) yes
N5 C21 H211 117.1 no
C22 C21 H211 120.2 no
C21 C22 C23 118.5(2) yes
C21 C22 H221 121.4 no
C23 C22 H221 120.1 no
C22 C23 C24 119.61(19) yes
C22 C23 H231 120.1 no
C24 C23 H231 120.3 no
C23 C24 C25 118.4(2) yes
C23 C24 H241 122.3 no
C25 C24 H241 119.2 no
C24 C25 N5 122.52(19) yes
C24 C25 H251 121.2 no
N5 C25 H251 116.3 no
C20 C31 C32 121.05(18) yes
C20 C31 C36 120.65(17) yes
C32 C31 C36 118.25(18) yes
C31 C32 C33 121.1(2) yes
C31 C32 H321 119.4 no
C33 C32 H321 119.5 no
C32 C33 C34 120.0(2) yes
C32 C33 H331 119.7 no
C34 C33 H331 120.2 no
C33 C34 C35 119.84(19) yes
C33 C34 H341 121.3 no
C35 C34 H341 118.9 no
C34 C35 C36 120.2(2) yes
C34 C35 H351 120.6 no
C36 C35 H351 119.1 no
C31 C36 C35 120.47(19) yes
C31 C36 S1 119.36(14) yes
C35 C36 S1 120.00(16) yes
C10 C41 C42 118.76(17) yes
C10 C41 C46 122.77(18) yes
C42 C41 C46 118.44(18) yes
C41 C42 C43 121.3(2) yes
C41 C42 H421 119.8 no
C43 C42 H421 118.9 no
C42 C43 C44 119.4(2) yes
C42 C43 H431 121.1 no
C44 C43 H431 119.5 no
C43 C44 C45 120.54(19) yes
C43 C44 H441 119.3 no
C45 C44 H441 120.1 no
C44 C45 C46 120.1(2) yes
C44 C45 H451 120.6 no
C46 C45 H451 119.4 no
C41 C46 C45 120.3(2) yes
C41 C46 S2 120.42(15) yes
C45 C46 S2 119.31(17) yes
C36 S1 C51 103.64(10) yes
C46 S2 C59 101.00(10) yes
S1 C51 O1 123.81(19) yes
S1 C51 C52 110.63(17) yes
O1 C51 C52 125.4(2) yes
C51 C52 C53 107.8(2) yes
C51 C52 H521 108.8 no
C53 C52 H521 113.3 no
C51 C52 H522 108.2 no
C53 C52 H522 109.4 no
H521 C52 H522 109.3 no
C52 C53 C54 113.2(2) yes
C52 C53 H531 106.6 no
C54 C53 H531 109.9 no
C52 C53 H532 109.9 no
C54 C53 H532 105.8 no
H531 C53 H532 111.6 no
C53 C54 C55 112.5(2) yes
C53 C54 H541 106.9 no
C55 C54 H541 111.6 no
C53 C54 H542 106.2 no
C55 C54 H542 109.2 no
H541 C54 H542 110.2 no
C54 C55 C56 116.3(2) yes
C54 C55 H551 108.2 no
C56 C55 H551 109.0 no
C54 C55 H552 106.6 no
C56 C55 H552 106.2 no
H551 C55 H552 110.4 no
C55 C56 C57 112.0(2) yes
C55 C56 H561 110.5 no
C57 C56 H561 108.2 no
C55 C56 H562 112.3 no
C57 C56 H562 106.7 no
H561 C56 H562 106.9 no
C56 C57 C58 114.1(2) yes
C56 C57 H571 103.4 no
C58 C57 H571 111.7 no
C56 C57 H572 107.9 no
C58 C57 H572 109.9 no
H571 C57 H572 109.6 no
C57 C58 C59 111.1(2) yes
C57 C58 H581 107.2 no
C59 C58 H581 108.4 no
C57 C58 H582 110.6 no
C59 C58 H582 109.2 no
H581 C58 H582 110.2 no
C58 C59 S2 112.76(17) yes
C58 C59 O2 124.9(2) yes
S2 C59 O2 122.31(19) yes
loop_
_geom_bond_atom_site_label_1
_geom_bond_atom_site_label_2
_geom_bond_distance
_geom_bond_publ_flag
Zn1 N1 2.0750(15) yes
Zn1 N2 2.0748(14) yes
Zn1 N3 2.0627(15) yes
Zn1 N4 2.0641(14) yes
Zn1 N5 2.1214(14) yes
N1 C1 1.375(2) yes
N1 C4 1.374(2) yes
N2 C6 1.370(2) yes
N2 C9 1.371(2) yes
N3 C11 1.371(2) yes
N3 C14 1.372(2) yes
N4 C16 1.369(2) yes
N4 C19 1.372(2) yes
N5 C21 1.333(3) yes
N5 C25 1.333(2) yes
C1 C2 1.438(3) yes
C1 C20 1.399(3) yes
C2 C3 1.350(3) yes
C2 H21 0.946 no
C3 C4 1.441(3) yes
C3 H31 0.924 no
C4 C5 1.401(3) yes
C5 C6 1.396(3) yes
C5 Br1 1.9092(17) yes
C6 C7 1.448(2) yes
C7 C8 1.345(3) yes
C7 H71 0.941 no
C8 C9 1.439(2) yes
C8 H81 0.951 no
C9 C10 1.403(3) yes
C10 C11 1.400(2) yes
C10 C41 1.501(2) yes
C11 C12 1.445(3) yes
C12 C13 1.345(3) yes
C12 H121 0.935 no
C13 C14 1.443(3) yes
C13 H131 0.920 no
C14 C15 1.397(3) yes
C15 C16 1.397(3) yes
C15 Br2 1.9057(17) yes
C16 C17 1.445(2) yes
C17 C18 1.349(3) yes
C17 H171 0.928 no
C18 C19 1.439(3) yes
C18 H181 0.931 no
C19 C20 1.398(3) yes
C20 C31 1.500(2) yes
C21 C22 1.384(3) yes
C21 H211 0.939 no
C22 C23 1.368(4) yes
C22 H221 0.932 no
C23 C24 1.377(3) yes
C23 H231 0.923 no
C24 C25 1.382(3) yes
C24 H241 0.915 no
C25 H251 0.932 no
C31 C32 1.388(3) yes
C31 C36 1.397(3) yes
C32 C33 1.389(3) yes
C32 H321 0.934 no
C33 C34 1.380(4) yes
C33 H331 0.934 no
C34 C35 1.379(3) yes
C34 H341 0.929 no
C35 C36 1.394(3) yes
C35 H351 0.931 no
C36 S1 1.774(2) yes
C41 C42 1.394(3) yes
C41 C46 1.398(3) yes
C42 C43 1.388(3) yes
C42 H421 0.932 no
C43 C44 1.382(3) yes
C43 H431 0.951 no
C44 C45 1.380(4) yes
C44 H441 0.932 no
C45 C46 1.395(3) yes
C45 H451 0.929 no
C46 S2 1.778(2) yes
S1 C51 1.791(2) yes
S2 C59 1.803(2) yes
O1 C51 1.195(3) yes
O2 C59 1.196(3) yes
C51 C52 1.504(3) yes
C52 C53 1.570(4) yes
C52 H521 0.947 no
C52 H522 0.975 no
C53 C54 1.508(4) yes
C53 H531 1.011 no
C53 H532 1.025 no
C54 C55 1.495(4) yes
C54 H541 1.013 no
C54 H542 0.993 no
C55 C56 1.550(4) yes
C55 H551 0.995 no
C55 H552 0.980 no
C56 C57 1.510(4) yes
C56 H561 1.006 no
C56 H562 1.014 no
C57 C58 1.535(4) yes
C57 H571 1.020 no
C57 H572 1.008 no
C58 C59 1.503(3) yes
C58 H581 0.978 no
C58 H582 0.953 no
loop_
_geom_hbond_atom_site_label_D
_geom_hbond_atom_site_label_H
_geom_hbond_atom_site_label_A
_geom_hbond_site_symmetry_A
_geom_hbond_angle_DHA
_geom_hbond_distance_DH
_geom_hbond_distance_HA
_geom_hbond_distance_DA
_geom_hbond_publ_flag
C45 H451 O1 1_545 162 0.93 2.55 3.448(3) yes
C56 H561 O2 . 129 1.01 2.53 3.261(3) yes
