#------------------------------------------------------------------------------
#$Date: 2016-03-21 19:13:01 +0200 (Mon, 21 Mar 2016) $
#$Revision: 178840 $
#$URL: svn://www.crystallography.net/cod/cif/4/10/94/4109438.cif $
#------------------------------------------------------------------------------
#
# This file is available in the Crystallography Open Database (COD),
# http://www.crystallography.net/
#
# All data on this site have been placed in the public domain by the
# contributors.
#
data_4109438
loop_
_publ_author_name
'Shigeru Yamaguchi'
'Taisuke Katoh'
'Hiroshi Shinokubo'
'Atsuhiro Osuka'
_publ_section_title
;
 Porphyrin Pincer Complexes: Peripherally Cyclometalated Porphyrins and
 Their Catalytic Activities Controlled by Central Metals
;
_journal_name_full               'Journal of the American Chemical Society'
_journal_page_first              6392
_journal_page_last               6393
_journal_paper_doi               10.1021/ja072218s
_journal_volume                  129
_journal_year                    2007
_chemical_formula_moiety         'C72 H79 Cl N6 Pd, C2 H4 Cl2, C2 H3 N'
_chemical_formula_sum            'C76 H86 Cl3 N7 Pd'
_chemical_formula_weight         1310.27
_chemical_name_systematic
; 
 ? 
;
_space_group_IT_number           61
_symmetry_cell_setting           orthorhombic
_symmetry_Int_Tables_number      61
_symmetry_space_group_name_Hall  '-P 2bc 2ac'
_symmetry_space_group_name_H-M   'P c a b'
_atom_sites_solution_hydrogens   geom
_atom_sites_solution_primary     direct
_atom_sites_solution_secondary   difmap
_audit_creation_method           SHELXL-97
_cell_angle_alpha                90.000(5)
_cell_angle_beta                 90.000(5)
_cell_angle_gamma                90.000(5)
_cell_formula_units_Z            8
_cell_length_a                   14.106(5)
_cell_length_b                   19.030(5)
_cell_length_c                   48.863(5)
_cell_measurement_reflns_used    5335
_cell_measurement_temperature    90(2)
_cell_measurement_theta_max      28.23
_cell_measurement_theta_min      2.19
_cell_volume                     13117(6)
_computing_cell_refinement       'Bruker SMART'
_computing_data_collection       'Bruker SMART'
_computing_data_reduction        'Bruker SAINT'
_computing_molecular_graphics    'Bruker SHELXTL'
_computing_publication_material  'Bruker SHELXTL'
_computing_structure_refinement  'SHELXL-97 (Sheldrick, 1997)'
_computing_structure_solution    'SHELXS-97 (Sheldrick, 1990)'
_diffrn_ambient_temperature      90(2)
_diffrn_detector_area_resol_mean 8.366
_diffrn_measured_fraction_theta_full 1.000
_diffrn_measured_fraction_theta_max 1.000
_diffrn_measurement_device_type  'CCD area detector'
_diffrn_measurement_method       'phi and omega scans'
_diffrn_radiation_monochromator  graphite
_diffrn_radiation_source         'fine-focus sealed tube'
_diffrn_radiation_type           MoK\a
_diffrn_radiation_wavelength     0.71069
_diffrn_reflns_av_R_equivalents  0.0620
_diffrn_reflns_av_sigmaI/netI    0.0497
_diffrn_reflns_limit_h_max       16
_diffrn_reflns_limit_h_min       -12
_diffrn_reflns_limit_k_max       22
_diffrn_reflns_limit_k_min       -18
_diffrn_reflns_limit_l_max       58
_diffrn_reflns_limit_l_min       -55
_diffrn_reflns_number            65200
_diffrn_reflns_theta_full        25.00
_diffrn_reflns_theta_max         25.00
_diffrn_reflns_theta_min         0.83
_exptl_absorpt_coefficient_mu    0.455
_exptl_absorpt_correction_T_max  0.9776
_exptl_absorpt_correction_T_min  0.8390
_exptl_absorpt_correction_type   empirical
_exptl_crystal_colour            violet
_exptl_crystal_density_diffrn    1.327
_exptl_crystal_description       prism
_exptl_crystal_F_000             5504
_exptl_crystal_size_max          0.40
_exptl_crystal_size_mid          0.10
_exptl_crystal_size_min          0.05
_refine_diff_density_max         2.662
_refine_diff_density_min         -2.221
_refine_diff_density_rms         0.132
_refine_ls_extinction_method     none
_refine_ls_goodness_of_fit_ref   1.052
_refine_ls_hydrogen_treatment    constr
_refine_ls_matrix_type           full
_refine_ls_number_parameters     803
_refine_ls_number_reflns         11560
_refine_ls_number_restraints     546
_refine_ls_restrained_S_all      1.029
_refine_ls_R_factor_all          0.1125
_refine_ls_R_factor_gt           0.0883
_refine_ls_shift/su_max          0.000
_refine_ls_shift/su_mean         0.000
_refine_ls_structure_factor_coef Fsqd
_refine_ls_weighting_details
'calc w=1/[\s^2^(Fo^2^)+(0.0871P)^2^+121.1793P] where P=(Fo^2^+2Fc^2^)/3'
_refine_ls_weighting_scheme      calc
_refine_ls_wR_factor_gt          0.2080
_refine_ls_wR_factor_ref         0.2219
_reflns_number_gt                8804
_reflns_number_total             11560
_reflns_threshold_expression     >2sigma(I)
_cod_data_source_file            ja072218ssi20070329_083751.cif
_cod_data_source_block           70109yamaguchi
_cod_database_code               4109438
loop_
_symmetry_equiv_pos_as_xyz
'x, y, z'
'-x, -y+1/2, z+1/2'
'x+1/2, -y, -z+1/2'
'-x+1/2, y+1/2, -z'
'-x, -y, -z'
'x, y-1/2, -z-1/2'
'-x-1/2, y, z-1/2'
'x-1/2, -y-1/2, z'
loop_
_atom_site_label
_atom_site_type_symbol
_atom_site_fract_x
_atom_site_fract_y
_atom_site_fract_z
_atom_site_U_iso_or_equiv
_atom_site_adp_type
_atom_site_occupancy
_atom_site_symmetry_multiplicity
_atom_site_calc_flag
_atom_site_refinement_flags
C1 C 0.9281(5) 0.3106(3) 0.13676(12) 0.0195(13) Uani 1 1 d U
C2 C 0.9964(5) 0.2737(3) 0.15329(12) 0.0201(13) Uani 1 1 d U
C3 C 1.0252(5) 0.3190(3) 0.17357(11) 0.0214(13) Uani 1 1 d U
H3 H 1.0690 0.3088 0.1878 0.026 Uiso 1 1 calc R
C4 C 0.9773(5) 0.3841(3) 0.16933(11) 0.0179(13) Uani 1 1 d U
C5 C 0.9841(4) 0.4445(3) 0.18587(11) 0.0173(12) Uani 1 1 d U
C6 C 0.9539(4) 0.5113(3) 0.17718(11) 0.0165(12) Uani 1 1 d U
C7 C 0.9503(4) 0.5743(3) 0.19321(12) 0.0194(13) Uani 1 1 d U
H7 H 0.9617 0.5777 0.2123 0.023 Uiso 1 1 calc R
C8 C 0.9278(5) 0.6280(3) 0.17647(11) 0.0196(13) Uani 1 1 d U
H8 H 0.9214 0.6760 0.1815 0.023 Uiso 1 1 calc R
C9 C 0.9152(4) 0.5988(3) 0.14929(11) 0.0161(12) Uani 1 1 d U
C10 C 0.9036(4) 0.6382(3) 0.12540(12) 0.0161(12) Uani 1 1 d U
C11 C 0.8888(4) 0.6092(3) 0.09889(12) 0.0159(12) Uani 1 1 d U
C12 C 0.8840(4) 0.6484(3) 0.07367(12) 0.0193(13) Uani 1 1 d U
H12 H 0.8974 0.6970 0.0714 0.023 Uiso 1 1 calc R
C13 C 0.8567(4) 0.6031(3) 0.05376(12) 0.0181(12) Uani 1 1 d U
H13 H 0.8487 0.6139 0.0349 0.022 Uiso 1 1 calc R
C14 C 0.8420(4) 0.5358(3) 0.06636(11) 0.0155(12) Uani 1 1 d U
C15 C 0.8014(4) 0.4756(3) 0.05421(11) 0.0153(12) Uani 1 1 d U
C16 C 0.7935(4) 0.4103(3) 0.06789(11) 0.0166(12) Uani 1 1 d U
C17 C 0.7363(4) 0.3522(3) 0.05988(12) 0.0191(13) Uani 1 1 d U
H17 H 0.6943 0.3509 0.0447 0.023 Uiso 1 1 calc R
C18 C 0.7524(5) 0.2986(3) 0.07800(12) 0.0200(13) Uani 1 1 d U
C19 C 0.8232(5) 0.3237(3) 0.09715(12) 0.0206(13) Uani 1 1 d U
C20 C 0.8727(5) 0.2824(3) 0.11611(12) 0.0196(13) Uani 1 1 d U
C21 C 1.0247(5) 0.4357(3) 0.21402(11) 0.0182(13) Uani 1 1 d U
C22 C 1.0930(5) 0.4808(3) 0.22433(12) 0.0206(13) Uani 1 1 d U
H22 H 1.1162 0.5178 0.2131 0.025 Uiso 1 1 calc R
C23 C 1.1285(5) 0.4730(3) 0.25071(13) 0.0256(14) Uani 1 1 d U
C24 C 1.0946(5) 0.4177(3) 0.26639(12) 0.0231(14) Uani 1 1 d U
H24 H 1.1178 0.4122 0.2845 0.028 Uiso 1 1 calc R
C25 C 1.0280(5) 0.3699(3) 0.25674(12) 0.0232(14) Uani 1 1 d U
C26 C 0.9932(5) 0.3801(3) 0.23019(12) 0.0205(13) Uani 1 1 d U
H26 H 0.9472 0.3485 0.2231 0.025 Uiso 1 1 calc R
C27 C 1.2069(5) 0.5223(4) 0.26156(13) 0.0314(16) Uani 1 1 d U
C28 C 1.1818(6) 0.5978(4) 0.25552(16) 0.043(2) Uani 1 1 d U
H28A H 1.1731 0.6039 0.2358 0.065 Uiso 1 1 calc R
H28B H 1.2330 0.6286 0.2619 0.065 Uiso 1 1 calc R
H28C H 1.1229 0.6101 0.2650 0.065 Uiso 1 1 calc R
C29 C 1.2214(6) 0.5149(4) 0.29249(13) 0.0358(18) Uani 1 1 d U
H29A H 1.2721 0.5466 0.2984 0.054 Uiso 1 1 calc R
H29B H 1.2389 0.4663 0.2968 0.054 Uiso 1 1 calc R
H29C H 1.1625 0.5270 0.3020 0.054 Uiso 1 1 calc R
C30 C 1.3003(5) 0.5026(4) 0.24698(15) 0.0372(18) Uani 1 1 d U
H30A H 1.2928 0.5090 0.2272 0.056 Uiso 1 1 calc R
H30B H 1.3158 0.4534 0.2509 0.056 Uiso 1 1 calc R
H30C H 1.3515 0.5329 0.2536 0.056 Uiso 1 1 calc R
C31 C 0.9963(5) 0.3070(3) 0.27387(13) 0.0290(16) Uani 1 1 d U
C32 C 0.8899(6) 0.2954(4) 0.27207(16) 0.044(2) Uani 1 1 d U
H32A H 0.8730 0.2819 0.2533 0.066 Uiso 1 1 calc R
H32B H 0.8568 0.3389 0.2770 0.066 Uiso 1 1 calc R
H32C H 0.8713 0.2579 0.2847 0.066 Uiso 1 1 calc R
C33 C 1.0204(6) 0.3181(4) 0.30427(14) 0.0383(18) Uani 1 1 d U
H33A H 0.9966 0.2782 0.3150 0.057 Uiso 1 1 calc R
H33B H 0.9907 0.3615 0.3108 0.057 Uiso 1 1 calc R
H33C H 1.0893 0.3215 0.3064 0.057 Uiso 1 1 calc R
C34 C 1.0471(7) 0.2426(4) 0.26325(17) 0.052(2) Uani 1 1 d U
H34A H 1.0284 0.2340 0.2442 0.078 Uiso 1 1 calc R
H34B H 1.0301 0.2019 0.2745 0.078 Uiso 1 1 calc R
H34C H 1.1157 0.2503 0.2641 0.078 Uiso 1 1 calc R
C35 C 0.9066(4) 0.7170(3) 0.12705(11) 0.0166(12) Uani 1 1 d U
C36 C 0.8325(5) 0.7547(3) 0.13882(11) 0.0193(13) Uani 1 1 d U
H36 H 0.7803 0.7297 0.1464 0.023 Uiso 1 1 calc R
C37 C 0.8325(5) 0.8276(3) 0.13981(11) 0.0190(13) Uani 1 1 d U
C38 C 0.9113(5) 0.8624(3) 0.12887(11) 0.0173(12) Uani 1 1 d U
H38 H 0.9125 0.9123 0.1293 0.021 Uiso 1 1 calc R
C39 C 0.9876(4) 0.8271(3) 0.11737(11) 0.0171(12) Uani 1 1 d U
C40 C 0.9839(4) 0.7537(3) 0.11674(11) 0.0175(12) Uani 1 1 d U
H40 H 1.0354 0.7284 0.1091 0.021 Uiso 1 1 calc R
C41 C 0.7483(5) 0.8692(3) 0.15158(13) 0.0240(14) Uani 1 1 d U
C42 C 0.6878(5) 0.8978(4) 0.12798(14) 0.0290(15) Uani 1 1 d U
H42A H 0.6317 0.9214 0.1354 0.044 Uiso 1 1 calc R
H42B H 0.6678 0.8588 0.1162 0.044 Uiso 1 1 calc R
H42C H 0.7252 0.9313 0.1173 0.044 Uiso 1 1 calc R
C43 C 0.7830(5) 0.9315(3) 0.16877(14) 0.0314(16) Uani 1 1 d U
H43A H 0.8226 0.9142 0.1838 0.047 Uiso 1 1 calc R
H43B H 0.7283 0.9568 0.1763 0.047 Uiso 1 1 calc R
H43C H 0.8202 0.9633 0.1572 0.047 Uiso 1 1 calc R
C44 C 0.6848(5) 0.8232(4) 0.16982(14) 0.0308(16) Uani 1 1 d U
H44A H 0.7234 0.8011 0.1841 0.046 Uiso 1 1 calc R
H44B H 0.6547 0.7867 0.1587 0.046 Uiso 1 1 calc R
H44C H 0.6357 0.8524 0.1783 0.046 Uiso 1 1 calc R
C45 C 1.0743(5) 0.8679(3) 0.10691(12) 0.0197(13) Uani 1 1 d U
C46 C 1.0448(5) 0.9281(3) 0.08796(13) 0.0258(15) Uani 1 1 d U
H46A H 1.0110 0.9090 0.0721 0.039 Uiso 1 1 calc R
H46B H 1.1014 0.9533 0.0817 0.039 Uiso 1 1 calc R
H46C H 1.0033 0.9605 0.0979 0.039 Uiso 1 1 calc R
C47 C 1.1275(5) 0.8984(3) 0.13242(14) 0.0259(15) Uani 1 1 d U
H47A H 1.0875 0.9338 0.1413 0.039 Uiso 1 1 calc R
H47B H 1.1870 0.9202 0.1265 0.039 Uiso 1 1 calc R
H47C H 1.1411 0.8604 0.1454 0.039 Uiso 1 1 calc R
C48 C 1.1415(5) 0.8209(3) 0.09050(14) 0.0313(16) Uani 1 1 d U
H48A H 1.1698 0.7857 0.1027 0.047 Uiso 1 1 calc R
H48B H 1.1917 0.8497 0.0824 0.047 Uiso 1 1 calc R
H48C H 1.1059 0.7971 0.0760 0.047 Uiso 1 1 calc R
C49 C 0.7612(4) 0.4802(3) 0.02609(11) 0.0179(13) Uani 1 1 d U
C50 C 0.7007(4) 0.5343(3) 0.01829(11) 0.0154(12) Uani 1 1 d U
H50 H 0.6842 0.5694 0.0313 0.018 Uiso 1 1 calc R
C51 C 0.6639(4) 0.5383(3) -0.00806(11) 0.0172(12) Uani 1 1 d U
C52 C 0.6853(5) 0.4844(4) -0.02622(12) 0.0288(16) Uani 1 1 d U
H52 H 0.6600 0.4863 -0.0442 0.035 Uiso 1 1 calc R
C53 C 0.7422(5) 0.4277(4) -0.01900(13) 0.0332(17) Uani 1 1 d U
C54 C 0.7827(5) 0.4276(4) 0.00700(13) 0.0275(15) Uani 1 1 d U
H54 H 0.8257 0.3913 0.0119 0.033 Uiso 1 1 calc R
C55 C 0.6018(5) 0.6005(3) -0.01737(12) 0.0193(13) Uani 1 1 d U
C56 C 0.5570(5) 0.6392(4) 0.00696(13) 0.0309(16) Uani 1 1 d U
H56A H 0.6072 0.6568 0.0190 0.046 Uiso 1 1 calc R
H56B H 0.5162 0.6067 0.0171 0.046 Uiso 1 1 calc R
H56C H 0.5191 0.6787 0.0002 0.046 Uiso 1 1 calc R
C57 C 0.6640(6) 0.6506(4) -0.03352(16) 0.0367(18) Uani 1 1 d U
H57A H 0.6937 0.6253 -0.0487 0.055 Uiso 1 1 calc R
H57B H 0.7134 0.6698 -0.0215 0.055 Uiso 1 1 calc R
H57C H 0.6252 0.6891 -0.0407 0.055 Uiso 1 1 calc R
C58 C 0.5187(5) 0.5757(3) -0.03553(13) 0.0266(15) Uani 1 1 d U
H58A H 0.4796 0.6162 -0.0407 0.040 Uiso 1 1 calc R
H58B H 0.4800 0.5418 -0.0254 0.040 Uiso 1 1 calc R
H58C H 0.5438 0.5533 -0.0521 0.040 Uiso 1 1 calc R
C59 C 0.7633(6) 0.3652(4) -0.03843(15) 0.043(2) Uani 1 1 d U
C60 C 0.8591(7) 0.3768(6) -0.0502(2) 0.066(3) Uani 1 1 d U
H60A H 0.8704 0.3426 -0.0649 0.099 Uiso 1 1 calc R
H60B H 0.9070 0.3709 -0.0359 0.099 Uiso 1 1 calc R
H60C H 0.8630 0.4244 -0.0577 0.099 Uiso 1 1 calc R
C61 C 0.6925(6) 0.3600(4) -0.06107(13) 0.0376(19) Uani 1 1 d U
H61A H 0.6882 0.4052 -0.0706 0.056 Uiso 1 1 calc R
H61B H 0.6304 0.3477 -0.0535 0.056 Uiso 1 1 calc R
H61C H 0.7125 0.3235 -0.0740 0.056 Uiso 1 1 calc R
C62 C 0.7599(9) 0.2937(4) -0.02325(18) 0.068(3) Uani 1 1 d U
H62A H 0.7723 0.2556 -0.0363 0.102 Uiso 1 1 calc R
H62B H 0.6971 0.2873 -0.0151 0.102 Uiso 1 1 calc R
H62C H 0.8082 0.2931 -0.0088 0.102 Uiso 1 1 calc R
C63 C 1.0403(5) 0.2076(3) 0.14549(12) 0.0220(14) Uani 1 1 d U
C64 C 1.1259(5) 0.1866(3) 0.15721(14) 0.0307(16) Uani 1 1 d U
H64 H 1.1506 0.2116 0.1724 0.037 Uiso 1 1 calc R
C65 C 1.1744(5) 0.1301(4) 0.14701(14) 0.0316(16) Uani 1 1 d U
H65 H 1.2323 0.1154 0.1551 0.038 Uiso 1 1 calc R
C66 C 1.1380(5) 0.0950(3) 0.12474(14) 0.0288(15) Uani 1 1 d U
H66 H 1.1720 0.0573 0.1166 0.035 Uiso 1 1 calc R
C67 C 1.0530(5) 0.1152(3) 0.11474(12) 0.0220(14) Uani 1 1 d U
H67 H 1.0277 0.0898 0.0997 0.026 Uiso 1 1 calc R
C68 C 0.6964(5) 0.2348(3) 0.08174(12) 0.0238(14) Uani 1 1 d U
C69 C 0.6091(5) 0.2275(4) 0.06874(16) 0.0320(16) Uani 1 1 d U
H69 H 0.5900 0.2613 0.0555 0.038 Uiso 1 1 calc R
C70 C 0.5506(6) 0.1723(4) 0.07473(19) 0.044(2) Uani 1 1 d U
H70 H 0.4917 0.1666 0.0656 0.053 Uiso 1 1 calc R
C71 C 0.5799(6) 0.1244(4) 0.09470(17) 0.044(2) Uani 1 1 d U
H71 H 0.5403 0.0863 0.0998 0.053 Uiso 1 1 calc R
C72 C 0.6654(5) 0.1331(3) 0.10660(15) 0.0309(16) Uani 1 1 d U
H72 H 0.6847 0.1004 0.1202 0.037 Uiso 1 1 calc R
C1S C 0.5642(11) 0.0494(7) 0.0248(3) 0.114(5) Uani 1 1 d U
H1S1 H 0.5642 0.0161 0.0096 0.172 Uiso 1 1 calc R
H1S2 H 0.5167 0.0350 0.0384 0.172 Uiso 1 1 calc R
H1S3 H 0.6270 0.0500 0.0334 0.172 Uiso 1 1 calc R
C2S C 0.5414(9) 0.1194(7) 0.0147(2) 0.080(3) Uani 1 1 d U
C3S C 0.3413(12) 0.3845(7) 0.1855(2) 0.098(5) Uani 1 1 d U
H3S1 H 0.2955 0.4190 0.1930 0.118 Uiso 1 1 calc R
H3S2 H 0.3503 0.3956 0.1659 0.118 Uiso 1 1 calc R
C4S C 0.3018(12) 0.3198(10) 0.1873(3) 0.129(6) Uani 1 1 d U
H4S1 H 0.3522 0.2860 0.1823 0.155 Uiso 1 1 calc R
H4S2 H 0.2536 0.3172 0.1727 0.155 Uiso 1 1 calc R
Cl1 Cl 0.85293(13) 0.05344(8) 0.10837(3) 0.0315(4) Uani 1 1 d .
Cl1S Cl 0.2566(4) 0.2917(3) 0.21205(11) 0.167(2) Uani 1 1 d U
Cl2S Cl 0.4501(6) 0.3967(8) 0.2023(2) 0.385(9) Uani 1 1 d .
N1 N 0.9216(4) 0.3786(3) 0.14658(10) 0.0200(11) Uani 1 1 d U
N2 N 0.9283(4) 0.5276(2) 0.15060(9) 0.0161(10) Uani 1 1 d U
H2 H 0.9216 0.4977 0.1370 0.019 Uiso 1 1 calc R
N3 N 0.8675(4) 0.5406(2) 0.09367(10) 0.0173(10) Uani 1 1 d U
N4 N 0.8425(4) 0.3926(2) 0.09114(10) 0.0183(11) Uani 1 1 d U
H4 H 0.8799 0.4206 0.1006 0.022 Uiso 1 1 calc R
N5 N 1.0021(4) 0.1690(2) 0.12481(10) 0.0195(11) Uani 1 1 d U
N6 N 0.7250(4) 0.1864(3) 0.10010(10) 0.0237(12) Uani 1 1 d U
N1S N 0.5284(9) 0.1754(6) 0.0078(2) 0.104(4) Uani 1 1 d U
Pd1 Pd 0.86402(4) 0.17941(2) 0.112520(9) 0.02024(16) Uani 1 1 d .
loop_
_atom_site_aniso_label
_atom_site_aniso_U_11
_atom_site_aniso_U_22
_atom_site_aniso_U_33
_atom_site_aniso_U_23
_atom_site_aniso_U_13
_atom_site_aniso_U_12
C1 0.026(3) 0.014(3) 0.019(3) -0.002(2) 0.002(3) 0.002(3)
C2 0.031(4) 0.015(3) 0.014(3) 0.003(2) -0.001(3) 0.002(3)
C3 0.033(4) 0.024(3) 0.007(3) 0.004(2) -0.003(2) 0.003(3)
C4 0.027(3) 0.015(3) 0.012(3) 0.001(2) -0.001(3) 0.001(3)
C5 0.025(3) 0.017(3) 0.010(3) 0.000(2) -0.002(2) -0.001(3)
C6 0.024(3) 0.019(3) 0.007(3) 0.002(2) -0.003(2) -0.003(3)
C7 0.025(3) 0.021(3) 0.013(3) 0.001(2) -0.002(3) -0.003(3)
C8 0.030(4) 0.017(3) 0.011(3) -0.006(2) 0.002(3) -0.001(3)
C9 0.020(3) 0.016(3) 0.012(3) -0.003(2) -0.004(2) -0.002(2)
C10 0.018(3) 0.015(3) 0.016(3) -0.001(2) -0.004(2) 0.001(2)
C11 0.019(3) 0.015(3) 0.014(3) 0.001(2) -0.003(2) 0.002(2)
C12 0.022(3) 0.013(3) 0.023(3) 0.006(2) -0.001(3) 0.002(2)
C13 0.023(3) 0.019(3) 0.012(3) 0.002(2) 0.000(3) 0.000(3)
C14 0.017(3) 0.017(3) 0.013(3) -0.001(2) -0.003(2) 0.005(2)
C15 0.020(3) 0.017(3) 0.009(3) -0.003(2) 0.000(2) 0.005(2)
C16 0.022(3) 0.018(3) 0.010(3) -0.003(2) -0.004(2) 0.005(2)
C17 0.020(3) 0.024(3) 0.014(3) -0.005(2) -0.009(2) 0.005(3)
C18 0.024(3) 0.020(3) 0.016(3) -0.009(2) -0.001(3) 0.002(3)
C19 0.024(3) 0.018(3) 0.019(3) 0.000(2) 0.001(3) 0.001(3)
C20 0.033(4) 0.008(3) 0.018(3) 0.002(2) 0.005(3) 0.001(3)
C21 0.030(3) 0.016(3) 0.008(3) -0.001(2) -0.001(2) 0.004(3)
C22 0.027(3) 0.019(3) 0.016(3) 0.000(2) -0.001(3) 0.002(3)
C23 0.033(4) 0.026(3) 0.018(3) 0.001(3) -0.007(3) 0.004(3)
C24 0.037(4) 0.021(3) 0.010(3) 0.004(2) -0.004(3) 0.006(3)
C25 0.034(4) 0.019(3) 0.017(3) -0.001(2) -0.002(3) 0.004(3)
C26 0.029(4) 0.016(3) 0.016(3) 0.000(2) -0.004(3) 0.000(3)
C27 0.043(4) 0.033(4) 0.019(3) -0.003(3) -0.009(3) -0.005(3)
C28 0.056(5) 0.031(4) 0.043(5) 0.002(3) -0.021(4) -0.009(4)
C29 0.044(5) 0.042(4) 0.022(4) -0.009(3) -0.012(3) -0.006(4)
C30 0.040(4) 0.044(4) 0.027(4) -0.003(3) -0.005(3) -0.011(4)
C31 0.046(4) 0.023(3) 0.018(3) 0.006(3) 0.002(3) 0.004(3)
C32 0.060(6) 0.038(4) 0.033(4) 0.018(3) 0.002(4) -0.010(4)
C33 0.058(5) 0.034(4) 0.023(4) 0.006(3) -0.004(3) -0.009(4)
C34 0.088(7) 0.025(4) 0.043(5) 0.008(3) 0.020(5) 0.012(4)
C35 0.024(3) 0.014(3) 0.011(3) 0.000(2) -0.009(2) 0.001(3)
C36 0.024(3) 0.022(3) 0.013(3) 0.004(2) 0.001(2) -0.002(3)
C37 0.028(3) 0.019(3) 0.010(3) -0.002(2) -0.003(2) 0.003(3)
C38 0.027(3) 0.015(3) 0.010(3) 0.001(2) -0.006(3) 0.001(3)
C39 0.025(3) 0.019(3) 0.007(3) 0.000(2) -0.003(2) 0.000(3)
C40 0.028(3) 0.014(3) 0.010(3) -0.003(2) -0.007(2) 0.003(3)
C41 0.030(4) 0.016(3) 0.026(3) 0.001(3) 0.003(3) 0.002(3)
C42 0.031(4) 0.028(4) 0.029(4) 0.003(3) 0.004(3) 0.009(3)
C43 0.040(4) 0.025(3) 0.030(4) -0.010(3) 0.009(3) 0.004(3)
C44 0.034(4) 0.028(4) 0.030(4) 0.001(3) 0.009(3) 0.001(3)
C45 0.026(3) 0.017(3) 0.016(3) 0.003(2) 0.002(3) 0.002(3)
C46 0.037(4) 0.019(3) 0.021(3) 0.003(3) 0.005(3) -0.002(3)
C47 0.022(3) 0.018(3) 0.039(4) 0.003(3) 0.005(3) 0.000(3)
C48 0.038(4) 0.023(3) 0.032(4) 0.004(3) 0.013(3) 0.002(3)
C49 0.024(3) 0.019(3) 0.011(3) -0.002(2) -0.004(2) 0.004(3)
C50 0.022(3) 0.009(3) 0.015(3) -0.001(2) 0.000(2) -0.002(2)
C51 0.021(3) 0.018(3) 0.012(3) 0.000(2) -0.001(2) 0.001(2)
C52 0.033(4) 0.044(4) 0.010(3) -0.004(3) -0.006(3) 0.018(3)
C53 0.042(4) 0.042(4) 0.015(3) -0.011(3) -0.006(3) 0.016(3)
C54 0.034(4) 0.030(4) 0.019(3) -0.003(3) -0.007(3) 0.017(3)
C55 0.024(3) 0.020(3) 0.014(3) 0.004(2) -0.003(3) 0.004(3)
C56 0.045(4) 0.030(4) 0.017(3) 0.004(3) 0.000(3) 0.016(3)
C57 0.039(4) 0.031(4) 0.040(4) 0.008(3) -0.002(4) -0.005(3)
C58 0.031(4) 0.025(3) 0.024(3) 0.006(3) -0.013(3) 0.003(3)
C59 0.058(5) 0.046(5) 0.025(4) -0.008(3) -0.007(4) 0.023(4)
C60 0.050(6) 0.091(8) 0.056(6) -0.044(5) -0.008(5) -0.001(5)
C61 0.067(6) 0.030(4) 0.016(3) -0.009(3) 0.002(3) 0.009(4)
C62 0.131(10) 0.030(4) 0.043(5) -0.014(4) -0.020(6) 0.023(5)
C63 0.029(4) 0.019(3) 0.019(3) 0.005(2) 0.000(3) 0.004(3)
C64 0.045(4) 0.023(3) 0.024(3) 0.002(3) -0.002(3) 0.007(3)
C65 0.037(4) 0.028(4) 0.030(4) 0.012(3) -0.003(3) 0.009(3)
C66 0.038(4) 0.018(3) 0.031(3) 0.008(3) 0.010(3) 0.005(3)
C67 0.033(4) 0.016(3) 0.016(3) 0.003(2) 0.006(3) 0.004(3)
C68 0.033(4) 0.020(3) 0.019(3) -0.008(2) 0.000(3) 0.001(3)
C69 0.029(4) 0.025(3) 0.042(4) -0.007(3) 0.002(3) -0.001(3)
C70 0.029(4) 0.034(4) 0.069(6) -0.010(4) -0.003(4) -0.008(3)
C71 0.043(5) 0.039(4) 0.050(5) -0.006(4) 0.008(4) -0.013(4)
C72 0.038(4) 0.021(3) 0.034(4) -0.003(3) 0.013(3) -0.004(3)
C1S 0.131(13) 0.076(9) 0.137(12) 0.016(8) 0.059(10) 0.039(9)
C2S 0.083(9) 0.087(9) 0.068(7) -0.003(7) 0.013(6) 0.012(7)
C3S 0.171(14) 0.075(8) 0.048(6) -0.011(6) 0.012(8) 0.026(9)
C4S 0.103(11) 0.180(15) 0.104(11) -0.048(11) 0.034(9) -0.010(11)
Cl1 0.0449(10) 0.0133(7) 0.0364(9) 0.0008(6) 0.0026(8) -0.0011(7)
Cl1S 0.174(5) 0.192(5) 0.136(4) 0.085(4) -0.089(4) -0.078(4)
Cl2S 0.135(6) 0.65(2) 0.368(13) -0.335(15) -0.032(7) 0.067(9)
N1 0.027(3) 0.017(3) 0.016(3) 0.000(2) -0.004(2) 0.000(2)
N2 0.027(3) 0.011(2) 0.010(2) 0.0011(18) -0.003(2) -0.001(2)
N3 0.022(3) 0.015(2) 0.014(2) -0.0028(19) -0.006(2) 0.002(2)
N4 0.027(3) 0.014(2) 0.014(2) -0.0032(19) -0.005(2) 0.000(2)
N5 0.029(3) 0.013(2) 0.017(2) 0.0070(19) -0.003(2) 0.004(2)
N6 0.032(3) 0.019(3) 0.020(3) -0.006(2) 0.004(2) -0.002(2)
N1S 0.126(10) 0.086(8) 0.098(8) -0.011(7) -0.018(7) 0.031(7)
Pd1 0.0343(3) 0.0111(2) 0.0153(2) -0.00051(17) -0.0001(2) -0.0003(2)
loop_
_atom_type_symbol
_atom_type_description
_atom_type_scat_dispersion_real
_atom_type_scat_dispersion_imag
_atom_type_scat_source
C C 0.0033 0.0016 'International Tables Vol C Tables 4.2.6.8 and 6.1.1.4'
H H 0.0000 0.0000 'International Tables Vol C Tables 4.2.6.8 and 6.1.1.4'
N N 0.0061 0.0033 'International Tables Vol C Tables 4.2.6.8 and 6.1.1.4'
Cl Cl 0.1484 0.1585 'International Tables Vol C Tables 4.2.6.8 and 6.1.1.4'
Pd Pd -0.9988 1.0072 'International Tables Vol C Tables 4.2.6.8 and 6.1.1.4'
loop_
_geom_angle_atom_site_label_1
_geom_angle_atom_site_label_2
_geom_angle_atom_site_label_3
_geom_angle
N1 C1 C20 125.4(6)
N1 C1 C2 107.8(5)
C20 C1 C2 126.6(5)
C3 C2 C1 107.2(5)
C3 C2 C63 127.3(6)
C1 C2 C63 124.1(5)
C2 C3 C4 107.5(5)
C2 C3 H3 126.2
C4 C3 H3 126.2
N1 C4 C5 124.8(5)
N1 C4 C3 108.8(5)
C5 C4 C3 126.4(5)
C6 C5 C4 122.9(5)
C6 C5 C21 119.5(5)
C4 C5 C21 117.6(5)
N2 C6 C5 124.5(5)
N2 C6 C7 108.4(5)
C5 C6 C7 127.0(5)
C8 C7 C6 108.2(5)
C8 C7 H7 125.9
C6 C7 H7 125.9
C7 C8 C9 107.1(5)
C7 C8 H8 126.5
C9 C8 H8 126.5
N2 C9 C10 125.9(5)
N2 C9 C8 108.7(5)
C10 C9 C8 125.0(5)
C9 C10 C11 124.7(5)
C9 C10 C35 119.2(5)
C11 C10 C35 116.1(5)
N3 C11 C10 125.0(5)
N3 C11 C12 109.0(5)
C10 C11 C12 125.7(5)
C13 C12 C11 107.3(5)
C13 C12 H12 126.3
C11 C12 H12 126.3
C12 C13 C14 107.5(5)
C12 C13 H13 126.3
C14 C13 H13 126.3
N3 C14 C15 124.3(5)
N3 C14 C13 108.5(5)
C15 C14 C13 127.0(5)
C14 C15 C16 123.1(5)
C14 C15 C49 119.6(5)
C16 C15 C49 117.3(5)
N4 C16 C15 124.6(5)
N4 C16 C17 108.8(5)
C15 C16 C17 126.6(5)
C18 C17 C16 107.9(5)
C18 C17 H17 126.1
C16 C17 H17 126.1
C17 C18 C19 106.6(5)
C17 C18 C68 127.6(6)
C19 C18 C68 124.5(6)
N4 C19 C20 125.4(6)
N4 C19 C18 108.3(5)
C20 C19 C18 125.8(6)
C1 C20 C19 123.0(5)
C1 C20 Pd1 119.1(4)
C19 C20 Pd1 117.9(4)
C22 C21 C26 119.1(5)
C22 C21 C5 122.1(5)
C26 C21 C5 118.8(5)
C21 C22 C23 121.4(6)
C21 C22 H22 119.3
C23 C22 H22 119.3
C24 C23 C22 118.0(6)
C24 C23 C27 121.2(6)
C22 C23 C27 120.7(6)
C23 C24 C25 122.8(6)
C23 C24 H24 118.6
C25 C24 H24 118.6
C24 C25 C26 117.5(6)
C24 C25 C31 121.6(6)
C26 C25 C31 120.9(6)
C21 C26 C25 121.2(6)
C21 C26 H26 119.4
C25 C26 H26 119.4
C28 C27 C29 108.2(6)
C28 C27 C30 110.0(6)
C29 C27 C30 108.6(6)
C28 C27 C23 110.1(6)
C29 C27 C23 112.2(6)
C30 C27 C23 107.7(6)
C27 C28 H28A 109.5
C27 C28 H28B 109.5
H28A C28 H28B 109.5
C27 C28 H28C 109.5
H28A C28 H28C 109.5
H28B C28 H28C 109.5
C27 C29 H29A 109.5
C27 C29 H29B 109.5
H29A C29 H29B 109.5
C27 C29 H29C 109.5
H29A C29 H29C 109.5
H29B C29 H29C 109.5
C27 C30 H30A 109.5
C27 C30 H30B 109.5
H30A C30 H30B 109.5
C27 C30 H30C 109.5
H30A C30 H30C 109.5
H30B C30 H30C 109.5
C34 C31 C32 109.3(7)
C34 C31 C25 107.9(6)
C32 C31 C25 111.8(6)
C34 C31 C33 109.7(6)
C32 C31 C33 107.1(6)
C25 C31 C33 110.9(6)
C31 C32 H32A 109.5
C31 C32 H32B 109.5
H32A C32 H32B 109.5
C31 C32 H32C 109.5
H32A C32 H32C 109.5
H32B C32 H32C 109.5
C31 C33 H33A 109.5
C31 C33 H33B 109.5
H33A C33 H33B 109.5
C31 C33 H33C 109.5
H33A C33 H33C 109.5
H33B C33 H33C 109.5
C31 C34 H34A 109.5
C31 C34 H34B 109.5
H34A C34 H34B 109.5
C31 C34 H34C 109.5
H34A C34 H34C 109.5
H34B C34 H34C 109.5
C40 C35 C36 118.7(5)
C40 C35 C10 120.3(5)
C36 C35 C10 121.0(6)
C37 C36 C35 121.9(6)
C37 C36 H36 119.1
C35 C36 H36 119.1
C36 C37 C38 117.5(6)
C36 C37 C41 121.8(6)
C38 C37 C41 120.7(5)
C39 C38 C37 122.7(5)
C39 C38 H38 118.7
C37 C38 H38 118.7
C38 C39 C40 117.6(6)
C38 C39 C45 120.5(5)
C40 C39 C45 121.8(5)
C35 C40 C39 121.6(6)
C35 C40 H40 119.2
C39 C40 H40 119.2
C43 C41 C42 108.4(5)
C43 C41 C44 108.0(5)
C42 C41 C44 108.3(6)
C43 C41 C37 110.9(6)
C42 C41 C37 109.3(5)
C44 C41 C37 111.9(5)
C41 C42 H42A 109.5
C41 C42 H42B 109.5
H42A C42 H42B 109.5
C41 C42 H42C 109.5
H42A C42 H42C 109.5
H42B C42 H42C 109.5
C41 C43 H43A 109.5
C41 C43 H43B 109.5
H43A C43 H43B 109.5
C41 C43 H43C 109.5
H43A C43 H43C 109.5
H43B C43 H43C 109.5
C41 C44 H44A 109.5
C41 C44 H44B 109.5
H44A C44 H44B 109.5
C41 C44 H44C 109.5
H44A C44 H44C 109.5
H44B C44 H44C 109.5
C46 C45 C48 106.8(5)
C46 C45 C39 111.3(5)
C48 C45 C39 111.8(5)
C46 C45 C47 109.5(5)
C48 C45 C47 109.7(5)
C39 C45 C47 107.7(5)
C45 C46 H46A 109.5
C45 C46 H46B 109.5
H46A C46 H46B 109.5
C45 C46 H46C 109.5
H46A C46 H46C 109.5
H46B C46 H46C 109.5
C45 C47 H47A 109.5
C45 C47 H47B 109.5
H47A C47 H47B 109.5
C45 C47 H47C 109.5
H47A C47 H47C 109.5
H47B C47 H47C 109.5
C45 C48 H48A 109.5
C45 C48 H48B 109.5
H48A C48 H48B 109.5
C45 C48 H48C 109.5
H48A C48 H48C 109.5
H48B C48 H48C 109.5
C50 C49 C54 118.7(5)
C50 C49 C15 122.0(5)
C54 C49 C15 119.3(5)
C49 C50 C51 121.5(5)
C49 C50 H50 119.2
C51 C50 H50 119.2
C52 C51 C50 118.1(5)
C52 C51 C55 120.1(5)
C50 C51 C55 121.8(5)
C53 C52 C51 122.4(6)
C53 C52 H52 118.8
C51 C52 H52 118.8
C52 C53 C54 118.0(6)
C52 C53 C59 123.4(6)
C54 C53 C59 118.6(6)
C53 C54 C49 121.2(6)
C53 C54 H54 119.4
C49 C54 H54 119.4
C57 C55 C56 109.9(6)
C57 C55 C51 107.8(5)
C56 C55 C51 111.9(5)
C57 C55 C58 109.4(5)
C56 C55 C58 106.3(5)
C51 C55 C58 111.5(5)
C55 C56 H56A 109.5
C55 C56 H56B 109.5
H56A C56 H56B 109.5
C55 C56 H56C 109.5
H56A C56 H56C 109.5
H56B C56 H56C 109.5
C55 C57 H57A 109.5
C55 C57 H57B 109.5
H57A C57 H57B 109.5
C55 C57 H57C 109.5
H57A C57 H57C 109.5
H57B C57 H57C 109.5
C55 C58 H58A 109.5
C55 C58 H58B 109.5
H58A C58 H58B 109.5
C55 C58 H58C 109.5
H58A C58 H58C 109.5
H58B C58 H58C 109.5
C60 C59 C61 109.3(7)
C60 C59 C53 107.4(7)
C61 C59 C53 112.1(6)
C60 C59 C62 110.1(8)
C61 C59 C62 105.9(7)
C53 C59 C62 112.0(6)
C59 C60 H60A 109.5
C59 C60 H60B 109.5
H60A C60 H60B 109.5
C59 C60 H60C 109.5
H60A C60 H60C 109.5
H60B C60 H60C 109.5
C59 C61 H61A 109.5
C59 C61 H61B 109.5
H61A C61 H61B 109.5
C59 C61 H61C 109.5
H61A C61 H61C 109.5
H61B C61 H61C 109.5
C59 C62 H62A 109.5
C59 C62 H62B 109.5
H62A C62 H62B 109.5
C59 C62 H62C 109.5
H62A C62 H62C 109.5
H62B C62 H62C 109.5
N5 C63 C64 119.6(6)
N5 C63 C2 119.5(6)
C64 C63 C2 120.7(6)
C65 C64 C63 120.6(7)
C65 C64 H64 119.7
C63 C64 H64 119.7
C64 C65 C66 118.8(7)
C64 C65 H65 120.6
C66 C65 H65 120.6
C67 C66 C65 118.6(6)
C67 C66 H66 120.7
C65 C66 H66 120.7
N5 C67 C66 124.0(6)
N5 C67 H67 118.0
C66 C67 H67 118.0
N6 C68 C69 120.0(6)
N6 C68 C18 119.3(6)
C69 C68 C18 120.3(6)
C70 C69 C68 120.9(7)
C70 C69 H69 119.6
C68 C69 H69 119.6
C69 C70 C71 118.1(8)
C69 C70 H70 120.9
C71 C70 H70 120.9
C72 C71 C70 119.0(7)
C72 C71 H71 120.5
C70 C71 H71 120.5
C71 C72 N6 123.1(7)
C71 C72 H72 118.5
N6 C72 H72 118.5
C2S C1S H1S1 109.5
C2S C1S H1S2 109.5
H1S1 C1S H1S2 109.5
C2S C1S H1S3 109.5
H1S1 C1S H1S3 109.5
H1S2 C1S H1S3 109.5
N1S C2S C1S 175.7(17)
C4S C3S Cl2S 116.7(14)
C4S C3S H3S1 108.1
Cl2S C3S H3S1 108.1
C4S C3S H3S2 108.1
Cl2S C3S H3S2 108.1
H3S1 C3S H3S2 107.3
C3S C4S Cl1S 124.3(13)
C3S C4S H4S1 106.2
Cl1S C4S H4S1 106.2
C3S C4S H4S2 106.2
Cl1S C4S H4S2 106.2
H4S1 C4S H4S2 106.4
C4 N1 C1 108.5(5)
C9 N2 C6 107.6(5)
C9 N2 H2 126.2
C6 N2 H2 126.2
C11 N3 C14 107.4(5)
C19 N4 C16 108.2(5)
C19 N4 H4 125.9
C16 N4 H4 125.9
C67 N5 C63 118.1(5)
C67 N5 Pd1 118.3(4)
C63 N5 Pd1 122.9(4)
C68 N6 C72 118.8(6)
C68 N6 Pd1 121.8(4)
C72 N6 Pd1 118.3(5)
C20 Pd1 N5 90.6(2)
C20 Pd1 N6 91.2(2)
N5 Pd1 N6 178.18(19)
C20 Pd1 Cl1 179.69(19)
N5 Pd1 Cl1 89.46(14)
N6 Pd1 Cl1 88.72(15)
loop_
_geom_bond_atom_site_label_1
_geom_bond_atom_site_label_2
_geom_bond_distance
C1 N1 1.382(7)
C1 C20 1.384(9)
C1 C2 1.441(9)
C2 C3 1.375(8)
C2 C63 1.452(8)
C3 C4 1.427(8)
C3 H3 0.9500
C4 N1 1.365(8)
C4 C5 1.407(8)
C5 C6 1.406(8)
C5 C21 1.500(8)
C6 N2 1.384(7)
C6 C7 1.434(8)
C7 C8 1.347(8)
C7 H7 0.9500
C8 C9 1.451(8)
C8 H8 0.9500
C9 N2 1.368(7)
C9 C10 1.397(8)
C10 C11 1.423(8)
C10 C35 1.502(8)
C11 N3 1.365(7)
C11 C12 1.442(8)
C12 C13 1.356(8)
C12 H12 0.9500
C13 C14 1.436(8)
C13 H13 0.9500
C14 N3 1.385(7)
C14 C15 1.413(8)
C15 C16 1.414(8)
C15 C49 1.489(8)
C16 N4 1.373(7)
C16 C17 1.424(8)
C17 C18 1.370(9)
C17 H17 0.9500
C18 C19 1.450(9)
C18 C68 1.459(9)
C19 N4 1.370(8)
C19 C20 1.402(9)
C20 Pd1 1.972(6)
C21 C22 1.384(9)
C21 C26 1.394(8)
C22 C23 1.391(9)
C22 H22 0.9500
C23 C24 1.387(9)
C23 C27 1.545(9)
C24 C25 1.389(9)
C24 H24 0.9500
C25 C26 1.401(8)
C25 C31 1.528(9)
C26 H26 0.9500
C27 C28 1.510(10)
C27 C29 1.532(9)
C27 C30 1.544(11)
C28 H28A 0.9800
C28 H28B 0.9800
C28 H28C 0.9800
C29 H29A 0.9800
C29 H29B 0.9800
C29 H29C 0.9800
C30 H30A 0.9800
C30 H30B 0.9800
C30 H30C 0.9800
C31 C34 1.512(10)
C31 C32 1.519(11)
C31 C33 1.538(9)
C32 H32A 0.9800
C32 H32B 0.9800
C32 H32C 0.9800
C33 H33A 0.9800
C33 H33B 0.9800
C33 H33C 0.9800
C34 H34A 0.9800
C34 H34B 0.9800
C34 H34C 0.9800
C35 C40 1.389(9)
C35 C36 1.392(9)
C36 C37 1.388(8)
C36 H36 0.9500
C37 C38 1.400(9)
C37 C41 1.540(9)
C38 C39 1.388(9)
C38 H38 0.9500
C39 C40 1.397(8)
C39 C45 1.536(9)
C40 H40 0.9500
C41 C43 1.533(9)
C41 C42 1.534(9)
C41 C44 1.538(9)
C42 H42A 0.9800
C42 H42B 0.9800
C42 H42C 0.9800
C43 H43A 0.9800
C43 H43B 0.9800
C43 H43C 0.9800
C44 H44A 0.9800
C44 H44B 0.9800
C44 H44C 0.9800
C45 C46 1.530(8)
C45 C48 1.530(9)
C45 C47 1.566(9)
C46 H46A 0.9800
C46 H46B 0.9800
C46 H46C 0.9800
C47 H47A 0.9800
C47 H47B 0.9800
C47 H47C 0.9800
C48 H48A 0.9800
C48 H48B 0.9800
C48 H48C 0.9800
C49 C50 1.390(8)
C49 C54 1.401(8)
C50 C51 1.390(8)
C50 H50 0.9500
C51 C52 1.390(9)
C51 C55 1.542(8)
C52 C53 1.390(9)
C52 H52 0.9500
C53 C54 1.393(9)
C53 C59 1.550(9)
C54 H54 0.9500
C55 C57 1.518(9)
C55 C56 1.533(9)
C55 C58 1.544(9)
C56 H56A 0.9800
C56 H56B 0.9800
C56 H56C 0.9800
C57 H57A 0.9800
C57 H57B 0.9800
C57 H57C 0.9800
C58 H58A 0.9800
C58 H58B 0.9800
C58 H58C 0.9800
C59 C60 1.485(13)
C59 C61 1.493(11)
C59 C62 1.551(12)
C60 H60A 0.9800
C60 H60B 0.9800
C60 H60C 0.9800
C61 H61A 0.9800
C61 H61B 0.9800
C61 H61C 0.9800
C62 H62A 0.9800
C62 H62B 0.9800
C62 H62C 0.9800
C63 N5 1.360(8)
C63 C64 1.395(10)
C64 C65 1.368(10)
C64 H64 0.9500
C65 C66 1.377(10)
C65 H65 0.9500
C66 C67 1.351(10)
C66 H66 0.9500
C67 N5 1.345(8)
C67 H67 0.9500
C68 N6 1.348(8)
C68 C69 1.392(10)
C69 C70 1.368(10)
C69 H69 0.9500
C70 C71 1.398(12)
C70 H70 0.9500
C71 C72 1.348(11)
C71 H71 0.9500
C72 N6 1.355(8)
C72 H72 0.9500
C1S C2S 1.457(17)
C1S H1S1 0.9800
C1S H1S2 0.9800
C1S H1S3 0.9800
C2S N1S 1.134(15)
C3S C4S 1.354(19)
C3S Cl2S 1.756(17)
C3S H3S1 0.9900
C3S H3S2 0.9900
C4S Cl1S 1.466(16)
C4S H4S1 0.9900
C4S H4S2 0.9900
Cl1 Pd1 2.4108(16)
N2 H2 0.8800
N4 H4 0.8800
N5 Pd1 2.048(5)
N6 Pd1 2.057(6)
