#------------------------------------------------------------------------------
#$Date: 2016-03-23 16:20:08 +0200 (Wed, 23 Mar 2016) $
#$Revision: 179372 $
#$URL: svn://www.crystallography.net/cod/cif/4/32/69/4326967.cif $
#------------------------------------------------------------------------------
#
# This file is available in the Crystallography Open Database (COD),
# http://www.crystallography.net/
#
# All data on this site have been placed in the public domain by the
# contributors.
#
data_4326967
loop_
_publ_author_name
'Chuan-Hung Chuang'
'Chen-Kuo Ou'
'Shan-Tung Liu'
'Anil Kumar'
'Wei-Min Ching'
'Pei-Chun Chiang'
'Mira Anne C. dela Rosa'
'Chen-Hsiung Hung'
_publ_section_title
;
 Ruthenium Complexes of Thiaporphyrin and Dithiaporphyrin
;
_journal_name_full               'Inorganic Chemistry'
_journal_page_first              11947
_journal_page_last               11957
_journal_paper_doi               10.1021/ic200977n
_journal_volume                  50
_journal_year                    2011
_chemical_formula_sum            'C50 H38 Cl2 N4 O4 Ru S'
_chemical_formula_weight         962.87
_chemical_name_systematic
;
 ?
;
_space_group_IT_number           12
_symmetry_cell_setting           monoclinic
_symmetry_space_group_name_Hall  '-C 2y'
_symmetry_space_group_name_H-M   'C 1 2/m 1'
_atom_sites_solution_hydrogens   geom
_atom_sites_solution_primary     direct
_atom_sites_solution_secondary   difmap
_audit_creation_method           SHELXL-97
_cell_angle_alpha                90.00
_cell_angle_beta                 119.1450(10)
_cell_angle_gamma                90.00
_cell_formula_units_Z            4
_cell_length_a                   22.6857(13)
_cell_length_b                   17.1532(11)
_cell_length_c                   15.5257(9)
_cell_measurement_reflns_used    6196
_cell_measurement_temperature    295(2)
_cell_measurement_theta_max      27.56
_cell_measurement_theta_min      1.79
_cell_volume                     5276.6(5)
_computing_cell_refinement       'Bruker SMART'
_computing_data_collection       'Bruker SMART'
_computing_data_reduction        'Bruker SHELXTL'
_computing_molecular_graphics    'Bruker SHELXTL'
_computing_publication_material  'Bruker SHELXTL'
_computing_structure_refinement  'SHELXL-97 (Sheldrick, 1997)'
_computing_structure_solution    'SHELXS-97 (Sheldrick, 1990)'
_diffrn_ambient_temperature      295(2)
_diffrn_measured_fraction_theta_full 0.979
_diffrn_measured_fraction_theta_max 0.979
_diffrn_measurement_device_type  'CCD area detector'
_diffrn_measurement_method       'phi and omega scans'
_diffrn_radiation_monochromator  graphite
_diffrn_radiation_source         'fine-focus sealed tube'
_diffrn_radiation_type           MoK\a
_diffrn_radiation_wavelength     0.71073
_diffrn_reflns_av_R_equivalents  0.0269
_diffrn_reflns_av_sigmaI/netI    0.0390
_diffrn_reflns_limit_h_max       29
_diffrn_reflns_limit_h_min       -23
_diffrn_reflns_limit_k_max       21
_diffrn_reflns_limit_k_min       -22
_diffrn_reflns_limit_l_max       20
_diffrn_reflns_limit_l_min       -20
_diffrn_reflns_number            16683
_diffrn_reflns_theta_full        27.56
_diffrn_reflns_theta_max         27.56
_diffrn_reflns_theta_min         1.79
_exptl_absorpt_coefficient_mu    0.480
_exptl_absorpt_correction_T_max  0.9314
_exptl_absorpt_correction_T_min  0.9101
_exptl_absorpt_correction_type   empirical
_exptl_absorpt_process_details   SADABS
_exptl_crystal_colour            'Dark Brown'
_exptl_crystal_density_diffrn    1.212
_exptl_crystal_description       cubic
_exptl_crystal_F_000             1968
_exptl_crystal_size_max          0.20
_exptl_crystal_size_mid          0.15
_exptl_crystal_size_min          0.15
_platon_squeeze_details
;
;
_refine_diff_density_max         0.931
_refine_diff_density_min         -0.403
_refine_diff_density_rms         0.096
_refine_ls_extinction_method     none
_refine_ls_goodness_of_fit_ref   0.751
_refine_ls_hydrogen_treatment    constr
_refine_ls_matrix_type           full
_refine_ls_number_parameters     308
_refine_ls_number_reflns         6194
_refine_ls_number_restraints     4
_refine_ls_restrained_S_all      0.751
_refine_ls_R_factor_all          0.0652
_refine_ls_R_factor_gt           0.0536
_refine_ls_shift/su_max          0.001
_refine_ls_shift/su_mean         0.000
_refine_ls_structure_factor_coef Fsqd
_refine_ls_weighting_details
'calc w=1/[\s^2^(Fo^2^)+(0.1990P)^2^+0.8512P] where P=(Fo^2^+2Fc^2^)/3'
_refine_ls_weighting_scheme      calc
_refine_ls_wR_factor_gt          0.1885
_refine_ls_wR_factor_ref         0.1989
_reflns_number_gt                4505
_reflns_number_total             6194
_reflns_threshold_expression     >2sigma(I)
_iucr_refine_instructions_details
;
TITL h027_m in C2/m
CELL  0.710730 22.685699 17.153200 15.525700 90.000000 119.144997 90.000000
ZERR      4.00  0.001300  0.001100  0.000900  0.000000  0.001000  0.000000
LATT 7
SYMM -X, Y, -Z
SFAC C  H  N  O  S  Ru Cl
UNIT 200  152  16  16  4  4  8
L.S. 40
ACTA
BOND $H
FMAP 2
PLAN 2
eadp C26a cl3 C26 Cl1 Cl2
OMIT 0 0 2
OMIT 3 -1 -4
OMIT -3 1 4
SIZE 0.20 0.15 0.15
DFIX 2.93 0.001 CL1 CL2
DFIX 1.77 0.001 C26 CL1
DFIX 1.77 0.001 C26 CL2
DFIX 1.77 0.001 C26A CL3
TEMP        22
WGHT    0.199000    0.851240
FVAR       0.57835
RU1   6    0.478004    0.000000    0.726507    10.50000    0.04373    0.05596 =
         0.02986    0.00000    0.00906    0.00000
S1    5    0.505363    0.000000    0.886202    10.50000    0.05133    0.05479 =
         0.03170    0.00000    0.01276    0.00000
N1    3    0.435722    0.000000    0.575911    10.50000    0.04939    0.06003 =
         0.02899    0.00000    0.00425    0.00000
N2    3    0.478087    0.121582    0.729815    11.00000    0.04775    0.05566 =
         0.03646   -0.00007    0.01264    0.00014
N3    3    0.340849    0.026736    0.712595    10.50000    0.07145    0.07755 =
         0.07061    0.00769    0.03088    0.00896
O1    4    0.623892    0.000000    0.787298    10.50000    0.04913    0.12498 =
         0.06221    0.00000    0.01740    0.00000
O2    4    0.375241    0.000000    0.691381    10.50000    0.05178    0.18141 =
         0.07226    0.00000    0.02911    0.00000
O3    4    0.364316    0.087071    0.759673    10.50000    0.08545    0.10169 =
         0.13014   -0.03680    0.05949   -0.00296
O4    4    0.281354    0.000000    0.689626    10.50000    0.07468    0.14445 =
         0.20539    0.00000    0.07808    0.00000
C1    1    0.566821    0.000000    0.759367    10.50000    0.05366    0.06643 =
         0.03451    0.00000    0.01611    0.00000
C2    1    0.563531   -0.074046    0.948139    11.00000    0.05190    0.06496 =
         0.03453    0.00582    0.01198    0.00414
C3    1    0.618748   -0.040226    1.032118    11.00000    0.06205    0.06396 =
         0.04030    0.00100    0.00759    0.00234
AFIX  43
H3    2    0.652017   -0.069706    1.082713    11.00000   -1.20000
AFIX   0
C4    1    0.553505    0.148352    0.910823    11.00000    0.05516    0.05771 =
         0.03782   -0.00405    0.01688   -0.00269
C5    1    0.507467    0.169377    0.810167    11.00000    0.05166    0.06028 =
         0.03996    0.00027    0.01630    0.00134
C6    1    0.492122    0.248547    0.777445    11.00000    0.07152    0.05364 =
         0.04817   -0.00263    0.02037   -0.00142
AFIX  43
H6    2    0.506114    0.292505    0.817579    11.00000   -1.20000
AFIX   0
C7    1    0.453784    0.248334    0.678139    11.00000    0.06984    0.05891 =
         0.05278    0.00645    0.01820    0.00555
AFIX  43
H7    2    0.435497    0.291512    0.637417    11.00000   -1.20000
AFIX   0
C8    1    0.446842    0.167407    0.647734    11.00000    0.05024    0.05720 =
         0.04126    0.00317    0.01509    0.00185
C9    1    0.416864    0.141475    0.549564    11.00000    0.04603    0.07548 =
         0.03965    0.00879    0.01260    0.00305
C10   1    0.413127    0.065381    0.517976    11.00000    0.05011    0.06859 =
         0.03338    0.00270    0.01129    0.00282
C11   1    0.378622    0.039123    0.416079    11.00000    0.07221    0.08077 =
         0.03282    0.00622    0.00478    0.00804
AFIX  43
H11   2    0.359826    0.070971    0.360577    11.00000   -1.20000
AFIX   0
C12   1    0.386070    0.201659    0.469751    11.00000    0.05369    0.07516 =
         0.03867    0.00859    0.00864    0.00652
C13   1    0.329537    0.243868    0.455357    11.00000    0.07030    0.09124 =
         0.05689    0.00953    0.02314    0.01995
AFIX  43
H13   2    0.311256    0.236431    0.496904    11.00000   -1.20000
AFIX   0
C14   1    0.412356    0.217740    0.407250    11.00000    0.06447    0.10040 =
         0.05244    0.01735    0.02156    0.01938
AFIX  43
H14   2    0.451626    0.192555    0.417804    11.00000   -1.20000
AFIX   0
C15   1    0.300354    0.297782    0.377532    11.00000    0.07412    0.08333 =
         0.06832    0.01344    0.01760    0.02754
AFIX  43
H15   2    0.262362    0.325417    0.367967    11.00000   -1.20000
AFIX   0
C16   1    0.382646    0.268776    0.331724    11.00000    0.07758    0.09573 =
         0.05420    0.01744    0.02811    0.00976
AFIX  43
H16   2    0.400451    0.275973    0.289544    11.00000   -1.20000
AFIX   0
C17   1    0.325796    0.310709    0.316167    11.00000    0.07979    0.08270 =
         0.04981    0.01344    0.01213    0.01158
C18   1    0.292023    0.368726    0.231122    11.00000    0.12374    0.10033 =
         0.08071    0.04058    0.02777    0.02763
AFIX 137
H18A  2    0.325598    0.402639    0.230859    11.00000   -1.50000
H18B  2    0.259542    0.399101    0.239296    11.00000   -1.50000
H18C  2    0.269713    0.340882    0.169788    11.00000   -1.50000
AFIX   0
C19   1    0.598735    0.210507    0.978152    11.00000    0.05770    0.06033 =
         0.04467   -0.00277    0.01286   -0.00143
C20   1    0.601655    0.224255    1.068228    11.00000    0.07176    0.07449 =
         0.05063   -0.01419    0.02079   -0.00747
AFIX  43
H20   2    0.574493    0.195306    1.085826    11.00000   -1.20000
AFIX   0
C21   1    0.640693    0.253258    0.956689    11.00000    0.07540    0.08047 =
         0.06067   -0.00230    0.02622   -0.01382
AFIX  43
H21   2    0.639184    0.245714    0.896328    11.00000   -1.20000
AFIX   0
C22   1    0.644662    0.280777    1.132762    11.00000    0.08355    0.09345 =
         0.05651   -0.02245    0.02187   -0.01628
AFIX  43
H22   2    0.644661    0.290146    1.191761    11.00000   -1.20000
AFIX   0
C23   1    0.684910    0.306857    1.021052    11.00000    0.08053    0.08574 =
         0.08177   -0.00457    0.02839   -0.02498
AFIX  43
H23   2    0.714094    0.333175    1.005002    11.00000   -1.20000
AFIX   0
C24   1    0.686671    0.322476    1.110738    11.00000    0.07913    0.07427 =
         0.06817   -0.00665    0.00857   -0.01580
C25   1    0.735535    0.380574    1.182112    11.00000    0.12680    0.09203 =
         0.10855   -0.02169    0.01070   -0.03684
AFIX 137
H25A  2    0.711429    0.426081    1.183642    11.00000   -1.50000
H25B  2    0.767711    0.394971    1.161602    11.00000   -1.50000
H25C  2    0.758713    0.357823    1.246737    11.00000   -1.50000
PART -1
AFIX   0
C26   1    0.192886    1.004210    0.445406    10.25000    0.28914    0.18350 =
         0.29610    0.01939    0.21579    0.04079
AFIX  23
H26A  2    0.178586    1.038052    0.388622    10.25000   -1.20000
H26B  2    0.222562    1.033920    0.503829    10.25000   -1.20000
AFIX   0
CL2   7    0.121267    0.973814    0.453739    10.25000    0.28914    0.18350 =
         0.29610    0.01939    0.21579    0.04079
CL1   7    0.237729    0.923943    0.434220    10.25000    0.28914    0.18350 =
         0.29610    0.01939    0.21579    0.04079
PART 2
C26A  1    0.194927    1.000000    0.461271    10.25000    0.28914    0.18350 =
         0.29610    0.01939    0.21579    0.04079
AFIX  23
H26O  2    0.151628    1.000000    0.459615    10.25000   -1.20000
H26W  2    0.229749    1.000000    0.529967    10.25000   -1.20000
AFIX   0
CL3   7    0.201955    0.912977    0.405691    10.50000    0.28914    0.18350 =
         0.29610    0.01939    0.21579    0.04079
PART
HKLF 4
 
REM  h027_m in C2/m
REM R1 =  0.0536 for   4505 Fo > 4sig(Fo)  and  0.0652 for all   6194 data
REM    308 parameters refined using      4 restraints
 
END
 
WGHT      0.1215      0.0000
REM Highest difference peak  0.931,  deepest hole -0.403,  1-sigma level  0.096
Q1    1   0.1380  1.0800  0.3576  11.00000  0.05    0.93
Q2    1   0.1049  1.0000  0.3670  10.50000  0.05    0.84
;
_cod_data_source_file            ic200977n_si_002_2.cif
_cod_data_source_block           h027_m-sr
_cod_database_code               4326967
loop_
_symmetry_equiv_pos_as_xyz
'x, y, z'
'-x, y, -z'
'x+1/2, y+1/2, z'
'-x+1/2, y+1/2, -z'
'-x, -y, -z'
'x, -y, z'
'-x+1/2, -y+1/2, -z'
'x+1/2, -y+1/2, z'
loop_
_atom_site_label
_atom_site_type_symbol
_atom_site_fract_x
_atom_site_fract_y
_atom_site_fract_z
_atom_site_U_iso_or_equiv
_atom_site_adp_type
_atom_site_occupancy
_atom_site_symmetry_multiplicity
_atom_site_calc_flag
_atom_site_refinement_flags
_atom_site_disorder_assembly
_atom_site_disorder_group
Ru1 Ru 0.478004(17) 0.0000 0.72651(2) 0.04696(17) Uani 1 2 d S . .
S1 S 0.50536(6) 0.0000 0.88620(8) 0.0491(3) Uani 1 2 d S . .
N1 N 0.4357(2) 0.0000 0.5759(3) 0.0525(9) Uani 1 2 d S . .
N2 N 0.47809(12) 0.12158(17) 0.72982(17) 0.0500(6) Uani 1 1 d . . .
N3 N 0.3408(4) 0.0267(4) 0.7126(5) 0.0748(19) Uani 0.50 1 d P . .
O1 O 0.6239(2) 0.0000 0.7873(3) 0.0829(12) Uani 1 2 d S . .
O2 O 0.3752(2) 0.0000 0.6914(4) 0.1023(17) Uani 1 2 d S . .
O3 O 0.3643(4) 0.0871(4) 0.7597(6) 0.103(2) Uani 0.50 1 d P . .
O4 O 0.2814(3) 0.0000 0.6896(6) 0.137(2) Uani 1 2 d S . .
C1 C 0.5668(3) 0.0000 0.7594(3) 0.0538(11) Uani 1 2 d S . .
C2 C 0.56353(18) -0.0740(2) 0.9481(2) 0.0543(8) Uani 1 1 d . . .
C3 C 0.6187(2) -0.0402(2) 1.0321(3) 0.0628(9) Uani 1 1 d . . .
H3 H 0.6520 -0.0697 1.0827 0.075 Uiso 1 1 calc R . .
C4 C 0.55351(17) 0.1484(2) 0.9108(2) 0.0527(7) Uani 1 1 d . . .
C5 C 0.50747(18) 0.1694(2) 0.8102(2) 0.0532(7) Uani 1 1 d . . .
C6 C 0.4921(2) 0.2485(2) 0.7774(3) 0.0615(9) Uani 1 1 d . . .
H6 H 0.5061 0.2925 0.8176 0.074 Uiso 1 1 calc R . .
C7 C 0.4538(2) 0.2483(2) 0.6781(3) 0.0655(9) Uani 1 1 d . . .
H7 H 0.4355 0.2915 0.6374 0.079 Uiso 1 1 calc R . .
C8 C 0.44684(17) 0.1674(2) 0.6477(2) 0.0526(7) Uani 1 1 d . . .
C9 C 0.41686(17) 0.1415(2) 0.5496(2) 0.0572(8) Uani 1 1 d . . .
C10 C 0.41313(18) 0.0654(2) 0.5180(2) 0.0545(8) Uani 1 1 d . . .
C11 C 0.3786(2) 0.0391(2) 0.4161(3) 0.0708(10) Uani 1 1 d . . .
H11 H 0.3598 0.0710 0.3606 0.085 Uiso 1 1 calc R . .
C12 C 0.38607(18) 0.2017(2) 0.4698(2) 0.0617(9) Uani 1 1 d . . .
C13 C 0.3295(2) 0.2439(3) 0.4554(3) 0.0761(11) Uani 1 1 d . . .
H13 H 0.3113 0.2364 0.4969 0.091 Uiso 1 1 calc R . .
C14 C 0.4124(2) 0.2177(3) 0.4072(3) 0.0754(11) Uani 1 1 d . . .
H14 H 0.4516 0.1926 0.4178 0.090 Uiso 1 1 calc R . .
C15 C 0.3004(2) 0.2978(3) 0.3775(3) 0.0825(13) Uani 1 1 d . . .
H15 H 0.2624 0.3254 0.3680 0.099 Uiso 1 1 calc R . .
C16 C 0.3826(2) 0.2688(3) 0.3317(3) 0.0775(11) Uani 1 1 d . . .
H16 H 0.4005 0.2760 0.2895 0.093 Uiso 1 1 calc R . .
C17 C 0.3258(2) 0.3107(3) 0.3162(3) 0.0790(12) Uani 1 1 d . . .
C18 C 0.2920(3) 0.3687(3) 0.2311(4) 0.1110(19) Uani 1 1 d . . .
H18A H 0.3256 0.4026 0.2309 0.166 Uiso 1 1 calc R . .
H18B H 0.2595 0.3991 0.2393 0.166 Uiso 1 1 calc R . .
H18C H 0.2697 0.3409 0.1698 0.166 Uiso 1 1 calc R . .
C19 C 0.59874(19) 0.2105(2) 0.9782(3) 0.0594(8) Uani 1 1 d . . .
C20 C 0.6017(2) 0.2243(2) 1.0682(3) 0.0695(10) Uani 1 1 d . . .
H20 H 0.5745 0.1953 1.0858 0.083 Uiso 1 1 calc R . .
C21 C 0.6407(2) 0.2533(3) 0.9567(3) 0.0751(11) Uani 1 1 d . . .
H21 H 0.6392 0.2457 0.8963 0.090 Uiso 1 1 calc R . .
C22 C 0.6447(2) 0.2808(3) 1.1328(3) 0.0830(13) Uani 1 1 d . . .
H22 H 0.6447 0.2901 1.1918 0.100 Uiso 1 1 calc R . .
C23 C 0.6849(2) 0.3069(3) 1.0211(4) 0.0874(13) Uani 1 1 d . . .
H23 H 0.7141 0.3332 1.0050 0.105 Uiso 1 1 calc R . .
C24 C 0.6867(2) 0.3225(3) 1.1107(4) 0.0855(13) Uani 1 1 d . . .
C25 C 0.7355(3) 0.3806(3) 1.1821(5) 0.129(2) Uani 1 1 d . . .
H25A H 0.7114 0.4261 1.1836 0.193 Uiso 1 1 calc R . .
H25B H 0.7677 0.3950 1.1616 0.193 Uiso 1 1 calc R . .
H25C H 0.7587 0.3578 1.2467 0.193 Uiso 1 1 calc R . .
C26 C 0.1929(10) 1.0042(9) 0.445(3) 0.225(3) Uani 0.25 1 d PD A -1
H26A H 0.1786 1.0381 0.3886 0.270 Uiso 0.25 1 calc PR A -1
H26B H 0.2226 1.0339 0.5038 0.270 Uiso 0.25 1 calc PR A -1
Cl2 Cl 0.1213(6) 0.9738(6) 0.4537(11) 0.225(3) Uani 0.25 1 d PD A -1
Cl1 Cl 0.2377(10) 0.9239(15) 0.434(2) 0.225(3) Uani 0.25 1 d PD A -1
C26A C 0.195(2) 1.0000 0.461(2) 0.225(3) Uani 0.50 2 d SPD . 2
H26O H 0.1516 1.0000 0.4596 0.270 Uiso 0.50 2 calc SPR . 2
H26W H 0.2297 1.0000 0.5300 0.270 Uiso 0.50 2 calc SPR . 2
Cl3 Cl 0.2020(5) 0.9130(6) 0.4057(10) 0.225(3) Uani 0.50 1 d PD . 2
loop_
_atom_site_aniso_label
_atom_site_aniso_U_11
_atom_site_aniso_U_22
_atom_site_aniso_U_33
_atom_site_aniso_U_23
_atom_site_aniso_U_13
_atom_site_aniso_U_12
Ru1 0.0437(2) 0.0560(2) 0.0299(2) 0.000 0.00906(16) 0.000
S1 0.0513(6) 0.0548(6) 0.0317(5) 0.000 0.0128(5) 0.000
N1 0.049(2) 0.060(2) 0.0290(17) 0.000 0.0042(16) 0.000
N2 0.0477(15) 0.0557(15) 0.0365(13) -0.0001(10) 0.0126(12) 0.0001(11)
N3 0.071(4) 0.078(5) 0.071(4) 0.008(3) 0.031(4) 0.009(3)
O1 0.049(2) 0.125(4) 0.062(2) 0.000 0.0174(19) 0.000
O2 0.052(3) 0.181(6) 0.072(3) 0.000 0.029(2) 0.000
O3 0.085(4) 0.102(5) 0.130(6) -0.037(5) 0.059(5) -0.003(4)
O4 0.075(3) 0.144(5) 0.205(7) 0.000 0.078(4) 0.000
C1 0.054(3) 0.066(3) 0.035(2) 0.000 0.016(2) 0.000
C2 0.0519(18) 0.0650(18) 0.0345(15) 0.0058(13) 0.0120(14) 0.0041(15)
C3 0.062(2) 0.0640(19) 0.0403(17) 0.0010(15) 0.0076(16) 0.0023(17)
C4 0.0552(19) 0.0577(17) 0.0378(15) -0.0041(13) 0.0169(14) -0.0027(14)
C5 0.0517(17) 0.0603(18) 0.0400(16) 0.0003(13) 0.0163(14) 0.0013(14)
C6 0.072(2) 0.0536(18) 0.0482(19) -0.0026(15) 0.0204(17) -0.0014(16)
C7 0.070(2) 0.0589(19) 0.053(2) 0.0065(16) 0.0182(18) 0.0056(17)
C8 0.0502(18) 0.0572(17) 0.0413(16) 0.0032(13) 0.0151(14) 0.0019(14)
C9 0.0460(17) 0.075(2) 0.0396(16) 0.0088(15) 0.0126(14) 0.0030(15)
C10 0.0501(18) 0.069(2) 0.0334(15) 0.0027(14) 0.0113(14) 0.0028(15)
C11 0.072(2) 0.081(2) 0.0328(17) 0.0062(15) 0.0048(16) 0.0080(19)
C12 0.054(2) 0.075(2) 0.0387(17) 0.0086(15) 0.0086(15) 0.0065(17)
C13 0.070(3) 0.091(3) 0.057(2) 0.010(2) 0.023(2) 0.020(2)
C14 0.064(2) 0.100(3) 0.052(2) 0.017(2) 0.0216(19) 0.019(2)
C15 0.074(3) 0.083(3) 0.068(3) 0.013(2) 0.018(2) 0.028(2)
C16 0.078(3) 0.096(3) 0.054(2) 0.017(2) 0.028(2) 0.010(2)
C17 0.080(3) 0.083(3) 0.050(2) 0.0134(19) 0.012(2) 0.012(2)
C18 0.124(5) 0.100(4) 0.081(3) 0.041(3) 0.028(3) 0.028(3)
C19 0.058(2) 0.0603(19) 0.0447(18) -0.0028(14) 0.0129(15) -0.0014(16)
C20 0.072(3) 0.074(2) 0.051(2) -0.0142(18) 0.0208(19) -0.0075(19)
C21 0.075(3) 0.080(2) 0.061(2) -0.0023(19) 0.026(2) -0.014(2)
C22 0.084(3) 0.093(3) 0.057(2) -0.022(2) 0.022(2) -0.016(2)
C23 0.081(3) 0.086(3) 0.082(3) -0.005(2) 0.028(2) -0.025(2)
C24 0.079(3) 0.074(3) 0.068(3) -0.007(2) 0.009(2) -0.016(2)
C25 0.127(5) 0.092(4) 0.109(4) -0.022(3) 0.011(4) -0.037(3)
C26 0.289(9) 0.184(4) 0.296(8) 0.019(5) 0.216(9) 0.041(6)
Cl2 0.289(9) 0.184(4) 0.296(8) 0.019(5) 0.216(9) 0.041(6)
Cl1 0.289(9) 0.184(4) 0.296(8) 0.019(5) 0.216(9) 0.041(6)
C26A 0.289(9) 0.184(4) 0.296(8) 0.019(5) 0.216(9) 0.041(6)
Cl3 0.289(9) 0.184(4) 0.296(8) 0.019(5) 0.216(9) 0.041(6)
loop_
_atom_type_symbol
_atom_type_description
_atom_type_scat_dispersion_real
_atom_type_scat_dispersion_imag
_atom_type_scat_source
C C 0.0033 0.0016 'International Tables Vol C Tables 4.2.6.8 and 6.1.1.4'
H H 0.0000 0.0000 'International Tables Vol C Tables 4.2.6.8 and 6.1.1.4'
N N 0.0061 0.0033 'International Tables Vol C Tables 4.2.6.8 and 6.1.1.4'
O O 0.0106 0.0060 'International Tables Vol C Tables 4.2.6.8 and 6.1.1.4'
S S 0.1246 0.1234 'International Tables Vol C Tables 4.2.6.8 and 6.1.1.4'
Ru Ru -1.2594 0.8363 'International Tables Vol C Tables 4.2.6.8 and 6.1.1.4'
Cl Cl 0.1484 0.1585 'International Tables Vol C Tables 4.2.6.8 and 6.1.1.4'
loop_
_geom_angle_atom_site_label_1
_geom_angle_atom_site_label_2
_geom_angle_atom_site_label_3
_geom_angle
_geom_angle_site_symmetry_1
_geom_angle_site_symmetry_3
C1 Ru1 N1 99.13(18) . .
C1 Ru1 N2 90.31(7) . .
N1 Ru1 N2 91.28(6) . .
C1 Ru1 N2 90.31(7) . 6
N1 Ru1 N2 91.28(6) . 6
N2 Ru1 N2 177.23(13) . 6
C1 Ru1 O2 178.83(18) . .
N1 Ru1 O2 82.04(18) . .
N2 Ru1 O2 89.66(7) . .
N2 Ru1 O2 89.66(7) 6 .
C1 Ru1 S1 91.01(14) . .
N1 Ru1 S1 169.86(12) . .
N2 Ru1 S1 88.64(6) . .
N2 Ru1 S1 88.65(6) 6 .
O2 Ru1 S1 87.82(14) . .
C2 S1 C2 93.5(2) 6 .
C2 S1 Ru1 109.70(12) 6 .
C2 S1 Ru1 109.70(12) . .
C10 N1 C10 109.7(4) . 6
C10 N1 Ru1 124.47(19) . .
C10 N1 Ru1 124.47(19) 6 .
C8 N2 C5 107.9(3) . .
C8 N2 Ru1 124.0(2) . .
C5 N2 Ru1 128.1(2) . .
N3 N3 O2 65.0(4) 6 .
N3 N3 O3 147.4(5) 6 .
O2 N3 O3 111.7(7) . .
N3 N3 O4 69.3(3) 6 .
O2 N3 O4 124.8(7) . .
O3 N3 O4 123.5(7) . .
N3 O2 N3 50.0(8) 6 .
N3 O2 Ru1 141.7(5) 6 .
N3 O2 Ru1 141.7(5) . .
N3 O4 N3 41.3(6) . 6
O1 C1 Ru1 174.9(4) . .
C4 C2 C3 131.1(3) 6 .
C4 C2 S1 121.2(3) 6 .
C3 C2 S1 107.5(3) . .
C3 C3 C2 114.1(2) 6 .
C3 C3 H3 122.9 6 .
C2 C3 H3 122.9 . .
C2 C4 C5 125.0(3) 6 .
C2 C4 C19 116.8(3) 6 .
C5 C4 C19 117.9(3) . .
N2 C5 C6 108.6(3) . .
N2 C5 C4 127.9(3) . .
C6 C5 C4 123.0(3) . .
C7 C6 C5 108.2(3) . .
C7 C6 H6 125.9 . .
C5 C6 H6 125.9 . .
C6 C7 C8 106.3(3) . .
C6 C7 H7 126.8 . .
C8 C7 H7 126.8 . .
N2 C8 C9 126.0(3) . .
N2 C8 C7 108.8(3) . .
C9 C8 C7 125.1(3) . .
C10 C9 C8 126.7(3) . .
C10 C9 C12 115.7(3) . .
C8 C9 C12 117.6(3) . .
N1 C10 C9 126.9(3) . .
N1 C10 C11 107.0(3) . .
C9 C10 C11 125.9(3) . .
C11 C11 C10 108.1(2) 6 .
C11 C11 H11 126.0 6 .
C10 C11 H11 126.0 . .
C13 C12 C14 117.3(4) . .
C13 C12 C9 120.8(4) . .
C14 C12 C9 121.8(3) . .
C12 C13 C15 119.4(4) . .
C12 C13 H13 120.3 . .
C15 C13 H13 120.3 . .
C16 C14 C12 122.1(4) . .
C16 C14 H14 118.9 . .
C12 C14 H14 118.9 . .
C17 C15 C13 122.0(4) . .
C17 C15 H15 119.0 . .
C13 C15 H15 119.0 . .
C14 C16 C17 120.9(4) . .
C14 C16 H16 119.5 . .
C17 C16 H16 119.5 . .
C15 C17 C16 118.1(4) . .
C15 C17 C18 120.6(5) . .
C16 C17 C18 121.3(5) . .
C17 C18 H18A 109.5 . .
C17 C18 H18B 109.5 . .
H18A C18 H18B 109.5 . .
C17 C18 H18C 109.5 . .
H18A C18 H18C 109.5 . .
H18B C18 H18C 109.5 . .
C20 C19 C21 117.3(4) . .
C20 C19 C4 120.3(4) . .
C21 C19 C4 122.3(3) . .
C19 C20 C22 121.0(4) . .
C19 C20 H20 119.5 . .
C22 C20 H20 119.5 . .
C23 C21 C19 122.2(4) . .
C23 C21 H21 118.9 . .
C19 C21 H21 118.9 . .
C24 C22 C20 121.0(4) . .
C24 C22 H22 119.5 . .
C20 C22 H22 119.5 . .
C21 C23 C24 120.7(4) . .
C21 C23 H23 119.6 . .
C24 C23 H23 119.6 . .
C22 C24 C23 117.7(4) . .
C22 C24 C25 121.3(5) . .
C23 C24 C25 121.0(5) . .
C24 C25 H25A 109.5 . .
C24 C25 H25B 109.5 . .
H25A C25 H25B 109.5 . .
C24 C25 H25C 109.5 . .
H25A C25 H25C 109.5 . .
H25B C25 H25C 109.5 . .
Cl1 C26 Cl2 111.71(9) . .
Cl1 C26 H26A 109.3 . .
Cl2 C26 H26A 109.3 . .
Cl1 C26 H26B 109.3 . .
Cl2 C26 H26B 109.3 . .
H26A C26 H26B 107.9 . .
Cl3 C26A Cl3 115.0(13) 6_575 .
Cl3 C26A H26O 108.5 6_575 .
Cl3 C26A H26O 108.5 . .
Cl3 C26A H26W 108.5 6_575 .
Cl3 C26A H26W 108.5 . .
H26O C26A H26W 107.5 . .
loop_
_geom_bond_atom_site_label_1
_geom_bond_atom_site_label_2
_geom_bond_distance
_geom_bond_site_symmetry_2
Ru1 C1 1.822(5) .
Ru1 N1 2.050(4) .
Ru1 N2 2.086(3) .
Ru1 N2 2.086(3) 6
Ru1 O2 2.120(5) .
Ru1 S1 2.2436(11) .
S1 C2 1.744(3) 6
S1 C2 1.744(3) .
N1 C10 1.371(4) .
N1 C10 1.371(4) 6
N2 C8 1.365(4) .
N2 C5 1.365(4) .
N3 N3 0.917(14) 6
N3 O2 1.085(7) .
N3 O3 1.229(9) .
N3 O4 1.300(8) .
O1 C1 1.148(6) .
O2 N3 1.085(7) 6
O4 N3 1.300(8) 6
C2 C4 1.372(5) 6
C2 C3 1.419(5) .
C3 C3 1.380(7) 6
C3 H3 0.9300 .
C4 C2 1.373(5) 6
C4 C5 1.440(4) .
C4 C19 1.496(5) .
C5 C6 1.432(5) .
C6 C7 1.352(6) .
C6 H6 0.9300 .
C7 C8 1.450(5) .
C7 H7 0.9300 .
C8 C9 1.405(5) .
C9 C10 1.382(5) .
C9 C12 1.499(5) .
C10 C11 1.453(5) .
C11 C11 1.342(8) 6
C11 H11 0.9300 .
C12 C13 1.393(5) .
C12 C14 1.392(6) .
C13 C15 1.405(6) .
C13 H13 0.9300 .
C14 C16 1.351(5) .
C14 H14 0.9300 .
C15 C17 1.351(7) .
C15 H15 0.9300 .
C16 C17 1.391(6) .
C16 H16 0.9300 .
C17 C18 1.528(6) .
C18 H18A 0.9600 .
C18 H18B 0.9600 .
C18 H18C 0.9600 .
C19 C20 1.388(5) .
C19 C21 1.365(6) .
C20 C22 1.394(6) .
C20 H20 0.9300 .
C21 C23 1.369(6) .
C21 H21 0.9300 .
C22 C24 1.362(7) .
C22 H22 0.9300 .
C23 C24 1.399(7) .
C23 H23 0.9300 .
C24 C25 1.501(6) .
C25 H25A 0.9600 .
C25 H25B 0.9600 .
C25 H25C 0.9600 .
C26 Cl1 1.7700(10) .
C26 Cl2 1.7700(10) .
C26 H26A 0.9700 .
C26 H26B 0.9700 .
C26A Cl3 1.7698(10) 6_575
C26A Cl3 1.7698(10) .
C26A H26O 0.9700 .
C26A H26W 0.9700 .
loop_
_platon_squeeze_void_nr
_platon_squeeze_void_average_x
_platon_squeeze_void_average_y
_platon_squeeze_void_average_z
_platon_squeeze_void_volume
_platon_squeeze_void_count_electrons
_platon_squeeze_void_content
1 0.000 0.000 -0.007 511 71 ' '
2 0.500 0.500 -0.003 511 71 ' '
