#------------------------------------------------------------------------------
#$Date: 2016-03-23 20:24:42 +0200 (Wed, 23 Mar 2016) $
#$Revision: 179410 $
#$URL: svn://www.crystallography.net/cod/cif/4/33/07/4330777.cif $
#------------------------------------------------------------------------------
#
# This file is available in the Crystallography Open Database (COD),
# http://www.crystallography.net/
#
# All data on this site have been placed in the public domain by the
# contributors.
#
data_4330777
loop_
_publ_author_name
'Ranjan Patra'
'Dipankar Sahoo'
'Soumyajit Dey'
'Debangsu Sil'
'Sankar Prasad Rath'
_publ_contact_author_address
;Department of Chemistry
Indian Institute of Technology Kanpur
Kanpur-208016
INDIA
;
_publ_contact_author_email       sprath@iitk.ac.in
_publ_contact_author_fax         91-512-2597436
_publ_contact_author_name        'Sankar Prasad Rath'
_publ_contact_author_phone       91-512-2597251
_publ_section_title
;
 Switching Orientation of Two Axial Imidazole Ligands between Parallel and
 Perpendicular in Low-Spin Fe(III) and Fe(II) Nonplanar Porphyrinates
;
_journal_name_full               'Inorganic Chemistry'
_journal_page_first              11294
_journal_page_last               11305
_journal_paper_doi               10.1021/ic300229u
_journal_volume                  51
_journal_year                    2012
_chemical_formula_sum            'C52 H12 Cl8 F20 Fe N8'
_chemical_formula_weight         1468.15
_chemical_name_common            Fe(II)(TFPPCl8)(1-MeIm)2
_chemical_name_systematic
; 
 ? 
;
_space_group_IT_number           88
_symmetry_cell_setting           tetragonal
_symmetry_space_group_name_Hall  '-I 4ad'
_symmetry_space_group_name_H-M   'I 41/a :2'
_atom_sites_solution_hydrogens   geom
_atom_sites_solution_primary     direct
_atom_sites_solution_secondary   difmap
_audit_creation_method           SHELXL-97
_cell_angle_alpha                90.00
_cell_angle_beta                 90.00
_cell_angle_gamma                90.00
_cell_formula_units_Z            16
_cell_length_a                   28.611(4)
_cell_length_b                   28.611(4)
_cell_length_c                   25.302(6)
_cell_measurement_reflns_used    999
_cell_measurement_temperature    100(2)
_cell_measurement_theta_max      27.5
_cell_measurement_theta_min      2.6
_cell_volume                     20712(6)
_computing_cell_refinement       'Bruker SAINT'
_computing_data_collection       'Bruker APEX'
_computing_data_reduction        'Bruker SAINT'
_computing_molecular_graphics    'SHELXL 5.1, XP (Sheldrick, 1994)'
_computing_publication_material  SHELXS-97
_computing_structure_refinement  'SHELXL-97 (Sheldrick, 2008)'
_computing_structure_solution    'SHELXS-97 (Sheldrick, 2008)'
_diffrn_ambient_temperature      100(2)
_diffrn_measured_fraction_theta_full 0.999
_diffrn_measured_fraction_theta_max 1.000
_diffrn_measurement_device_type  'Bruker SMART APEX'
_diffrn_measurement_method       \w
_diffrn_radiation_monochromator  graphite
_diffrn_radiation_source         'fine-focus sealed tube'
_diffrn_radiation_type           MoK\a
_diffrn_radiation_wavelength     0.71073
_diffrn_reflns_av_R_equivalents  0.098
_diffrn_reflns_av_sigmaI/netI    0.1323
_diffrn_reflns_limit_h_max       25
_diffrn_reflns_limit_h_min       -25
_diffrn_reflns_limit_k_max       36
_diffrn_reflns_limit_k_min       0
_diffrn_reflns_limit_l_max       32
_diffrn_reflns_limit_l_min       0
_diffrn_reflns_number            54882
_diffrn_reflns_theta_full        25.00
_diffrn_reflns_theta_max         27.00
_diffrn_reflns_theta_min         2.01
_diffrn_standards_number         0
_exptl_absorpt_coefficient_mu    0.827
_exptl_absorpt_correction_T_max  0.921
_exptl_absorpt_correction_T_min  0.869
_exptl_absorpt_correction_type   multi-scan
_exptl_absorpt_process_details   'SADABS 2.05 (Sheldrick, 2002)'
_exptl_crystal_colour            'dark red'
_exptl_crystal_density_diffrn    1.883
_exptl_crystal_description       block
_exptl_crystal_F_000             11552
_exptl_crystal_size_max          0.18
_exptl_crystal_size_mid          0.14
_exptl_crystal_size_min          0.10
_refine_diff_density_max         0.668
_refine_diff_density_min         -0.492
_refine_diff_density_rms         0.099
_refine_ls_extinction_method     none
_refine_ls_goodness_of_fit_ref   1.011
_refine_ls_hydrogen_treatment    constr
_refine_ls_matrix_type           full
_refine_ls_number_parameters     804
_refine_ls_number_reflns         11300
_refine_ls_number_restraints     0
_refine_ls_restrained_S_all      1.011
_refine_ls_R_factor_all          0.1670
_refine_ls_R_factor_gt           0.0692
_refine_ls_shift/su_max          0.001
_refine_ls_shift/su_mean         0.000
_refine_ls_structure_factor_coef Fsqd
_refine_ls_weighting_details
'calc w=1/[\s^2^(Fo^2^)+(0.0688P)^2^+18.9705P] where P=(Fo^2^+2Fc^2^)/3'
_refine_ls_weighting_scheme      calc
_refine_ls_wR_factor_gt          0.1386
_refine_ls_wR_factor_ref         0.1841
_reflns_number_gt                5316
_reflns_number_total             11300
_reflns_threshold_expression     >2sigma(I)
_iucr_refine_instructions_details
;
TITL 24feba in I4(1)/a
CELL 0.71073  28.6115  28.6115  25.3022  90.000  90.000  90.000
ZERR   16.00   0.0040   0.0040   0.0058   0.000   0.000   0.000
LATT  2
SYMM 0.5-X, -Y, 0.5+Z
SYMM 0.75-Y, 0.25+X, 0.25+Z
SYMM 0.75+Y, 0.75-X, 0.75+Z
SFAC C H N F CL FE
UNIT 832 192 128 320 128 16
TEMP -173.0
omit -3 54.0
L.S. 12
BOND $H
FMAP 2
PLAN 20
ACTA 50
size 0.18 0.14 0.10 ! Dark Red
 
WGHT    0.068800   18.970499
FVAR       0.08889
FE1   6    0.798892    0.857932    0.060604    11.00000    0.03021    0.03038 =
         0.03472   -0.00422    0.00273   -0.00002
N1    3    0.742634    0.891938    0.085586    11.00000    0.03284    0.03059 =
         0.03615   -0.01051    0.00140   -0.00025
N2    3    0.775769    0.799310    0.094456    11.00000    0.03312    0.03244 =
         0.03729   -0.00722    0.00214    0.00218
N3    3    0.851222    0.822767    0.028730    11.00000    0.02985    0.03420 =
         0.02627   -0.00129    0.00100    0.00166
N4    3    0.825960    0.916928    0.034843    11.00000    0.03340    0.03064 =
         0.03517   -0.00402    0.00528    0.00087
N5    3    0.833267    0.866749    0.128670    11.00000    0.03256    0.03632 =
         0.03697   -0.00665    0.00453   -0.00199
N6    3    0.885208    0.856583    0.191727    11.00000    0.04401    0.04976 =
         0.03863   -0.00547   -0.00197   -0.00131
N7    3    0.763412    0.846565   -0.006116    11.00000    0.03195    0.03261 =
         0.03906   -0.00046    0.00172    0.00135
N8    3    0.723576    0.811393   -0.068540    11.00000    0.03569    0.04207 =
         0.04074   -0.00242   -0.00272    0.00456
CL1   5    0.649788    0.993998    0.073449    11.00000    0.03840    0.04559 =
         0.08280    0.00485    0.01171    0.00892
CL2   5    0.605666    0.895701    0.110007    11.00000    0.03247    0.05629 =
         0.05588    0.00282    0.00643    0.00041
CL3   5    0.706634    0.733627    0.208300    11.00000    0.05255    0.04952 =
         0.05257    0.00486    0.01636    0.00142
CL4   5    0.808977    0.689708    0.180768    11.00000    0.05843    0.04543 =
         0.04636    0.00688    0.01016    0.00702
CL5   5    0.909898    0.706932   -0.026205    11.00000    0.05270    0.03423 =
         0.04464   -0.00163    0.01019    0.00884
CL6   5    0.939616    0.800391   -0.089675    11.00000    0.04484    0.03750 =
         0.03886   -0.00504    0.01104   -0.00031
CL7   5    0.936680    0.995120    0.000851    11.00000    0.03376    0.03671 =
         0.05717   -0.00519    0.00271   -0.00431
CL8   5    0.851681    1.051326    0.058037    11.00000    0.04274    0.03573 =
         0.07483   -0.01224    0.00421   -0.00260
F1    4    0.675493    0.871496    0.222003    11.00000    0.05660    0.04483 =
         0.04665   -0.00823    0.00741   -0.00425
F2    4    0.596618    0.853338    0.275633    11.00000    0.06802    0.07745 =
         0.05339    0.00058    0.02286    0.01274
F3    4    0.538300    0.784656    0.243089    11.00000    0.04902    0.10366 =
         0.08776    0.02243    0.02732   -0.01327
F4    4    0.558391    0.735321    0.154699    11.00000    0.05576    0.05875 =
         0.10134    0.00749   -0.00107   -0.02047
F5    4    0.634802    0.756427    0.097310    11.00000    0.05618    0.05222 =
         0.06103   -0.00855    0.00078   -0.00907
F6    4    0.801768    0.659548    0.047522    11.00000    0.03844    0.04124 =
         0.06035   -0.00016   -0.00762    0.00304
F7    4    0.847738    0.578601    0.059261    11.00000    0.06141    0.03458 =
         0.07376    0.00067   -0.01473   -0.00040
F8    4    0.937941    0.578682    0.095124    11.00000    0.05824    0.04270 =
         0.07970    0.00562   -0.01092    0.01050
F9    4    0.978304    0.659437    0.126491    11.00000    0.04229    0.05252 =
         0.05655    0.00180   -0.00881    0.00675
F10   4    0.931265    0.740662    0.117098    11.00000    0.05008    0.04481 =
         0.05553   -0.00456   -0.00585   -0.00315
F11   4    0.888809    0.918594   -0.120715    11.00000    0.04202    0.08574 =
         0.05317    0.02079   -0.00978   -0.00387
F12   4    0.965392    0.943739   -0.176824    11.00000    0.06390    0.06657 =
         0.03899    0.01229    0.00376   -0.00834
F13   4    1.051695    0.928700   -0.135795    11.00000    0.04682    0.04451 =
         0.05956    0.00387    0.01299   -0.00196
F14   4    1.060976    0.892473   -0.037399    11.00000    0.02995    0.04433 =
         0.07286    0.00367    0.00000   -0.00113
F15   4    0.984646    0.875126    0.021523    11.00000    0.03818    0.05032 =
         0.04161    0.00604   -0.00599    0.00103
F16   4    0.732926    1.010417   -0.031843    11.00000    0.06392    0.07341 =
         0.05618   -0.00097   -0.01191   -0.00974
F17   4    0.714125    1.101341   -0.046210    11.00000    0.06008    0.08400 =
         0.10864    0.04068   -0.02690   -0.01413
F18   4    0.717341    1.161454    0.036037    11.00000    0.06641    0.04267 =
         0.15847    0.01172    0.00737    0.01176
F19   4    0.742779    1.129969    0.132934    11.00000    0.09433    0.05314 =
         0.09707   -0.02786    0.03155   -0.00798
F20   4    0.765660    1.039780    0.146368    11.00000    0.09054    0.05989 =
         0.05443   -0.00567    0.00493   -0.00962
C1    1    0.732114    0.938100    0.075557    11.00000    0.03076    0.03211 =
         0.05257   -0.00559    0.00432    0.00213
C2    1    0.682569    0.944756    0.083611    11.00000    0.03405    0.03459 =
         0.04744   -0.00257   -0.00066    0.00861
C3    1    0.664532    0.904179    0.100107    11.00000    0.02688    0.04413 =
         0.03722   -0.00312    0.00098    0.00299
C4    1    0.702204    0.870695    0.103454    11.00000    0.02745    0.02996 =
         0.04491   -0.01195    0.00755    0.00139
C5    1    0.700006    0.827043    0.127455    11.00000    0.02969    0.03984 =
         0.03424   -0.00456    0.00428   -0.00084
C6    1    0.737120    0.795697    0.126610    11.00000    0.03199    0.03444 =
         0.03460   -0.00205    0.00353   -0.00545
C7    1    0.742801    0.754921    0.159173    11.00000    0.04215    0.03603 =
         0.03260    0.00216    0.01064   -0.00333
C8    1    0.783601    0.734911    0.147510    11.00000    0.04643    0.03244 =
         0.03979    0.00233    0.00402    0.00538
C9    1    0.803507    0.761265    0.104075    11.00000    0.03901    0.03158 =
         0.03977   -0.00402    0.00595   -0.00221
C10   1    0.841219    0.747980    0.072523    11.00000    0.03619    0.03377 =
         0.03011   -0.00393   -0.00063    0.00103
C11   1    0.859323    0.775800    0.032299    11.00000    0.03264    0.02753 =
         0.02888    0.00030    0.00130    0.00672
C12   1    0.891650    0.761539   -0.008626    11.00000    0.03227    0.02861 =
         0.03659    0.00323   -0.00043    0.00007
C13   1    0.904504    0.800411   -0.034725    11.00000    0.03372    0.03753 =
         0.03033   -0.00510    0.00128   -0.00391
C14   1    0.881311    0.839603   -0.009700    11.00000    0.02664    0.02631 =
         0.03315   -0.00358   -0.00212    0.00187
C15   1    0.892870    0.886413   -0.014432    11.00000    0.02681    0.04241 =
         0.03037   -0.00182   -0.00135    0.00360
C16   1    0.869328    0.922229    0.011420    11.00000    0.03224    0.03130 =
         0.04055   -0.00107   -0.00212   -0.00292
C17   1    0.882979    0.970401    0.015681    11.00000    0.02555    0.03853 =
         0.04158    0.00266    0.00184   -0.00333
C18   1    0.847839    0.994004    0.038372    11.00000    0.03406    0.02689 =
         0.05105   -0.00574    0.00079    0.00070
C19   1    0.811106    0.961222    0.048196    11.00000    0.03140    0.02943 =
         0.04602   -0.01253    0.00035   -0.00477
C20   1    0.764665    0.971948    0.062164    11.00000    0.03670    0.03197 =
         0.05208   -0.00336   -0.00311    0.00086
C21   1    0.657290    0.814650    0.157153    11.00000    0.03770    0.03533 =
         0.04037   -0.00275    0.00632   -0.00057
C22   1    0.646539    0.837827    0.203430    11.00000    0.04846    0.03595 =
         0.04384    0.00440    0.00897   -0.00230
C23   1    0.606814    0.828925    0.232041    11.00000    0.05029    0.05440 =
         0.03768   -0.00126    0.00939    0.01275
C24   1    0.577069    0.794438    0.215102    11.00000    0.04198    0.06666 =
         0.06317    0.01562    0.01245   -0.00579
C25   1    0.587464    0.769621    0.170491    11.00000    0.04268    0.04974 =
         0.07041    0.00844    0.00183   -0.00425
C26   1    0.626581    0.780515    0.141897    11.00000    0.04262    0.04200 =
         0.04520   -0.00906    0.00326   -0.00302
C27   1    0.865064    0.702465    0.081812    11.00000    0.03831    0.02778 =
         0.03488   -0.00150    0.00292    0.00186
C28   1    0.845002    0.660427    0.067882    11.00000    0.04244    0.03436 =
         0.03610    0.00759   -0.00043   -0.00108
C29   1    0.868686    0.618903    0.072540    11.00000    0.04871    0.02550 =
         0.04452   -0.00048    0.00312   -0.00390
C30   1    0.914042    0.618891    0.091778    11.00000    0.04886    0.03275 =
         0.04231    0.00616    0.00009    0.00796
C31   1    0.934578    0.659378    0.106574    11.00000    0.04189    0.04862 =
         0.04026    0.00350   -0.00521    0.00793
C32   1    0.910414    0.700720    0.102110    11.00000    0.04011    0.03156 =
         0.03926   -0.00367    0.00611   -0.00596
C33   1    0.934590    0.898366   -0.047179    11.00000    0.03529    0.02647 =
         0.02746   -0.00588   -0.00093    0.00234
C34   1    0.931038    0.915055   -0.098152    11.00000    0.03261    0.04714 =
         0.04534   -0.00443   -0.00680    0.00298
C35   1    0.969743    0.925943   -0.127766    11.00000    0.05859    0.03952 =
         0.02991    0.00449   -0.00413   -0.00382
C36   1    1.013296    0.918715   -0.106995    11.00000    0.03167    0.03998 =
         0.04633    0.00182    0.00998   -0.00214
C37   1    1.017871    0.900981   -0.057664    11.00000    0.02950    0.02966 =
         0.04846   -0.00346   -0.00210    0.00042
C38   1    0.978833    0.891883   -0.028058    11.00000    0.03855    0.02666 =
         0.03208    0.00066   -0.00124   -0.00061
C39   1    0.750268    1.021910    0.057213    11.00000    0.02979    0.03735 =
         0.05250   -0.00313    0.00595   -0.00216
C40   1    0.737145    1.039779    0.009233    11.00000    0.03604    0.04319 =
         0.05331   -0.00880   -0.00341   -0.00319
C41   1    0.725862    1.086338    0.001935    11.00000    0.03587    0.06117 =
         0.06789    0.02256   -0.01271   -0.00337
C42   1    0.727632    1.115252    0.043323    11.00000    0.04526    0.03714 =
         0.08486   -0.00398   -0.00064    0.00672
C43   1    0.739884    1.100016    0.091362    11.00000    0.05160    0.04233 =
         0.08006   -0.01440    0.01956    0.00136
C44   1    0.750388    1.053234    0.098726    11.00000    0.05181    0.03658 =
         0.06073   -0.00383   -0.01053    0.00425
C45   1    0.876195    0.853580    0.139654    11.00000    0.04323    0.04017 =
         0.03400   -0.00685   -0.00047   -0.00040
AFIX  43
H45A  2    0.898128    0.843228    0.114011    11.00000   -1.20000
AFIX   0
C46   1    0.845694    0.871517    0.215745    11.00000    0.05093    0.07548 =
         0.03716   -0.01088    0.00447    0.00415
AFIX  43
H46A  2    0.841080    0.876121    0.252561    11.00000   -1.20000
AFIX   0
C47   1    0.813911    0.878614    0.176615    11.00000    0.05142    0.05462 =
         0.04808   -0.01410    0.00428    0.00683
AFIX  43
H47A  2    0.783045    0.890025    0.181611    11.00000   -1.20000
AFIX   0
C48   1    0.928932    0.844575    0.218493    11.00000    0.05600    0.07431 =
         0.05119    0.00245   -0.01098    0.00498
AFIX 137
H48A  2    0.951361    0.832486    0.192607    11.00000   -1.50000
H48B  2    0.922858    0.820663    0.245360    11.00000   -1.50000
H48C  2    0.941856    0.872534    0.235434    11.00000   -1.50000
AFIX   0
C49   1    0.746392    0.805950   -0.022992    11.00000    0.03434    0.03021 =
         0.04539    0.00422    0.00333    0.00211
AFIX  43
H49A  2    0.750001    0.777011   -0.005042    11.00000   -1.20000
AFIX   0
C50   1    0.725783    0.857351   -0.082282    11.00000    0.04370    0.04233 =
         0.04736    0.00565   -0.01108   -0.00504
AFIX  43
H50A  2    0.712866    0.871516   -0.112938    11.00000   -1.20000
AFIX   0
C51   1    0.750224    0.878788   -0.043196    11.00000    0.04613    0.03142 =
         0.04667    0.00363   -0.00195   -0.00848
AFIX  43
H51A  2    0.757126    0.911242   -0.041799    11.00000   -1.20000
AFIX   0
C52   1    0.703477    0.774216   -0.100391    11.00000    0.06190    0.04693 =
         0.05509   -0.01032   -0.02667    0.00349
AFIX 137
H52A  2    0.701039    0.745691   -0.079128    11.00000   -1.50000
H52B  2    0.723539    0.768327   -0.131069    11.00000   -1.50000
H52C  2    0.672298    0.783558   -0.112455    11.00000   -1.50000
 
HKLF 4
 
REM  sank1 in I4(1)/a
REM R1 =  0.0692 for   5316 Fo > 4sig(Fo)  and  0.1670 for all  11300 data
REM    804 parameters refined using      0 restraints
 
END  
     
WGHT      0.0687     18.8300 
REM Highest difference peak  0.668,  deepest hole -0.492,  1-sigma level  0.099
Q1    1   0.7194  1.1321  0.0904  11.00000  0.05    0.67
Q2    1   0.7309  0.7486  0.2381  11.00000  0.05    0.65
Q3    1   0.7582  1.0013 -0.0674  11.00000  0.05    0.59
Q4    1   0.7361  1.0907 -0.0879  11.00000  0.05    0.45
Q5    1   0.6181  0.8724  0.1465  11.00000  0.05    0.44
Q6    1   0.8080  0.8423  0.0969  11.00000  0.05    0.44
Q7    1   0.8523  1.0613  0.0107  11.00000  0.05    0.43
Q8    1   0.8419  1.0689  0.0197  11.00000  0.05    0.43
Q9    1   0.7815  0.6728  0.1770  11.00000  0.05    0.41
Q10   1   0.6362  1.0000  0.0366  11.00000  0.05    0.38
Q11   1   0.6414  0.7312  0.1342  11.00000  0.05    0.37
Q12   1   0.7464  0.8603  0.0015  11.00000  0.05    0.37
Q13   1   0.8989  0.9803  0.0077  11.00000  0.05    0.37
Q14   1   0.8469  0.7486  0.0424  11.00000  0.05    0.36
Q15   1   0.5912  0.9447  0.1329  11.00000  0.05    0.36
Q16   1   0.7884  0.6639  0.1541  11.00000  0.05    0.36
Q17   1   0.7321  1.0594  0.0716  11.00000  0.05    0.36
Q18   1   0.6973  1.1529 -0.0237  11.00000  0.05    0.36
Q19   1   0.5397  0.7689  0.1674  11.00000  0.05    0.36
Q20   1   0.5694  0.6998  0.1373  11.00000  0.05    0.36
;
_cod_data_source_file            ic300229u_si_002.cif
_cod_data_source_block           24feba
_cod_original_cell_volume        20713(6)
_cod_original_sg_symbol_H-M      'I 41/a'
_cod_database_code               4330777
loop_
_symmetry_equiv_pos_as_xyz
'x, y, z'
'-x+1/2, -y, z+1/2'
'-y+3/4, x+1/4, z+1/4'
'y+3/4, -x+3/4, z+3/4'
'x+1/2, y+1/2, z+1/2'
'-x+1, -y+1/2, z+1'
'-y+5/4, x+3/4, z+3/4'
'y+5/4, -x+5/4, z+5/4'
'-x, -y, -z'
'x-1/2, y, -z-1/2'
'y-3/4, -x-1/4, -z-1/4'
'-y-3/4, x-3/4, -z-3/4'
'-x+1/2, -y+1/2, -z+1/2'
'x, y+1/2, -z'
'y-1/4, -x+1/4, -z+1/4'
'-y-1/4, x-1/4, -z-1/4'
loop_
_atom_site_label
_atom_site_type_symbol
_atom_site_fract_x
_atom_site_fract_y
_atom_site_fract_z
_atom_site_U_iso_or_equiv
_atom_site_adp_type
_atom_site_occupancy
_atom_site_symmetry_multiplicity
_atom_site_calc_flag
_atom_site_refinement_flags
Fe1 Fe 0.79889(3) 0.85793(3) 0.06060(3) 0.0318(2) Uani 1 1 d .
N1 N 0.74263(16) 0.89194(16) 0.08559(19) 0.0332(12) Uani 1 1 d .
N2 N 0.77577(16) 0.79931(16) 0.0945(2) 0.0343(12) Uani 1 1 d .
N3 N 0.85122(16) 0.82277(16) 0.02873(18) 0.0301(11) Uani 1 1 d .
N4 N 0.82596(16) 0.91693(16) 0.03484(19) 0.0331(12) Uani 1 1 d .
N5 N 0.83327(17) 0.86675(17) 0.1287(2) 0.0353(12) Uani 1 1 d .
N6 N 0.88521(19) 0.85658(18) 0.1917(2) 0.0441(14) Uani 1 1 d .
N7 N 0.76341(16) 0.84657(17) -0.0061(2) 0.0345(12) Uani 1 1 d .
N8 N 0.72358(17) 0.81139(18) -0.0685(2) 0.0395(13) Uani 1 1 d .
Cl1 Cl 0.64979(6) 0.99400(6) 0.07345(8) 0.0556(5) Uani 1 1 d .
Cl2 Cl 0.60567(5) 0.89570(6) 0.11001(7) 0.0482(5) Uani 1 1 d .
Cl3 Cl 0.70663(6) 0.73363(6) 0.20830(7) 0.0515(5) Uani 1 1 d .
Cl4 Cl 0.80898(6) 0.68971(6) 0.18077(7) 0.0501(5) Uani 1 1 d .
Cl5 Cl 0.90990(6) 0.70693(5) -0.02621(7) 0.0439(4) Uani 1 1 d .
Cl6 Cl 0.93962(5) 0.80039(5) -0.08968(6) 0.0404(4) Uani 1 1 d .
Cl7 Cl 0.93668(5) 0.99512(5) 0.00085(7) 0.0425(4) Uani 1 1 d .
Cl8 Cl 0.85168(6) 1.05133(6) 0.05804(8) 0.0511(5) Uani 1 1 d .
F1 F 0.67549(13) 0.87150(12) 0.22200(15) 0.0494(10) Uani 1 1 d .
F2 F 0.59662(14) 0.85334(15) 0.27563(16) 0.0663(12) Uani 1 1 d .
F3 F 0.53830(14) 0.78466(17) 0.24309(19) 0.0801(14) Uani 1 1 d .
F4 F 0.55839(14) 0.73532(14) 0.15470(19) 0.0720(13) Uani 1 1 d .
F5 F 0.63480(13) 0.75643(13) 0.09731(16) 0.0565(11) Uani 1 1 d .
F6 F 0.80177(12) 0.65955(12) 0.04752(15) 0.0467(10) Uani 1 1 d .
F7 F 0.84774(13) 0.57860(12) 0.05926(16) 0.0566(11) Uani 1 1 d .
F8 F 0.93794(13) 0.57868(13) 0.09512(17) 0.0602(11) Uani 1 1 d .
F9 F 0.97830(12) 0.65944(12) 0.12649(15) 0.0505(10) Uani 1 1 d .
F10 F 0.93126(12) 0.74066(12) 0.11710(15) 0.0501(10) Uani 1 1 d .
F11 F 0.88881(13) 0.91859(15) -0.12072(16) 0.0603(11) Uani 1 1 d .
F12 F 0.96539(13) 0.94374(14) -0.17682(14) 0.0565(11) Uani 1 1 d .
F13 F 1.05169(12) 0.92870(12) -0.13580(15) 0.0503(10) Uani 1 1 d .
F14 F 1.06098(11) 0.89247(12) -0.03740(16) 0.0490(10) Uani 1 1 d .
F15 F 0.98465(11) 0.87513(12) 0.02152(14) 0.0434(9) Uani 1 1 d .
F16 F 0.73293(14) 1.01042(15) -0.03184(17) 0.0645(12) Uani 1 1 d .
F17 F 0.71412(15) 1.10134(16) -0.0462(2) 0.0842(15) Uani 1 1 d .
F18 F 0.71734(15) 1.16145(14) 0.0360(2) 0.0892(16) Uani 1 1 d .
F19 F 0.74278(16) 1.12997(14) 0.1329(2) 0.0815(15) Uani 1 1 d .
F20 F 0.76566(16) 1.03978(14) 0.14637(17) 0.0683(12) Uani 1 1 d .
C1 C 0.7321(2) 0.9381(2) 0.0756(3) 0.0385(16) Uani 1 1 d .
C2 C 0.6826(2) 0.9448(2) 0.0836(3) 0.0387(16) Uani 1 1 d .
C3 C 0.6645(2) 0.9042(2) 0.1001(2) 0.0361(15) Uani 1 1 d .
C4 C 0.7022(2) 0.8707(2) 0.1035(2) 0.0341(15) Uani 1 1 d .
C5 C 0.7000(2) 0.8270(2) 0.1275(2) 0.0346(15) Uani 1 1 d .
C6 C 0.7371(2) 0.7957(2) 0.1266(2) 0.0337(15) Uani 1 1 d .
C7 C 0.7428(2) 0.7549(2) 0.1592(2) 0.0369(15) Uani 1 1 d .
C8 C 0.7836(2) 0.7349(2) 0.1475(3) 0.0396(16) Uani 1 1 d .
C9 C 0.8035(2) 0.7613(2) 0.1041(3) 0.0368(15) Uani 1 1 d .
C10 C 0.8412(2) 0.7480(2) 0.0725(2) 0.0334(14) Uani 1 1 d .
C11 C 0.85932(19) 0.77580(19) 0.0323(2) 0.0297(14) Uani 1 1 d .
C12 C 0.8917(2) 0.76154(19) -0.0086(2) 0.0325(14) Uani 1 1 d .
C13 C 0.9045(2) 0.8004(2) -0.0347(2) 0.0339(14) Uani 1 1 d .
C14 C 0.88131(19) 0.83960(19) -0.0097(2) 0.0287(13) Uani 1 1 d .
C15 C 0.8929(2) 0.8864(2) -0.0144(2) 0.0332(14) Uani 1 1 d .
C16 C 0.8693(2) 0.9222(2) 0.0114(2) 0.0347(15) Uani 1 1 d .
C17 C 0.8830(2) 0.9704(2) 0.0157(2) 0.0352(15) Uani 1 1 d .
C18 C 0.8478(2) 0.9940(2) 0.0384(3) 0.0373(15) Uani 1 1 d .
C19 C 0.8111(2) 0.9612(2) 0.0482(3) 0.0356(15) Uani 1 1 d .
C20 C 0.7647(2) 0.9719(2) 0.0622(3) 0.0403(16) Uani 1 1 d .
C21 C 0.6573(2) 0.8147(2) 0.1572(3) 0.0378(15) Uani 1 1 d .
C22 C 0.6465(2) 0.8378(2) 0.2034(3) 0.0427(17) Uani 1 1 d .
C23 C 0.6068(2) 0.8289(2) 0.2320(3) 0.0475(18) Uani 1 1 d .
C24 C 0.5771(2) 0.7944(3) 0.2151(3) 0.057(2) Uani 1 1 d .
C25 C 0.5875(2) 0.7696(3) 0.1705(3) 0.054(2) Uani 1 1 d .
C26 C 0.6266(2) 0.7805(2) 0.1419(3) 0.0433(17) Uani 1 1 d .
C27 C 0.8651(2) 0.7025(2) 0.0818(2) 0.0337(15) Uani 1 1 d .
C28 C 0.8450(2) 0.6604(2) 0.0679(2) 0.0376(15) Uani 1 1 d .
C29 C 0.8687(2) 0.6189(2) 0.0725(3) 0.0396(16) Uani 1 1 d .
C30 C 0.9140(2) 0.6189(2) 0.0918(3) 0.0413(16) Uani 1 1 d .
C31 C 0.9346(2) 0.6594(2) 0.1066(3) 0.0436(17) Uani 1 1 d .
C32 C 0.9104(2) 0.7007(2) 0.1021(3) 0.0370(15) Uani 1 1 d .
C33 C 0.9346(2) 0.89837(19) -0.0472(2) 0.0297(14) Uani 1 1 d .
C34 C 0.9310(2) 0.9151(2) -0.0982(3) 0.0417(16) Uani 1 1 d .
C35 C 0.9697(2) 0.9259(2) -0.1278(3) 0.0427(17) Uani 1 1 d .
C36 C 1.0133(2) 0.9187(2) -0.1070(3) 0.0393(16) Uani 1 1 d .
C37 C 1.0179(2) 0.9010(2) -0.0577(3) 0.0359(15) Uani 1 1 d .
C38 C 0.9788(2) 0.89188(19) -0.0281(2) 0.0324(14) Uani 1 1 d .
C39 C 0.7503(2) 1.0219(2) 0.0572(3) 0.0399(16) Uani 1 1 d .
C40 C 0.7371(2) 1.0398(2) 0.0092(3) 0.0442(17) Uani 1 1 d .
C41 C 0.7259(2) 1.0863(3) 0.0019(3) 0.055(2) Uani 1 1 d .
C42 C 0.7276(2) 1.1153(2) 0.0433(4) 0.056(2) Uani 1 1 d .
C43 C 0.7399(3) 1.1000(3) 0.0914(4) 0.058(2) Uani 1 1 d .
C44 C 0.7504(2) 1.0532(2) 0.0987(3) 0.0497(18) Uani 1 1 d .
C45 C 0.8762(2) 0.8536(2) 0.1397(3) 0.0391(16) Uani 1 1 d .
H45A H 0.8981 0.8432 0.1140 0.047 Uiso 1 1 calc R
C46 C 0.8457(2) 0.8715(3) 0.2157(3) 0.055(2) Uani 1 1 d .
H46A H 0.8411 0.8761 0.2526 0.065 Uiso 1 1 calc R
C47 C 0.8139(3) 0.8786(2) 0.1766(3) 0.0514(19) Uani 1 1 d .
H47A H 0.7830 0.8900 0.1816 0.062 Uiso 1 1 calc R
C48 C 0.9289(2) 0.8446(3) 0.2185(3) 0.060(2) Uani 1 1 d .
H48A H 0.9514 0.8325 0.1926 0.091 Uiso 1 1 calc R
H48B H 0.9229 0.8207 0.2454 0.091 Uiso 1 1 calc R
H48C H 0.9419 0.8725 0.2354 0.091 Uiso 1 1 calc R
C49 C 0.7464(2) 0.8060(2) -0.0230(3) 0.0366(15) Uani 1 1 d .
H49A H 0.7500 0.7770 -0.0050 0.044 Uiso 1 1 calc R
C50 C 0.7258(2) 0.8574(2) -0.0823(3) 0.0445(17) Uani 1 1 d .
H50A H 0.7129 0.8715 -0.1129 0.053 Uiso 1 1 calc R
C51 C 0.7502(2) 0.8788(2) -0.0432(3) 0.0414(16) Uani 1 1 d .
H51A H 0.7571 0.9112 -0.0418 0.050 Uiso 1 1 calc R
C52 C 0.7035(2) 0.7742(2) -0.1004(3) 0.055(2) Uani 1 1 d .
H52A H 0.7010 0.7457 -0.0791 0.082 Uiso 1 1 calc R
H52B H 0.7235 0.7683 -0.1311 0.082 Uiso 1 1 calc R
H52C H 0.6723 0.7836 -0.1125 0.082 Uiso 1 1 calc R
loop_
_atom_site_aniso_label
_atom_site_aniso_U_11
_atom_site_aniso_U_22
_atom_site_aniso_U_33
_atom_site_aniso_U_23
_atom_site_aniso_U_13
_atom_site_aniso_U_12
Fe1 0.0302(5) 0.0304(5) 0.0347(5) -0.0042(4) 0.0027(4) 0.0000(4)
N1 0.033(3) 0.031(3) 0.036(3) -0.011(2) 0.001(2) 0.000(2)
N2 0.033(3) 0.032(3) 0.037(3) -0.007(2) 0.002(2) 0.002(2)
N3 0.030(3) 0.034(3) 0.026(3) -0.001(2) 0.001(2) 0.002(2)
N4 0.033(3) 0.031(3) 0.035(3) -0.004(2) 0.005(2) 0.001(2)
N5 0.033(3) 0.036(3) 0.037(3) -0.007(2) 0.005(2) -0.002(2)
N6 0.044(3) 0.050(3) 0.039(4) -0.005(3) -0.002(3) -0.001(3)
N7 0.032(3) 0.033(3) 0.039(3) 0.000(3) 0.002(2) 0.001(2)
N8 0.036(3) 0.042(3) 0.041(3) -0.002(3) -0.003(3) 0.005(3)
Cl1 0.0384(9) 0.0456(10) 0.0828(15) 0.0048(10) 0.0117(9) 0.0089(8)
Cl2 0.0325(9) 0.0563(11) 0.0559(12) 0.0028(9) 0.0064(8) 0.0004(8)
Cl3 0.0525(11) 0.0495(10) 0.0526(12) 0.0049(9) 0.0164(9) 0.0014(8)
Cl4 0.0584(11) 0.0454(10) 0.0464(11) 0.0069(8) 0.0102(9) 0.0070(8)
Cl5 0.0527(10) 0.0342(9) 0.0446(10) -0.0016(7) 0.0102(8) 0.0088(7)
Cl6 0.0448(9) 0.0375(9) 0.0389(10) -0.0050(7) 0.0110(8) -0.0003(7)
Cl7 0.0338(8) 0.0367(9) 0.0572(11) -0.0052(8) 0.0027(8) -0.0043(7)
Cl8 0.0427(9) 0.0357(9) 0.0748(14) -0.0122(9) 0.0042(9) -0.0026(7)
F1 0.057(2) 0.045(2) 0.047(2) -0.0082(19) 0.0074(19) -0.0043(19)
F2 0.068(3) 0.077(3) 0.053(3) 0.001(2) 0.023(2) 0.013(2)
F3 0.049(3) 0.104(4) 0.088(4) 0.022(3) 0.027(2) -0.013(2)
F4 0.056(3) 0.059(3) 0.101(4) 0.007(3) -0.001(3) -0.020(2)
F5 0.056(2) 0.052(2) 0.061(3) -0.009(2) 0.001(2) -0.009(2)
F6 0.038(2) 0.041(2) 0.060(3) -0.0002(19) -0.0076(19) 0.0030(17)
F7 0.061(3) 0.035(2) 0.074(3) 0.001(2) -0.015(2) -0.0004(19)
F8 0.058(3) 0.043(2) 0.080(3) 0.006(2) -0.011(2) 0.011(2)
F9 0.042(2) 0.053(2) 0.057(3) 0.002(2) -0.0088(19) 0.0068(18)
F10 0.050(2) 0.045(2) 0.056(3) -0.0046(19) -0.0058(19) -0.0032(19)
F11 0.042(2) 0.086(3) 0.053(3) 0.021(2) -0.010(2) -0.004(2)
F12 0.064(3) 0.067(3) 0.039(2) 0.012(2) 0.004(2) -0.008(2)
F13 0.047(2) 0.045(2) 0.060(3) 0.0039(19) 0.013(2) -0.0020(18)
F14 0.030(2) 0.044(2) 0.073(3) 0.004(2) 0.0000(19) -0.0011(17)
F15 0.038(2) 0.050(2) 0.042(2) 0.0060(18) -0.0060(18) 0.0010(17)
F16 0.064(3) 0.073(3) 0.056(3) -0.001(2) -0.012(2) -0.010(2)
F17 0.060(3) 0.084(3) 0.109(4) 0.041(3) -0.027(3) -0.014(2)
F18 0.066(3) 0.043(3) 0.158(5) 0.012(3) 0.007(3) 0.012(2)
F19 0.094(4) 0.053(3) 0.097(4) -0.028(3) 0.032(3) -0.008(2)
F20 0.091(3) 0.060(3) 0.054(3) -0.006(2) 0.005(3) -0.010(2)
C1 0.031(3) 0.032(4) 0.053(5) -0.006(3) 0.004(3) 0.002(3)
C2 0.034(4) 0.035(4) 0.047(4) -0.003(3) -0.001(3) 0.009(3)
C3 0.027(3) 0.044(4) 0.037(4) -0.003(3) 0.001(3) 0.003(3)
C4 0.027(3) 0.030(3) 0.045(4) -0.012(3) 0.008(3) 0.001(3)
C5 0.030(3) 0.040(4) 0.034(4) -0.005(3) 0.004(3) -0.001(3)
C6 0.032(3) 0.034(3) 0.035(4) -0.002(3) 0.004(3) -0.005(3)
C7 0.042(4) 0.036(4) 0.033(4) 0.002(3) 0.011(3) -0.003(3)
C8 0.046(4) 0.032(3) 0.040(4) 0.002(3) 0.004(3) 0.005(3)
C9 0.039(4) 0.032(3) 0.040(4) -0.004(3) 0.006(3) -0.002(3)
C10 0.036(3) 0.034(3) 0.030(4) -0.004(3) -0.001(3) 0.001(3)
C11 0.033(3) 0.028(3) 0.029(4) 0.000(3) 0.001(3) 0.007(3)
C12 0.032(3) 0.029(3) 0.037(4) 0.003(3) 0.000(3) 0.000(3)
C13 0.034(3) 0.038(4) 0.030(4) -0.005(3) 0.001(3) -0.004(3)
C14 0.027(3) 0.026(3) 0.033(4) -0.004(3) -0.002(3) 0.002(3)
C15 0.027(3) 0.042(4) 0.030(4) -0.002(3) -0.001(3) 0.004(3)
C16 0.032(3) 0.031(3) 0.041(4) -0.001(3) -0.002(3) -0.003(3)
C17 0.026(3) 0.039(4) 0.042(4) 0.003(3) 0.002(3) -0.003(3)
C18 0.034(3) 0.027(3) 0.051(4) -0.006(3) 0.001(3) 0.001(3)
C19 0.031(3) 0.029(3) 0.046(4) -0.013(3) 0.000(3) -0.005(3)
C20 0.037(4) 0.032(4) 0.052(5) -0.003(3) -0.003(3) 0.001(3)
C21 0.038(4) 0.035(4) 0.040(4) -0.003(3) 0.006(3) -0.001(3)
C22 0.048(4) 0.036(4) 0.044(4) 0.004(3) 0.009(3) -0.002(3)
C23 0.050(4) 0.054(5) 0.038(4) -0.001(4) 0.009(4) 0.013(4)
C24 0.042(4) 0.067(5) 0.063(6) 0.016(5) 0.012(4) -0.006(4)
C25 0.043(4) 0.050(5) 0.070(6) 0.008(4) 0.002(4) -0.004(4)
C26 0.043(4) 0.042(4) 0.045(4) -0.009(3) 0.003(3) -0.003(3)
C27 0.038(4) 0.028(3) 0.035(4) -0.002(3) 0.003(3) 0.002(3)
C28 0.042(4) 0.034(4) 0.036(4) 0.008(3) 0.000(3) -0.001(3)
C29 0.049(4) 0.025(3) 0.045(4) 0.000(3) 0.003(3) -0.004(3)
C30 0.049(4) 0.033(4) 0.042(4) 0.006(3) 0.000(3) 0.008(3)
C31 0.042(4) 0.049(4) 0.040(4) 0.004(3) -0.005(3) 0.008(3)
C32 0.040(4) 0.032(4) 0.039(4) -0.004(3) 0.006(3) -0.006(3)
C33 0.035(3) 0.026(3) 0.027(4) -0.006(3) -0.001(3) 0.002(3)
C34 0.033(4) 0.047(4) 0.045(4) -0.004(3) -0.007(3) 0.003(3)
C35 0.059(5) 0.040(4) 0.030(4) 0.004(3) -0.004(3) -0.004(3)
C36 0.032(4) 0.040(4) 0.046(4) 0.002(3) 0.010(3) -0.002(3)
C37 0.030(3) 0.030(3) 0.048(4) -0.003(3) -0.002(3) 0.000(3)
C38 0.039(4) 0.027(3) 0.032(4) 0.001(3) -0.001(3) -0.001(3)
C39 0.030(3) 0.037(4) 0.053(5) -0.003(3) 0.006(3) -0.002(3)
C40 0.036(4) 0.043(4) 0.053(5) -0.009(4) -0.003(3) -0.003(3)
C41 0.036(4) 0.061(5) 0.068(6) 0.023(5) -0.013(4) -0.003(4)
C42 0.045(4) 0.037(4) 0.085(7) -0.004(5) -0.001(4) 0.007(3)
C43 0.052(5) 0.042(4) 0.080(6) -0.014(4) 0.020(4) 0.001(4)
C44 0.052(4) 0.037(4) 0.061(5) -0.004(4) -0.011(4) 0.004(3)
C45 0.043(4) 0.040(4) 0.034(4) -0.007(3) 0.000(3) 0.000(3)
C46 0.051(5) 0.075(5) 0.037(4) -0.011(4) 0.004(4) 0.004(4)
C47 0.051(4) 0.055(4) 0.048(5) -0.014(4) 0.004(4) 0.007(4)
C48 0.056(5) 0.074(5) 0.051(5) 0.002(4) -0.011(4) 0.005(4)
C49 0.034(3) 0.030(3) 0.045(4) 0.004(3) 0.003(3) 0.002(3)
C50 0.044(4) 0.042(4) 0.047(4) 0.006(3) -0.011(3) -0.005(3)
C51 0.046(4) 0.031(4) 0.047(4) 0.004(3) -0.002(3) -0.008(3)
C52 0.062(5) 0.047(4) 0.055(5) -0.010(4) -0.027(4) 0.003(4)
loop_
_atom_type_symbol
_atom_type_description
_atom_type_scat_dispersion_real
_atom_type_scat_dispersion_imag
_atom_type_scat_source
C C 0.0033 0.0016 'International Tables Vol C Tables 4.2.6.8 and 6.1.1.4'
H H 0.0000 0.0000 'International Tables Vol C Tables 4.2.6.8 and 6.1.1.4'
N N 0.0061 0.0033 'International Tables Vol C Tables 4.2.6.8 and 6.1.1.4'
F F 0.0171 0.0103 'International Tables Vol C Tables 4.2.6.8 and 6.1.1.4'
Cl Cl 0.1484 0.1585 'International Tables Vol C Tables 4.2.6.8 and 6.1.1.4'
Fe Fe 0.3463 0.8444 'International Tables Vol C Tables 4.2.6.8 and 6.1.1.4'
loop_
_geom_angle_atom_site_label_1
_geom_angle_atom_site_label_2
_geom_angle_atom_site_label_3
_geom_angle
N4 Fe1 N3 90.19(19)
N4 Fe1 N1 90.24(19)
N3 Fe1 N1 173.9(2)
N4 Fe1 N2 173.3(2)
N3 Fe1 N2 89.91(19)
N1 Fe1 N2 90.4(2)
N4 Fe1 N7 93.4(2)
N3 Fe1 N7 87.55(19)
N1 Fe1 N7 86.38(19)
N2 Fe1 N7 93.3(2)
N4 Fe1 N5 89.1(2)
N3 Fe1 N5 92.5(2)
N1 Fe1 N5 93.6(2)
N2 Fe1 N5 84.2(2)
N7 Fe1 N5 177.5(2)
C1 N1 C4 107.4(5)
C1 N1 Fe1 126.0(4)
C4 N1 Fe1 124.6(4)
C9 N2 C6 107.5(5)
C9 N2 Fe1 123.5(4)
C6 N2 Fe1 125.7(4)
C11 N3 C14 106.4(4)
C11 N3 Fe1 127.0(4)
C14 N3 Fe1 125.5(4)
C19 N4 C16 106.3(5)
C19 N4 Fe1 125.9(4)
C16 N4 Fe1 126.1(4)
C45 N5 C47 105.1(6)
C45 N5 Fe1 127.3(4)
C47 N5 Fe1 126.3(4)
C45 N6 C46 107.5(6)
C45 N6 C48 127.0(6)
C46 N6 C48 125.5(6)
C49 N7 C51 105.5(5)
C49 N7 Fe1 126.9(4)
C51 N7 Fe1 127.6(4)
C49 N8 C50 108.1(5)
C49 N8 C52 126.0(5)
C50 N8 C52 125.7(6)
N1 C1 C20 124.6(5)
N1 C1 C2 108.3(5)
C20 C1 C2 127.0(6)
C3 C2 C1 108.0(5)
C3 C2 Cl1 123.4(5)
C1 C2 Cl1 128.7(5)
C2 C3 C4 107.8(5)
C2 C3 Cl2 123.1(5)
C4 C3 Cl2 128.9(5)
N1 C4 C5 125.1(5)
N1 C4 C3 108.3(5)
C5 C4 C3 126.0(5)
C6 C5 C4 122.6(5)
C6 C5 C21 119.0(5)
C4 C5 C21 118.4(5)
N2 C6 C5 125.0(5)
N2 C6 C7 108.0(5)
C5 C6 C7 127.0(6)
C8 C7 C6 108.7(5)
C8 C7 Cl3 122.1(5)
C6 C7 Cl3 129.1(5)
C7 C8 C9 106.8(5)
C7 C8 Cl4 126.1(5)
C9 C8 Cl4 127.0(5)
N2 C9 C10 124.3(6)
N2 C9 C8 108.7(5)
C10 C9 C8 126.6(6)
C11 C10 C9 123.4(5)
C11 C10 C27 116.4(5)
C9 C10 C27 120.2(5)
N3 C11 C10 123.2(5)
N3 C11 C12 109.8(5)
C10 C11 C12 126.9(5)
C13 C12 C11 107.0(5)
C13 C12 Cl5 123.1(5)
C11 C12 Cl5 129.8(4)
C12 C13 C14 107.5(5)
C12 C13 Cl6 123.9(5)
C14 C13 Cl6 128.5(5)
C15 C14 N3 123.1(5)
C15 C14 C13 127.0(5)
N3 C14 C13 108.8(5)
C14 C15 C16 123.8(5)
C14 C15 C33 117.4(5)
C16 C15 C33 118.7(5)
N4 C16 C15 123.7(5)
N4 C16 C17 108.5(5)
C15 C16 C17 127.7(6)
C18 C17 C16 108.2(5)
C18 C17 Cl7 123.5(5)
C16 C17 Cl7 128.1(5)
C17 C18 C19 107.2(5)
C17 C18 Cl8 123.9(5)
C19 C18 Cl8 128.5(5)
N4 C19 C20 123.5(5)
N4 C19 C18 109.5(5)
C20 C19 C18 126.4(5)
C1 C20 C19 122.9(5)
C1 C20 C39 120.3(5)
C19 C20 C39 116.6(5)
C26 C21 C22 116.0(6)
C26 C21 C5 123.9(6)
C22 C21 C5 120.0(6)
F1 C22 C23 117.1(6)
F1 C22 C21 120.0(6)
C23 C22 C21 122.9(6)
F2 C23 C22 121.3(7)
F2 C23 C24 119.9(7)
C22 C23 C24 118.9(7)
F3 C24 C25 120.4(7)
F3 C24 C23 119.8(7)
C25 C24 C23 119.8(7)
F4 C25 C24 119.3(7)
F4 C25 C26 120.9(7)
C24 C25 C26 119.8(7)
F5 C26 C25 118.1(6)
F5 C26 C21 119.4(6)
C25 C26 C21 122.6(7)
C28 C27 C32 116.7(5)
C28 C27 C10 122.1(6)
C32 C27 C10 121.0(5)
F6 C28 C29 118.2(5)
F6 C28 C27 119.9(5)
C29 C28 C27 121.8(6)
F7 C29 C28 120.1(6)
F7 C29 C30 120.4(5)
C28 C29 C30 119.5(6)
F8 C30 C31 119.7(6)
F8 C30 C29 120.0(6)
C31 C30 C29 120.3(6)
F9 C31 C30 120.5(6)
F9 C31 C32 119.7(6)
C30 C31 C32 119.7(6)
F10 C32 C31 119.0(6)
F10 C32 C27 119.1(5)
C31 C32 C27 121.9(6)
C38 C33 C34 116.5(6)
C38 C33 C15 120.8(5)
C34 C33 C15 122.7(5)
F11 C34 C35 118.5(6)
F11 C34 C33 119.4(6)
C35 C34 C33 122.0(6)
F12 C35 C36 119.7(6)
F12 C35 C34 120.9(6)
C36 C35 C34 119.4(6)
F13 C36 C37 119.9(6)
F13 C36 C35 120.2(6)
C37 C36 C35 119.9(6)
C36 C37 F14 120.2(6)
C36 C37 C38 119.8(6)
F14 C37 C38 120.0(6)
F15 C38 C33 119.3(5)
F15 C38 C37 118.3(5)
C33 C38 C37 122.4(6)
C40 C39 C44 115.6(6)
C40 C39 C20 120.5(6)
C44 C39 C20 123.8(7)
F16 C40 C39 118.5(6)
F16 C40 C41 118.6(7)
C39 C40 C41 122.8(7)
F17 C41 C42 121.7(7)
F17 C41 C40 119.4(8)
C42 C41 C40 118.9(7)
C41 C42 C43 121.4(7)
C41 C42 F18 119.0(8)
C43 C42 F18 119.6(8)
C42 C43 F19 120.9(7)
C42 C43 C44 119.6(8)
F19 C43 C44 119.5(8)
F20 C44 C39 119.9(6)
F20 C44 C43 118.0(7)
C39 C44 C43 121.6(7)
N5 C45 N6 111.6(6)
N5 C45 H45A 124.2
N6 C45 H45A 124.2
N6 C46 C47 106.2(6)
N6 C46 H46A 126.9
C47 C46 H46A 126.9
C46 C47 N5 109.6(6)
C46 C47 H47A 125.2
N5 C47 H47A 125.2
N6 C48 H48A 109.5
N6 C48 H48B 109.5
H48A C48 H48B 109.5
N6 C48 H48C 109.5
H48A C48 H48C 109.5
H48B C48 H48C 109.5
N7 C49 N8 110.8(5)
N7 C49 H49A 124.6
N8 C49 H49A 124.6
C51 C50 N8 105.9(6)
C51 C50 H50A 127.0
N8 C50 H50A 127.0
C50 C51 N7 109.7(6)
C50 C51 H51A 125.2
N7 C51 H51A 125.2
N8 C52 H52A 109.5
N8 C52 H52B 109.5
H52A C52 H52B 109.5
N8 C52 H52C 109.5
H52A C52 H52C 109.5
H52B C52 H52C 109.5
loop_
_geom_bond_atom_site_label_1
_geom_bond_atom_site_label_2
_geom_bond_distance
Fe1 N4 1.968(5)
Fe1 N3 1.976(5)
Fe1 N1 1.984(5)
Fe1 N2 1.996(5)
Fe1 N7 1.997(5)
Fe1 N5 1.999(5)
N1 C1 1.378(7)
N1 C4 1.383(7)
N2 C9 1.369(7)
N2 C6 1.377(7)
N3 C11 1.367(7)
N3 C14 1.385(7)
N4 C19 1.379(7)
N4 C16 1.383(7)
N5 C45 1.314(7)
N5 C47 1.376(8)
N6 C45 1.345(8)
N6 C46 1.353(8)
N6 C48 1.463(8)
N7 C49 1.330(7)
N7 C51 1.368(7)
N8 C49 1.334(8)
N8 C50 1.362(8)
N8 C52 1.453(8)
Cl1 C2 1.712(6)
Cl2 C3 1.720(6)
Cl3 C7 1.728(6)
Cl4 C8 1.705(6)
Cl5 C12 1.706(6)
Cl6 C13 1.715(6)
Cl7 C17 1.733(6)
Cl8 C18 1.717(6)
F1 C22 1.355(7)
F2 C23 1.338(7)
F3 C24 1.345(8)
F4 C25 1.347(8)
F5 C26 1.343(7)
F6 C28 1.340(7)
F7 C29 1.342(7)
F8 C30 1.341(7)
F9 C31 1.349(7)
F10 C32 1.344(6)
F11 C34 1.340(7)
F12 C35 1.347(7)
F13 C36 1.349(7)
F14 C37 1.358(7)
F15 C38 1.353(6)
F16 C40 1.342(7)
F17 C41 1.335(8)
F18 C42 1.367(8)
F19 C43 1.359(8)
F20 C44 1.339(8)
C1 C20 1.386(8)
C1 C2 1.445(8)
C2 C3 1.337(8)
C3 C4 1.445(8)
C4 C5 1.390(8)
C5 C6 1.390(8)
C5 C21 1.478(8)
C6 C7 1.437(8)
C7 C8 1.333(8)
C8 C9 1.449(8)
C9 C10 1.395(8)
C10 C11 1.392(8)
C10 C27 1.489(8)
C11 C12 1.447(8)
C12 C13 1.345(8)
C13 C14 1.449(8)
C14 C15 1.385(8)
C15 C16 1.390(8)
C15 C33 1.493(8)
C16 C17 1.437(8)
C17 C18 1.340(8)
C18 C19 1.430(8)
C19 C20 1.409(8)
C20 C39 1.493(8)
C21 C26 1.369(8)
C21 C22 1.380(9)
C22 C23 1.371(9)
C23 C24 1.372(10)
C24 C25 1.366(10)
C25 C26 1.369(9)
C27 C28 1.379(8)
C27 C32 1.396(8)
C28 C29 1.373(8)
C29 C30 1.386(9)
C30 C31 1.352(9)
C31 C32 1.375(8)
C33 C38 1.368(8)
C33 C34 1.379(8)
C34 C35 1.373(9)
C35 C36 1.368(9)
C36 C37 1.354(9)
C37 C38 1.370(8)
C39 C40 1.370(9)
C39 C44 1.381(9)
C40 C41 1.383(10)
C41 C42 1.336(10)
C42 C43 1.338(11)
C43 C44 1.384(9)
C45 H45A 0.9500
C46 C47 1.360(9)
C46 H46A 0.9500
C47 H47A 0.9500
C48 H48A 0.9800
C48 H48B 0.9800
C48 H48C 0.9800
C49 H49A 0.9500
C50 C51 1.358(8)
C50 H50A 0.9500
C51 H51A 0.9500
C52 H52A 0.9800
C52 H52B 0.9800
C52 H52C 0.9800
