#------------------------------------------------------------------------------
#$Date: 2016-02-16 22:30:59 +0200 (Tue, 16 Feb 2016) $
#$Revision: 176467 $
#$URL: svn://www.crystallography.net/cod/cif/4/33/36/4333654.cif $
#------------------------------------------------------------------------------
#
# This file is available in the Crystallography Open Database (COD),
# http://www.crystallography.net/
#
# All data on this site have been placed in the public domain by the
# contributors.
#
data_4333654
loop_
_publ_author_name
'Hua Yang'
'Zhimin Wang'
'Hongxiao Jin'
'Bo Hong'
'Ziyang Liu'
'Christine M. Beavers'
'Marilyn M. Olmstead'
'Alan L. Balch'
_publ_contact_author_address
;Advanced Light Source
Lawrence Berkeley National Lab
One Cyclotron Rd
MS 7-222
Berkeley, CA 94720
;
_publ_contact_author_email       cmbeavers@lbl.gov
_publ_contact_author_name        'Christine M. Beavers'
_publ_contact_author_phone       (510)495-2448
_publ_section_title
;
 Isolation and Crystallographic Characterization of Sm@C2v(3)-C80 Through
 Cocrystal Formation with NiII(octaethylporphyrin) or
 Bis(ethylenedithio)tetrathiafulvalene
;
_journal_name_full               'Inorganic Chemistry'
_journal_page_first              1275
_journal_page_last               1284
_journal_paper_doi               10.1021/ic301794r
_journal_volume                  52
_journal_year                    2013
_chemical_formula_moiety         'C80 Sm, C10 H8 S8, 0.5(C7 H8)'
_chemical_formula_sum            'C93.5 H12 S8 Sm'
_chemical_formula_weight         1541.86
_chemical_name_common            Sm@C2v-C80.BEDT-TTF.0.5toluene
_space_group_IT_number           14
_symmetry_cell_setting           monoclinic
_symmetry_space_group_name_Hall  '-P 2ybc'
_symmetry_space_group_name_H-M   'P 1 21/c 1'
_atom_sites_solution_hydrogens   geom
_atom_sites_solution_primary     direct
_atom_sites_solution_secondary   difmap
_audit_creation_method           SHELXL-97
_audit_update_record
;
2012-07-22 # Formatted by publCIF
;
_cell_angle_alpha                90.00
_cell_angle_beta                 101.688(4)
_cell_angle_gamma                90.00
_cell_formula_units_Z            4
_cell_length_a                   10.8264(6)
_cell_length_b                   21.5495(11)
_cell_length_c                   22.5795(11)
_cell_measurement_reflns_used    9884
_cell_measurement_temperature    100(2)
_cell_measurement_theta_max      31.6
_cell_measurement_theta_min      2.79
_cell_volume                     5158.6(5)
_computing_cell_refinement       'SAINT V7.68A (Bruker, 2009)'
_computing_data_collection       'Apex2 (Bruker, 2009)'
_computing_data_reduction        'SAINT V7.68A (Bruker, 2009)'
_computing_molecular_graphics    'SHELXTL 5.1, XP (Sheldrick, 1994)'
_computing_publication_material  'SHELXL-97 (Sheldrick, 2008)'
_computing_structure_refinement  'SHELXL-97 (Sheldrick, 2008)'
_computing_structure_solution    'SHELXS-97 (Sheldrick, 2008)'
_diffrn_ambient_temperature      100(2)
_diffrn_detector_area_resol_mean 8.3
_diffrn_measured_fraction_theta_full 0.999
_diffrn_measured_fraction_theta_max 0.999
_diffrn_measurement_device_type  'Bruker Apex2'
_diffrn_measurement_method       \w
_diffrn_radiation_monochromator  silicon(111)
_diffrn_radiation_source         'Advanced Light Source Beamline 11.3.1'
_diffrn_radiation_type           synchrotron
_diffrn_radiation_wavelength     0.77490
_diffrn_reflns_av_R_equivalents  0.0746
_diffrn_reflns_av_sigmaI/netI    0.0516
_diffrn_reflns_limit_h_max       13
_diffrn_reflns_limit_h_min       -13
_diffrn_reflns_limit_k_max       27
_diffrn_reflns_limit_k_min       0
_diffrn_reflns_limit_l_max       29
_diffrn_reflns_limit_l_min       0
_diffrn_reflns_number            91519
_diffrn_reflns_theta_full        30.00
_diffrn_reflns_theta_max         30.00
_diffrn_reflns_theta_min         2.33
_exptl_absorpt_coefficient_mu    1.917
_exptl_absorpt_correction_T_max  0.9811
_exptl_absorpt_correction_T_min  0.9273
_exptl_absorpt_correction_type   multi-scan
_exptl_absorpt_process_details   'TWINABS-2008/4 (Sheldrick, 2008)'
_exptl_crystal_colour            black
_exptl_crystal_density_diffrn    1.985
_exptl_crystal_description       paralellepiped
_exptl_crystal_F_000             3052
_exptl_crystal_size_max          0.04
_exptl_crystal_size_mid          0.02
_exptl_crystal_size_min          0.01
_refine_diff_density_max         2.543
_refine_diff_density_min         -1.951
_refine_diff_density_rms         0.161
_refine_ls_extinction_method     none
_refine_ls_goodness_of_fit_ref   1.099
_refine_ls_hydrogen_treatment    constr
_refine_ls_matrix_type           full
_refine_ls_number_parameters     1709
_refine_ls_number_reflns         11599
_refine_ls_number_restraints     3895
_refine_ls_restrained_S_all      0.971
_refine_ls_R_factor_all          0.1160
_refine_ls_R_factor_gt           0.0973
_refine_ls_shift/su_max          0.000
_refine_ls_shift/su_mean         0.000
_refine_ls_structure_factor_coef Fsqd
_refine_ls_weighting_details
'calc w=1/[\s^2^(Fo^2^)+(0.1485P)^2^+22.5756P] where P=(Fo^2^+2Fc^2^)/3'
_refine_ls_weighting_scheme      calc
_refine_ls_wR_factor_gt          0.2593
_refine_ls_wR_factor_ref         0.2703
_reflns_number_gt                9344
_reflns_number_total             11599
_reflns_threshold_expression     I>2/s(I)
_iucr_refine_instructions_details
;
TITL cb169 in P2(1)/c
CELL 0.77490  10.8264  21.5495  22.5795  90.000 101.688  90.000
ZERR    4.00   0.0006   0.0011   0.0011   0.000   0.004   0.000
LATT  1
SYMM -X, 0.5+Y, 0.5-Z
SFAC C H S SM
DISP    C   -0.00202   0.00197       13.60
DISP    H    0.00000   0.00000        0.67
DISP    S    0.12060   0.14800      674.22
DISP    Sm  -0.21302   4.00919    18049.14
UNIT 374 48 32 4
TEMP -173
SADI_C2v  0.02 C1 C2 !A
SADI_C2v  0.02 C1 C9 C1 C6 C2 C12 C2 C3 !B
SADI_C2v  0.02 C3 C4 C5 C6 C9 C10 C11 C12 !C
SADI_C2v  0.02 C4 C5 C10 C11 !D
SADI_C2v  0.02 C3 C14 C6 C7 C8 C9 C12 C13 !E
SADI_C2v  0.02 C7 C8 C13 C14 !F
SADI_C2v  0.02 C7 C21 C8 C24 C13 C30 C14 C15 !G
SADI_C2v  0.02 C4 C17 C5 C19 C10 C26 C11 C28 !H
SADI_C2v  0.02 C16 C17 C19 C20 C25 C26 C28 C29 !I
SADI_C2v  0.02 C15 C16 C20 C21 C24 C25 C29 C30 !J
SADI_C2v  0.02 C17 C18 C18 C19 C26 C27 C27 C28 !K
SADI_C2v  0.02 C18 C37 C27 C47 !L
SADI_C2v  0.02 C21 C22 C23 C24 C30 C31 C32 C15 !M
SADI_C2v  0.02 C22 C23 C31 C32 !N
SADI_C2v  0.02 C16 C35 C20 C39 C25 C45 C29 C49 !O
SADI_C2v  0.02 C22 C41 C23 C43 C31 C51 C32 C33 !P
SADI_C2v  0.02 C41 C42 C42 C43 C51 C52 C52 C33 !Q
SADI_C2v  0.02 C40 C41 C43 C44 C33 C34 C50 C51 !R
SADI_C2v  0.02 C34 C35 C39 C40 C44 C45 C49 C50 !S
SADI_C2v  0.02 C35 C36 C38 C39 C45 C46 C48 C49 !T
SADI_C2v  0.02 C36 C37 C37 C38 C46 C47 C47 C48 !U
SADI_C2v  0.02 C36 C57 C38 C58 C46 C66 C48 C67 !V
SADI_C2v  0.02 C57 C58 C66 C67 !W
SADI_C2v  0.02 C56 C57 C58 C59 C65 C66 C67 C68 !X
SADI_C2v  0.02 C55 C56 C59 C60 C64 C65 C68 C69 !Y
SADI_C2v  0.02 C54 C55 C60 C61 C63 C64 C69 C70 !Z
SADI_C2v  0.02 C42 C62 C52 C53 !AA
SADI_C2v  0.02 C53 C54 C61 C62 C62 C63 C53 C70 !BB
SADI_C2v  0.02 C54 C73 C61 C76 C63 C78 C70 C71 !CC
SADI_C2v  0.02 C56 C74 C59 C75 C65 C79 C68 C80 !DD
SADI_C2v  0.02 C74 C75 C79 C80 !EE
SADI_C2v  0.02 C71 C80 C73 C74 C75 C76 C78 C79 !FF
SADI_C2v  0.02 C71 C72 C72 C73 C76 C77 C77 C78 !GG
SADI_C2v  0.02 C72 C77 !HH
SIMU_C2v  0.03
ISOR 0.01 C63_2
SIZE 0.04 0.02 0.01 ! black paralellepiped
MERG 0
L.S. 12
ACTA
OMIT 0 60
BOND $H
Omit  0   2   0
Omit    -1   1   2
Omit     1   0   0
Omit     0   0   2
Omit     0   1   1
OMIT  -1   0   2
SIMU 0.03 Sm1 Sm2 Sm3 Sm4
SUMP 1.0000 0.00001 1 2 1 3 1 4 1 6
SIMU 0.02 C1s > C7s
 
WGHT    0.148500   22.575600
BASF   0.25231
FVAR       0.21840   0.33240   0.29598   0.24270   0.58328   0.12887
SM1   4    0.025953    0.821311    0.583784    21.00000    0.09315    0.04705 =
         0.02308    0.00662    0.00792   -0.00636
SM2   4    0.083263    0.737459    0.725716    31.00000    0.04729    0.03254 =
         0.03044    0.01152    0.00442    0.00594
SM3   4    0.047123    0.723672    0.616664    41.00000    0.04883    0.04251 =
         0.04361   -0.01709    0.00574    0.00157
SM4   4    0.038765    0.772926    0.585603    61.00000    0.19830    0.13647 =
         0.08252   -0.03787    0.05262   -0.02380
PART   1
 
RESI 1 C2V
C1    1   -0.121802    0.986950    0.633946    51.00000    0.06242    0.03793 =
         0.09848    0.00522    0.02757    0.01885
C2    1   -0.002449    0.996295    0.632139    51.00000    0.06687    0.03276 =
         0.08440    0.01128    0.02502    0.01079
C9    1   -0.197501    0.950374    0.584771    51.00000    0.07802    0.05070 =
         0.10169    0.02835   -0.00279    0.03965
C3    1    0.096168    0.991880    0.686423    51.00000    0.06413    0.01597 =
         0.07968   -0.00782    0.01912   -0.00511
C4    1    0.065805    0.978234    0.739342    51.00000    0.07226    0.03177 =
         0.08425   -0.02408    0.02117    0.00452
C5    1   -0.069373    0.963822    0.739363    51.00000    0.07245    0.01677 =
         0.09106   -0.01855    0.03242   -0.00780
C6    1   -0.160679    0.968767    0.689214    51.00000    0.08136    0.01446 =
         0.08553    0.00825    0.03175    0.02415
C7    1   -0.250908    0.915995    0.673326    51.00000    0.03874    0.06259 =
         0.07531    0.01217    0.02449    0.02225
C8    1   -0.277085    0.905775    0.611766    51.00000    0.05035    0.07745 =
         0.08156    0.01007   -0.00160    0.04447
C10   1   -0.151611    0.931369    0.536652    51.00000    0.08054    0.06605 =
         0.06212    0.03597    0.01411    0.02778
C11   1   -0.018488    0.946620    0.534258    51.00000    0.08917    0.06920 =
         0.08342    0.05541    0.00069    0.00318
C12   1    0.052122    0.973768    0.582102    51.00000    0.09632    0.02861 =
         0.08655    0.03210    0.01589    0.00283
C13   1    0.184579    0.954651    0.608890    51.00000    0.07826    0.03521 =
         0.08749    0.02068    0.02562   -0.00708
C14   1    0.211830    0.965443    0.669874    51.00000    0.06452    0.01536 =
         0.08146   -0.01587    0.01856   -0.01197
C15   1    0.285446    0.923404    0.712736    51.00000    0.05590    0.04036 =
         0.08032   -0.02094    0.00687   -0.00708
C16   1    0.251994    0.911244    0.770809    51.00000    0.06498    0.05903 =
         0.06426   -0.02797   -0.00836   -0.01512
C17   1    0.142186    0.937219    0.783099    51.00000    0.07323    0.04584 =
         0.06020   -0.03645    0.00526   -0.01291
C18   1    0.056320    0.903488    0.814919    51.00000    0.08293    0.06109 =
         0.05404   -0.03620    0.00923   -0.00835
C19   1   -0.075716    0.914404    0.783455    51.00000    0.06887    0.03697 =
         0.08380   -0.01752    0.03774    0.00433
C20   1   -0.156291    0.863659    0.774434    51.00000    0.05259    0.07281 =
         0.07066   -0.00679    0.04327   -0.00008
C21   1   -0.249758    0.867891    0.718383    51.00000    0.04687    0.07161 =
         0.07079    0.01602    0.03071    0.03022
C22   1   -0.298985    0.810702    0.693972    51.00000    0.02703    0.07941 =
         0.08124    0.01151    0.03094    0.00179
C23   1   -0.323540    0.800367    0.628164    51.00000    0.01854    0.08215 =
         0.07909    0.00600    0.01649   -0.01174
C24   1   -0.302170    0.844169    0.585521    51.00000    0.04075    0.07554 =
         0.07207    0.02918   -0.00848    0.02101
C25   1   -0.252584    0.824945    0.532746    51.00000    0.04848    0.09325 =
         0.03873    0.02374   -0.00991    0.01213
C26   1   -0.182315    0.870308    0.509435    51.00000    0.06839    0.09663 =
         0.04867    0.02769   -0.01959    0.02889
C27   1   -0.072528    0.851221    0.484895    51.00000    0.08177    0.10310 =
         0.04691    0.03103   -0.00129    0.01448
C28   1    0.033471    0.894159    0.506818    51.00000    0.07251    0.07851 =
         0.05421    0.05077    0.02637    0.01763
C29   1    0.154445    0.871404    0.530432    51.00000    0.07623    0.09901 =
         0.04845    0.02596    0.02956   -0.00705
C30   1    0.234715    0.901948    0.581984    51.00000    0.07113    0.07110 =
         0.07890    0.02789    0.03527   -0.02560
C31   1    0.329002    0.870046    0.622153    51.00000    0.05481    0.05826 =
         0.06381   -0.00202    0.02583   -0.01843
C32   1    0.354291    0.880513    0.686453    51.00000    0.03588    0.04500 =
         0.07073   -0.02015    0.01018   -0.00813
C33   1    0.390245    0.821932    0.713972    51.00000    0.01827    0.05831 =
         0.05672   -0.01543   -0.00111   -0.00836
C34   1    0.360364    0.804445    0.769380    51.00000    0.03087    0.07222 =
         0.04348    0.00333   -0.01698   -0.00741
C35   1    0.288318    0.849075    0.797881    51.00000    0.04971    0.08527 =
         0.04285   -0.02843   -0.02128   -0.01177
C36   1    0.216584    0.825669    0.838997    51.00000    0.07163    0.10565 =
         0.02349   -0.03147   -0.00819    0.00698
C37   1    0.092471    0.850240    0.841692    51.00000    0.06354    0.08563 =
         0.02951   -0.02081    0.00605    0.00004
C38   1    0.002549    0.800102    0.838946    51.00000    0.08011    0.08636 =
         0.03203   -0.00663    0.03560   -0.00125
C39   1   -0.121055    0.802331    0.803020    51.00000    0.05602    0.07351 =
         0.04273    0.01048    0.03309    0.01317
C40   1   -0.176441    0.745096    0.775699    51.00000    0.05712    0.07597 =
         0.05209    0.00329    0.03413   -0.00806
C41   1   -0.270109    0.751800    0.722235    51.00000    0.03917    0.10526 =
         0.08146    0.00533    0.03527   -0.01400
C42   1   -0.275637    0.706494    0.675502    51.00000    0.02625    0.05395 =
         0.07882   -0.00248    0.02637   -0.02411
C43   1   -0.305700    0.735044    0.616624    51.00000    0.02663    0.06866 =
         0.06436   -0.01042    0.00397   -0.01194
C44   1   -0.262417    0.712884    0.565007    51.00000    0.03463    0.07305 =
         0.05057   -0.01542   -0.00974   -0.00904
C45   1   -0.222530    0.758634    0.524574    51.00000    0.04543    0.10165 =
         0.03081   -0.01822   -0.02291   -0.01680
C46   1   -0.129962    0.744516    0.489923    51.00000    0.06634    0.11318 =
         0.03207   -0.02683   -0.01470   -0.00461
C47   1   -0.049339    0.791831    0.473256    51.00000    0.07777    0.09713 =
         0.01440    0.00247    0.00320    0.02925
C48   1    0.077803    0.767523    0.489341    51.00000    0.07731    0.11531 =
         0.03432   -0.01643    0.02732    0.00276
C49   1    0.179385    0.804259    0.518240    51.00000    0.06973    0.06632 =
         0.04786    0.02841    0.03288    0.00024
C50   1    0.277075    0.770503    0.561913    51.00000    0.05007    0.07210 =
         0.06707    0.00017    0.03488    0.00554
C51   1    0.348483    0.804467    0.610411    51.00000    0.03760    0.06401 =
         0.05916    0.00903    0.03140   -0.00020
C52   1    0.393752    0.777064    0.667831    51.00000    0.02395    0.04702 =
         0.05528    0.01123    0.00621   -0.00070
C53   1    0.370092    0.713075    0.677712    51.00000    0.01993    0.05006 =
         0.05127    0.00273    0.00816    0.00917
C54   1    0.347584    0.694656    0.734114    51.00000    0.03574    0.04751 =
         0.05384    0.00865    0.00257    0.00776
C55   1    0.346054    0.741494    0.782050    51.00000    0.03692    0.07059 =
         0.04184   -0.00367   -0.01415    0.01049
C56   1    0.261929    0.718334    0.818851    51.00000    0.06499    0.08914 =
         0.04391    0.02153   -0.01897    0.01748
C57   1    0.202593    0.762401    0.846149    51.00000    0.07134    0.09746 =
         0.02281    0.00316   -0.01640    0.01293
C58   1    0.066207    0.744667    0.846572    51.00000    0.08536    0.10058 =
         0.02588    0.01653    0.01822    0.00582
C59   1    0.016572    0.689567    0.822159    51.00000    0.09818    0.07659 =
         0.02687    0.03276    0.02523    0.01393
C60   1   -0.108013    0.690993    0.785211    51.00000    0.07463    0.06507 =
         0.05953    0.02390    0.02816   -0.02447
C61   1   -0.111459    0.641621    0.738255    51.00000    0.08846    0.04794 =
         0.06630    0.01286    0.03602   -0.01849
C62   1   -0.190344    0.654367    0.682299    51.00000    0.06584    0.03784 =
         0.08625    0.00263    0.02445   -0.03501
C63   1   -0.153374    0.625524    0.633505    51.00000    0.07330    0.02857 =
         0.09772   -0.02035    0.02563   -0.01743
C64   1   -0.192295    0.656264    0.574243    51.00000    0.06183    0.05310 =
         0.07628   -0.03187   -0.00704   -0.00400
C65   1   -0.093343    0.645236    0.543025    51.00000    0.07154    0.05057 =
         0.06591   -0.02838    0.00741   -0.01599
C66   1   -0.066542    0.689447    0.503720    51.00000    0.07619    0.09053 =
         0.04709   -0.02997   -0.00237   -0.00960
C67   1    0.069852    0.704720    0.500496    51.00000    0.07261    0.08272 =
         0.03346   -0.03652    0.02486   -0.00459
C68   1    0.162708    0.673163    0.538688    51.00000    0.07267    0.06681 =
         0.04536   -0.03508    0.02110    0.00933
C69   1    0.272471    0.707183    0.565633    51.00000    0.05682    0.05653 =
         0.05925   -0.01503    0.02626    0.01090
C70   1    0.314453    0.679105    0.626281    51.00000    0.05039    0.04683 =
         0.05679   -0.00884    0.02542    0.00945
C71   1    0.225490    0.629848    0.631131    51.00000    0.06260    0.03852 =
         0.07195   -0.01358    0.01299    0.02781
C72   1    0.188754    0.616933    0.687490    51.00000    0.06505    0.02104 =
         0.08029    0.01543    0.01470    0.01839
C73   1    0.262343    0.644018    0.740980    51.00000    0.04533    0.04814 =
         0.06686    0.01322    0.00949    0.02423
C74   1    0.214990    0.657240    0.793588    51.00000    0.06835    0.06897 =
         0.05771    0.02959   -0.00029    0.02324
C75   1    0.094891    0.645729    0.796361    51.00000    0.08357    0.06475 =
         0.04559    0.03427    0.01780    0.01684
C76   1    0.017075    0.618164    0.744741    51.00000    0.10101    0.02513 =
         0.04923    0.01399    0.03517   -0.01254
C77   1    0.065377    0.599848    0.693303    51.00000    0.08245    0.02146 =
         0.08099    0.01722    0.02493   -0.00148
C78   1   -0.028416    0.600021    0.638092    51.00000    0.08094    0.01680 =
         0.07514   -0.01829    0.01678   -0.01346
C79   1    0.009012    0.611876    0.581807    51.00000    0.07406    0.03524 =
         0.08603   -0.03292    0.00820   -0.00224
C80   1    0.129411    0.625266    0.578461    51.00000    0.05724    0.03806 =
         0.06914   -0.03557    0.01951    0.00833
PART   0
 
RESI 0
S1    3    0.631284    0.867787    0.861512    11.00000    0.03660    0.03383 =
         0.03357   -0.00470    0.01331   -0.00717
S2    3    0.622050    0.722494    0.866282    11.00000    0.03701    0.03280 =
         0.03412   -0.00091    0.01523   -0.00385
S3    3    0.471176    0.880280    0.951026    11.00000    0.04312    0.03457 =
         0.02548   -0.00432    0.01146   -0.00472
S4    3    0.459840    0.724795    0.956522    11.00000    0.03706    0.03636 =
         0.02903    0.00141    0.01108   -0.00446
S5    3    0.407099    0.590493    0.951034    11.00000    0.05131    0.04007 =
         0.03669    0.00660    0.01283   -0.01033
S6    3    0.595014    0.590175    0.839701    11.00000    0.05426    0.03252 =
         0.03960   -0.00394    0.01508    0.00012
S7    3    0.572783    0.990162    0.805245    11.00000    0.06177    0.03779 =
         0.03811    0.00225    0.01612   -0.00835
S8    3    0.388662    1.008763    0.915900    11.00000    0.05547    0.03586 =
         0.04719   -0.00355    0.01675    0.00370
C1    1    0.544568    0.829597    0.908311    11.00000    0.03571    0.03817 =
         0.02337   -0.00812    0.01158   -0.00732
C2    1    0.540430    0.768331    0.909999    11.00000    0.02950    0.02802 =
         0.02494    0.00027    0.00763    0.00283
C3    1    0.479658    0.652755    0.923294    11.00000    0.03820    0.03227 =
         0.02266    0.00036   -0.00111   -0.00036
C4    1    0.544753    0.936807    0.859687    11.00000    0.03703    0.03043 =
         0.03029   -0.00374    0.00562   -0.00760
C5    1    0.496525    0.528019    0.925639    11.00000    0.06509    0.02925 =
         0.04246    0.00662    0.00472   -0.01294
AFIX  23
H5A   2    0.585632    0.530520    0.947186    11.00000   -1.20000
H5B   2    0.462246    0.487586    0.935509    11.00000   -1.20000
AFIX   0
C6    1    0.552458    0.651776    0.881274    11.00000    0.03644    0.03262 =
         0.02309    0.00638   -0.00030   -0.00195
C7    1    0.474199    0.943445    0.901556    11.00000    0.03845    0.03290 =
         0.03058   -0.00303    0.00822   -0.00494
C8    1    0.479076    1.066720    0.885589    11.00000    0.05213    0.03196 =
         0.05473    0.00060    0.01209    0.00644
AFIX  23
H8A   2    0.444148    1.108325    0.890959    11.00000   -1.20000
H8B   2    0.567432    1.065769    0.908329    11.00000   -1.20000
AFIX   0
C9    1    0.476887    1.055887    0.818564    11.00000    0.05610    0.04749 =
         0.04864    0.01005   -0.00543   -0.00238
AFIX  23
H9A   2    0.507839    1.093676    0.801310    11.00000   -1.20000
H9B   2    0.388731    1.048780    0.797231    11.00000   -1.20000
AFIX   0
C10   1    0.490196    0.531901    0.858765    11.00000    0.05292    0.03195 =
         0.03902   -0.00171    0.00235   -0.00374
AFIX  23
H10A  2    0.402663    0.541693    0.838186    11.00000   -1.20000
H10B  2    0.512616    0.491059    0.843849    11.00000   -1.20000
AFIX   0
PART  -1
C1S   1    0.005933    1.033809    1.046836    10.50000    0.04230    0.04421 =
         0.02033   -0.00829   -0.00280   -0.01037
AFIX  43
H1SA  2    0.042842    1.057318    1.081509    10.50000   -1.20000
AFIX   0
C2S   1   -0.122359    1.028210    1.030516    10.50000    0.05532    0.04930 =
         0.02856    0.00284    0.00636   -0.00083
AFIX  43
H2SA  2   -0.173509    1.045912    1.055680    10.50000   -1.20000
AFIX   0
C3S   1   -0.179964    0.997276    0.978038    10.50000    0.04667    0.04275 =
         0.03374    0.00193   -0.00876   -0.01479
AFIX  43
H3SA  2   -0.269270    0.995070    0.966639    10.50000   -1.20000
AFIX   0
C4S   1   -0.106779    0.970664    0.943921    10.50000    0.05349    0.04177 =
         0.03603   -0.00573   -0.00955   -0.01209
AFIX  43
H4SA  2   -0.144563    0.948283    0.908641    10.50000   -1.20000
AFIX   0
C5S   1    0.024195    0.975490    0.959677    10.50000    0.03823    0.03607 =
         0.02552   -0.00947    0.00226   -0.00425
AFIX  43
H5SA  2    0.074958    0.958369    0.934029    10.50000   -1.20000
AFIX   0
C6S   1    0.080598    1.005346    1.012908    10.50000    0.04438    0.03147 =
         0.03295   -0.00193   -0.01140   -0.00289
C7S   1    0.221418    1.009320    1.033367    10.50000    0.04208    0.06172 =
         0.03619   -0.00080   -0.00397    0.00563
AFIX 137
H7SA  2    0.243558    1.006718    1.077583    10.50000   -1.50000
H7SB  2    0.251364    1.048866    1.020101    10.50000   -1.50000
H7SC  2    0.261136    0.974966    1.015754    10.50000   -1.50000
AFIX   0
PART   2
 
RESI 2 C2V
C1    1    0.131168    0.629633    0.780843   -51.00000    0.09170    0.04923 =
         0.05112    0.02817    0.02288    0.02309
C2    1    0.005861    0.624372    0.768905   -51.00000    0.10345    0.03967 =
         0.05662    0.02373    0.02531   -0.01073
C3    1   -0.084502    0.666649    0.788358   -51.00000    0.09618    0.05149 =
         0.06146    0.02773    0.02956   -0.01530
C4    1   -0.035146    0.711833    0.825609   -51.00000    0.10420    0.08989 =
         0.04652    0.01587    0.03349   -0.00010
C5    1    0.103246    0.721999    0.843996   -51.00000    0.08349    0.08480 =
         0.02350    0.03242    0.00308    0.00689
C6    1    0.174673    0.683092    0.820003   -51.00000    0.06746    0.05729 =
         0.02612    0.02684    0.01219    0.02599
C7    1    0.285657    0.709668    0.798415   -51.00000    0.05459    0.07432 =
         0.04840    0.02435   -0.01613    0.00698
C8    1    0.309808    0.676732    0.750054   -51.00000    0.04518    0.05614 =
         0.06047    0.01607    0.00758    0.02199
C9    1    0.215318    0.626136    0.737945   -51.00000    0.07344    0.04573 =
         0.06450    0.01480    0.01268    0.02285
C10   1    0.164107    0.608547    0.681383   -51.00000    0.06967    0.03279 =
         0.09355   -0.00352    0.01403    0.01596
C11   1    0.024106    0.601119    0.664062   -51.00000    0.08746    0.01198 =
         0.08500   -0.00745    0.01163   -0.01274
C12   1   -0.046475    0.608194    0.706058   -51.00000    0.09875    0.02498 =
         0.08143    0.00993    0.03657   -0.02024
C13   1   -0.172763    0.638214    0.690740   -51.00000    0.07753    0.04181 =
         0.09593   -0.00740    0.02059   -0.04141
C14   1   -0.191364    0.677793    0.736603   -51.00000    0.07740    0.05392 =
         0.08088    0.00878    0.03567   -0.03080
C15   1   -0.242208    0.739884    0.728035   -51.00000    0.05656    0.09920 =
         0.08482    0.00031    0.04287   -0.01641
C16   1   -0.195594    0.787125    0.773392   -51.00000    0.06187    0.08294 =
         0.06468   -0.00835    0.05251   -0.01422
C17   1   -0.096723    0.771867    0.820002   -51.00000    0.07643    0.07746 =
         0.04356    0.00046    0.04790   -0.00486
C18   1   -0.001750    0.820307    0.838730   -51.00000    0.07614    0.07337 =
         0.03861   -0.00505    0.02113    0.01306
C19   1    0.120306    0.788977    0.847827   -51.00000    0.07587    0.08599 =
         0.01421   -0.01614    0.00586    0.01016
C20   1    0.223347    0.813548    0.826813   -51.00000    0.05998    0.09222 =
         0.02418   -0.02677   -0.01875    0.00449
C21   1    0.308477    0.776332    0.798664   -51.00000    0.04596    0.08024 =
         0.03532   -0.00045   -0.02858    0.00234
C22   1    0.365446    0.804759    0.755217   -51.00000    0.03718    0.06678 =
         0.05099   -0.00850   -0.01711   -0.01140
C23   1    0.384826    0.765025    0.706573   -51.00000    0.02126    0.06314 =
         0.05458   -0.00113   -0.00395    0.00898
C24   1    0.346555    0.702929    0.696741   -51.00000    0.02996    0.05465 =
         0.04979    0.00568    0.01426    0.01734
C25   1    0.292688    0.680875    0.635508   -51.00000    0.03399    0.04362 =
         0.06215   -0.00576    0.02160    0.01109
C26   1    0.198364    0.635409    0.627610   -51.00000    0.07277    0.03115 =
         0.07232   -0.01433    0.01104    0.02136
C27   1    0.085198    0.638312    0.578853   -51.00000    0.08038    0.03836 =
         0.08265   -0.03219    0.01679    0.00289
C28   1   -0.025576    0.616727    0.601086   -51.00000    0.08022    0.02864 =
         0.08685   -0.02525    0.01272   -0.00101
C29   1   -0.138062    0.647032    0.578270   -51.00000    0.06964    0.04077 =
         0.07564   -0.02636    0.00289   -0.01699
C30   1   -0.206804    0.657117    0.627149   -51.00000    0.06097    0.03772 =
         0.08153   -0.00141    0.02055   -0.02803
C31   1   -0.280759    0.711350    0.620449   -51.00000    0.03547    0.06622 =
         0.07040   -0.01115    0.00069   -0.01417
C32   1   -0.304398    0.751275    0.668533   -51.00000    0.03289    0.08673 =
         0.08725    0.00179    0.01580   -0.01813
C33   1   -0.318438    0.817213    0.654737   -51.00000    0.03754    0.08259 =
         0.09477   -0.01245    0.01840    0.01399
C34   1   -0.279099    0.870975    0.689690   -51.00000    0.03952    0.07509 =
         0.09400   -0.00041    0.02613    0.01993
C35   1   -0.217982    0.852419    0.751222   -51.00000    0.04162    0.09280 =
         0.07518    0.00795    0.04067    0.01247
C36   1   -0.132350    0.897096    0.782017   -51.00000    0.06259    0.05682 =
         0.07904   -0.01394    0.04154    0.00067
C37   1   -0.012973    0.878620    0.820198   -51.00000    0.06959    0.06271 =
         0.05131   -0.01242    0.02038    0.00266
C38   1    0.096489    0.913015    0.811049   -51.00000    0.07018    0.06917 =
         0.04900   -0.03344    0.00516   -0.01352
C39   1    0.208042    0.880359    0.807639   -51.00000    0.05708    0.07314 =
         0.04328   -0.03376   -0.01805   -0.00775
C40   1    0.273818    0.904360    0.761388   -51.00000    0.05615    0.05655 =
         0.06304   -0.02430   -0.01198   -0.01762
C41   1    0.355328    0.867899    0.734354   -51.00000    0.03170    0.05902 =
         0.06509   -0.00838   -0.01120   -0.00748
C42   1    0.368359    0.866431    0.672658   -51.00000    0.03549    0.05100 =
         0.07025   -0.00939    0.00890   -0.01397
C43   1    0.383281    0.803681    0.654778   -51.00000    0.01743    0.06637 =
         0.05418    0.00527    0.00655    0.00411
C44   1    0.342467    0.784055    0.594387   -51.00000    0.03769    0.05647 =
         0.06228    0.00815    0.02693    0.00810
C45   1    0.284864    0.722789    0.582034   -51.00000    0.05268    0.05073 =
         0.04641   -0.00014    0.03137    0.03145
C46   1    0.183654    0.719990    0.530784   -51.00000    0.06675    0.07455 =
         0.04680   -0.02369    0.02700    0.00177
C47   1    0.081243    0.677385    0.533860   -51.00000    0.06620    0.07385 =
         0.04467   -0.03844    0.00928    0.00521
C48   1   -0.035934    0.701533    0.498850   -51.00000    0.06082    0.08532 =
         0.03906   -0.03640    0.01872    0.00016
C49   1   -0.139597    0.690471    0.526816   -51.00000    0.05151    0.06188 =
         0.04154   -0.03373    0.00878   -0.00216
C50   1   -0.233974    0.739553    0.525050   -51.00000    0.04874    0.08666 =
         0.03725   -0.02808   -0.01346   -0.00258
C51   1   -0.300644    0.754559    0.570484   -51.00000    0.02712    0.06870 =
         0.06715   -0.02016   -0.01141   -0.01146
C52   1   -0.321930    0.816519    0.590495   -51.00000    0.02124    0.06946 =
         0.07565    0.00580   -0.00295    0.00573
C53   1   -0.274803    0.867438    0.559467   -51.00000    0.03022    0.07887 =
         0.06128    0.00723    0.00188    0.04048
C54   1   -0.239717    0.921573    0.593921   -51.00000    0.06227    0.05797 =
         0.10376    0.03027   -0.00054    0.03158
C55   1   -0.255972    0.919788    0.657618   -51.00000    0.05568    0.06235 =
         0.08656    0.00020    0.01626    0.02518
C56   1   -0.161841    0.955596    0.695303   -51.00000    0.07901    0.05318 =
         0.09208   -0.00919    0.03452    0.01989
C57   1   -0.093937    0.948291    0.752905   -51.00000    0.07493    0.04514 =
         0.07257   -0.01059    0.02779    0.00927
C58   1    0.048224    0.959237    0.770233   -51.00000    0.08670    0.04017 =
         0.06098   -0.03259    0.01173   -0.00767
C59   1    0.106532    0.980840    0.725737   -51.00000    0.06512    0.03895 =
         0.07845   -0.02980    0.01628   -0.01166
C60   1    0.226740    0.956926    0.721223   -51.00000    0.06981    0.03408 =
         0.08486   -0.01449    0.00785   -0.02015
C61   1    0.231234    0.955793    0.655918   -51.00000    0.07547    0.02515 =
         0.08983   -0.00548    0.02521   -0.01165
C62   1    0.301829    0.911416    0.631525   -51.00000    0.06026    0.05412 =
         0.08516    0.01878    0.02203   -0.02392
C63   1    0.254658    0.898761    0.570964   -51.00000    0.07369    0.08007 =
         0.07269    0.01730    0.02758   -0.01518
C64   1    0.286725    0.835392    0.555801   -51.00000    0.05599    0.07317 =
         0.05979    0.02392    0.03477   -0.00621
C65   1    0.188794    0.827095    0.504652   -51.00000    0.07076    0.09923 =
         0.05117    0.04352    0.03536    0.01392
C66   1    0.141412    0.769420    0.493693   -51.00000    0.06999    0.10946 =
         0.03654   -0.01315    0.03130    0.00315
C67   1    0.001332    0.753343    0.472175   -51.00000    0.08961    0.11894 =
         0.02206   -0.01700    0.00395   -0.00292
C68   1   -0.075427    0.802173    0.473534   -51.00000    0.07351    0.10253 =
         0.03235    0.00272   -0.00889    0.00645
C69   1   -0.191998    0.795968    0.491524   -51.00000    0.06232    0.08883 =
         0.03758   -0.00652   -0.00485    0.01558
C70   1   -0.211852    0.859954    0.511433   -51.00000    0.06635    0.09180 =
         0.05219    0.01942   -0.01217    0.02178
C71   1   -0.109017    0.901709    0.505507   -51.00000    0.06929    0.07453 =
         0.04900    0.04796    0.00522    0.01809
C72   1   -0.073936    0.949939    0.549559   -51.00000    0.08407    0.05084 =
         0.07081    0.03843    0.01882    0.02826
C73   1   -0.140295    0.967460    0.595343   -51.00000    0.07371    0.04563 =
         0.09249    0.02241    0.00435    0.03022
C74   1   -0.087564    0.984771    0.655759   -51.00000    0.06701    0.03926 =
         0.08134   -0.00026    0.01363    0.01062
C75   1    0.036048    0.998346    0.665688   -51.00000    0.06373    0.02653 =
         0.07611   -0.00700    0.02597   -0.00838
C76   1    0.113751    0.983569    0.624268   -51.00000    0.08080    0.02159 =
         0.08342    0.00832    0.02142   -0.01013
C77   1    0.056878    0.959583    0.566162   -51.00000    0.09851    0.05254 =
         0.06487    0.03536    0.00495   -0.00765
C78   1    0.137085    0.923051    0.537498   -51.00000    0.07866    0.06380 =
         0.06265    0.05103    0.01679    0.00335
C79   1    0.093499    0.876341    0.495491   -51.00000    0.08910    0.10021 =
         0.04742    0.05522    0.02117    0.01863
C80   1   -0.029647    0.866449    0.476380   -51.00000    0.08688    0.09532 =
         0.03327    0.03279    0.01958    0.01071
PART   0
 
HKLF 5
 
REM  cb169 in P2(1)/c
REM R1 =  0.0973 for   9344 Fo > 4sig(Fo)  and  0.1160 for all  11599 data
REM   1709 parameters refined using   3895 restraints
 
END  
     
WGHT      0.1433     23.4508 
REM Highest difference peak  2.543,  deepest hole -1.951,  1-sigma level  0.161
Q1    1   0.1367  0.7266  0.6875  11.00000  0.05    2.54
Q2    1   0.1068  0.8716  0.6827  11.00000  0.05    1.92
Q3    1  -0.0495  0.8248  0.5890  11.00000  0.05    1.41
Q4    1   0.0207  0.8815  0.6717  11.00000  0.05    1.07
Q5    1   0.0353  0.8177  0.4721  11.00000  0.05    1.01
Q6    1   0.0506  0.7866  0.7409  11.00000  0.05    0.97
Q7    1   0.1413  0.7311  0.6550  11.00000  0.05    0.96
Q8    1   0.0435  0.8152  0.7404  11.00000  0.05    0.90
Q9    1  -0.2707  0.8190  0.7324  11.00000  0.05    0.64
Q10   1  -0.2075  0.9194  0.5608  11.00000  0.05    0.63
Q11   1   0.4457  0.8565  0.9582  11.00000  0.05    0.62
Q12   1  -0.2057  0.9358  0.6327  11.00000  0.05    0.62
Q13   1   0.3548  0.7396  0.7493  11.00000  0.05    0.61
Q14   1  -0.1898  0.9068  0.7433  11.00000  0.05    0.61
Q15   1   0.4282  1.0254  0.8785  11.00000  0.05    0.60
Q16   1   0.3097  0.7346  0.5914  11.00000  0.05    0.60
Q17   1   0.5293  0.8680  0.9148  11.00000  0.05    0.59
Q18   1  -0.0318  0.9644  0.5772  11.00000  0.05    0.59
Q19   1   0.2935  0.8587  0.5775  11.00000  0.05    0.59
Q20   1   0.5910  0.8686  0.8965  11.00000  0.05    0.58
;
_cod_data_source_file            ic301794r_si_002_1.cif
_cod_data_source_block           cb169
_cod_original_sg_symbol_H-M      'P 21/c'
_cod_original_formula_sum        'C93.50 H12 S8 Sm'
_cod_database_code               4333654
loop_
_symmetry_equiv_pos_as_xyz
'x, y, z'
'-x, y+1/2, -z+1/2'
'-x, -y, -z'
'x, -y-1/2, z-1/2'
loop_
_atom_site_label
_atom_site_type_symbol
_atom_site_fract_x
_atom_site_fract_y
_atom_site_fract_z
_atom_site_U_iso_or_equiv
_atom_site_adp_type
_atom_site_occupancy
_atom_site_symmetry_multiplicity
_atom_site_calc_flag
_atom_site_refinement_flags
_atom_site_disorder_assembly
_atom_site_disorder_group
Sm1 Sm 0.02595(18) 0.82131(8) 0.58378(5) 0.0550(6) Uani 0.332(2) 1 d PU . .
Sm2 Sm 0.08326(13) 0.73746(6) 0.72572(5) 0.0372(4) Uani 0.2960(18) 1 d P . .
Sm3 Sm 0.04712(18) 0.72367(9) 0.61666(8) 0.0455(7) Uani 0.243(2) 1 d PU A .
Sm4 Sm 0.0388(11) 0.7729(5) 0.5856(3) 0.136(4) Uani 0.129(3) 1 d PU A .
C1_1 C -0.1218(19) 0.9869(10) 0.6339(9) 0.065(4) Uani 0.583(4) 1 d PDU A 1
C2_1 C -0.0024(17) 0.9963(8) 0.6321(8) 0.060(4) Uani 0.583(4) 1 d PDU A 1
C9_1 C -0.198(2) 0.9504(9) 0.5848(9) 0.080(5) Uani 0.583(4) 1 d PDU A 1
C3_1 C 0.0962(16) 0.9919(7) 0.6864(8) 0.053(3) Uani 0.583(4) 1 d PDU A 1
C4_1 C 0.0658(17) 0.9782(9) 0.7393(8) 0.062(4) Uani 0.583(4) 1 d PDU A 1
C5_1 C -0.0694(17) 0.9638(7) 0.7394(9) 0.058(4) Uani 0.583(4) 1 d PDU A 1
C6_1 C -0.161(2) 0.9688(8) 0.6892(9) 0.058(4) Uani 0.583(4) 1 d PDU A 1
C7_1 C -0.251(2) 0.9160(11) 0.6733(8) 0.057(4) Uani 0.583(4) 1 d PDU A 1
C8_1 C -0.2771(18) 0.9058(9) 0.6118(9) 0.072(5) Uani 0.583(4) 1 d PDU A 1
C10_1 C -0.1516(18) 0.9314(8) 0.5367(8) 0.070(4) Uani 0.583(4) 1 d PDU A 1
C11_1 C -0.0185(19) 0.9466(9) 0.5343(9) 0.083(5) Uani 0.583(4) 1 d PDU A 1
C12_1 C 0.0521(19) 0.9738(10) 0.5821(9) 0.071(5) Uani 0.583(4) 1 d PDU A 1
C13_1 C 0.1846(16) 0.9547(7) 0.6089(8) 0.066(4) Uani 0.583(4) 1 d PDU A 1
C14_1 C 0.2118(18) 0.9654(9) 0.6699(8) 0.053(4) Uani 0.583(4) 1 d PDU A 1
C15_1 C 0.2854(15) 0.9234(7) 0.7127(7) 0.060(3) Uani 0.583(4) 1 d PDU A 1
C16_1 C 0.252(3) 0.9112(11) 0.7708(11) 0.066(5) Uani 0.583(4) 1 d PDU A 1
C17_1 C 0.1422(15) 0.9372(7) 0.7831(7) 0.061(4) Uani 0.583(4) 1 d PDU A 1
C18_1 C 0.0563(17) 0.9035(9) 0.8149(11) 0.067(5) Uani 0.583(4) 1 d PDU A 1
C19_1 C -0.0757(17) 0.9144(7) 0.7835(8) 0.060(4) Uani 0.583(4) 1 d PDU A 1
C20_1 C -0.1563(17) 0.8637(8) 0.7744(8) 0.061(4) Uani 0.583(4) 1 d PDU A 1
C21_1 C -0.2498(17) 0.8679(8) 0.7184(8) 0.060(4) Uani 0.583(4) 1 d PDU A 1
C22_1 C -0.2990(14) 0.8107(7) 0.6940(8) 0.060(4) Uani 0.583(4) 1 d PDU A 1
C23_1 C -0.3235(15) 0.8004(7) 0.6282(8) 0.059(4) Uani 0.583(4) 1 d PDU A 1
C24_1 C -0.3022(19) 0.8442(8) 0.5855(8) 0.066(5) Uani 0.583(4) 1 d PDU A 1
C25_1 C -0.2526(15) 0.8249(8) 0.5327(6) 0.063(4) Uani 0.583(4) 1 d PDU A 1
C26_1 C -0.182(2) 0.8703(9) 0.5094(11) 0.076(5) Uani 0.583(4) 1 d PDU A 1
C27_1 C -0.0725(17) 0.8512(10) 0.4849(9) 0.079(5) Uani 0.583(4) 1 d PDU A 1
C28_1 C 0.0335(16) 0.8942(8) 0.5068(7) 0.067(4) Uani 0.583(4) 1 d PDU A 1
C29_1 C 0.1544(16) 0.8714(8) 0.5304(7) 0.072(4) Uani 0.583(4) 1 d PDU A 1
C30_1 C 0.2347(18) 0.9019(9) 0.5820(8) 0.071(4) Uani 0.583(4) 1 d PDU A 1
C31_1 C 0.3290(15) 0.8700(7) 0.6222(7) 0.057(3) Uani 0.583(4) 1 d PDU A 1
C32_1 C 0.354(2) 0.8805(7) 0.6865(7) 0.051(4) Uani 0.583(4) 1 d PDU A 1
C33_1 C 0.3902(11) 0.8219(6) 0.7140(6) 0.046(3) Uani 0.583(4) 1 d PDU A 1
C34_1 C 0.360(3) 0.8044(10) 0.7694(8) 0.052(4) Uani 0.583(4) 1 d PDU A 1
C35_1 C 0.2883(14) 0.8491(7) 0.7979(6) 0.064(4) Uani 0.583(4) 1 d PDU A 1
C36_1 C 0.2166(19) 0.8257(9) 0.8390(9) 0.069(5) Uani 0.583(4) 1 d PDU A 1
C37_1 C 0.0925(14) 0.8502(8) 0.8417(6) 0.060(3) Uani 0.583(4) 1 d PDU A 1
C38_1 C 0.0025(16) 0.8001(9) 0.8389(11) 0.063(4) Uani 0.583(4) 1 d PDU A 1
C39_1 C -0.1211(14) 0.8023(7) 0.8030(7) 0.054(3) Uani 0.583(4) 1 d PDU A 1
C40_1 C -0.1764(15) 0.7451(8) 0.7757(7) 0.058(3) Uani 0.583(4) 1 d PDU A 1
C41_1 C -0.270(2) 0.7518(9) 0.7222(9) 0.072(5) Uani 0.583(4) 1 d PDU A 1
C42_1 C -0.2756(12) 0.7065(7) 0.6755(6) 0.051(3) Uani 0.583(4) 1 d PDU A 1
C43_1 C -0.3057(17) 0.7350(8) 0.6166(7) 0.054(4) Uani 0.583(4) 1 d PDU A 1
C44_1 C -0.2624(14) 0.7129(8) 0.5650(6) 0.055(3) Uani 0.583(4) 1 d PDU A 1
C45_1 C -0.2225(19) 0.7586(8) 0.5246(9) 0.064(5) Uani 0.583(4) 1 d PDU A 1
C46_1 C -0.1300(16) 0.7445(9) 0.4899(6) 0.074(4) Uani 0.583(4) 1 d PDU A 1
C47_1 C -0.0493(17) 0.7918(9) 0.4733(12) 0.064(4) Uani 0.583(4) 1 d PDU A 1
C48_1 C 0.0778(18) 0.7675(9) 0.4893(8) 0.073(4) Uani 0.583(4) 1 d PDU A 1
C49_1 C 0.1794(15) 0.8043(8) 0.5182(7) 0.058(4) Uani 0.583(4) 1 d PDU A 1
C50_1 C 0.2771(15) 0.7705(8) 0.5619(7) 0.060(3) Uani 0.583(4) 1 d PDU A 1
C51_1 C 0.3485(18) 0.8045(7) 0.6104(7) 0.051(4) Uani 0.583(4) 1 d PDU A 1
C52_1 C 0.3938(14) 0.7771(7) 0.6678(6) 0.042(3) Uani 0.583(4) 1 d PDU A 1
C53_1 C 0.3701(14) 0.7131(7) 0.6777(6) 0.040(3) Uani 0.583(4) 1 d PDU A 1
C54_1 C 0.3476(14) 0.6947(7) 0.7341(7) 0.047(3) Uani 0.583(4) 1 d PDU A 1
C55_1 C 0.3461(14) 0.7415(8) 0.7821(6) 0.053(3) Uani 0.583(4) 1 d PDU A 1
C56_1 C 0.2619(19) 0.7183(9) 0.8189(8) 0.070(5) Uani 0.583(4) 1 d PDU A 1
C57_1 C 0.2026(16) 0.7624(8) 0.8461(6) 0.068(4) Uani 0.583(4) 1 d PDU A 1
C58_1 C 0.0662(18) 0.7447(8) 0.8466(9) 0.070(4) Uani 0.583(4) 1 d PDU A 1
C59_1 C 0.0166(17) 0.6896(8) 0.8222(6) 0.065(4) Uani 0.583(4) 1 d PDU A 1
C60_1 C -0.1080(18) 0.6910(8) 0.7852(8) 0.064(4) Uani 0.583(4) 1 d PDU A 1
C61_1 C -0.1115(16) 0.6416(7) 0.7383(7) 0.065(3) Uani 0.583(4) 1 d PDU A 1
C62_1 C -0.190(2) 0.6544(8) 0.6823(7) 0.062(4) Uani 0.583(4) 1 d PDU A 1
C63_1 C -0.1534(16) 0.6255(7) 0.6335(8) 0.065(4) Uani 0.583(4) 1 d PDU A 1
C64_1 C -0.1923(17) 0.6563(10) 0.5742(8) 0.067(4) Uani 0.583(4) 1 d PDU A 1
C65_1 C -0.0933(15) 0.6452(7) 0.5430(7) 0.064(4) Uani 0.583(4) 1 d PDU A 1
C66_1 C -0.0665(19) 0.6894(10) 0.5037(12) 0.073(5) Uani 0.583(4) 1 d PDU A 1
C67_1 C 0.0699(15) 0.7047(8) 0.5005(6) 0.061(3) Uani 0.583(4) 1 d PDU A 1
C68_1 C 0.1627(15) 0.6732(7) 0.5387(6) 0.060(4) Uani 0.583(4) 1 d PDU A 1
C69_1 C 0.2725(18) 0.7072(9) 0.5656(8) 0.055(4) Uani 0.583(4) 1 d PDU A 1
C70_1 C 0.314(2) 0.6791(11) 0.6263(8) 0.049(4) Uani 0.583(4) 1 d PDU A 1
C71_1 C 0.2255(19) 0.6298(12) 0.6311(10) 0.058(5) Uani 0.583(4) 1 d PDU A 1
C72_1 C 0.189(2) 0.6169(12) 0.6875(8) 0.055(4) Uani 0.583(4) 1 d PDU A 1
C73_1 C 0.2623(16) 0.6440(8) 0.7410(8) 0.054(4) Uani 0.583(4) 1 d PDU A 1
C74_1 C 0.2150(16) 0.6572(8) 0.7936(7) 0.067(4) Uani 0.583(4) 1 d PDU A 1
C75_1 C 0.0949(16) 0.6457(8) 0.7964(7) 0.064(4) Uani 0.583(4) 1 d PDU A 1
C76_1 C 0.0171(16) 0.6182(7) 0.7447(7) 0.056(4) Uani 0.583(4) 1 d PDU A 1
C77_1 C 0.0654(18) 0.5998(8) 0.6933(7) 0.060(4) Uani 0.583(4) 1 d PDU A 1
C78_1 C -0.0284(16) 0.6000(7) 0.6381(8) 0.057(4) Uani 0.583(4) 1 d PDU A 1
C79_1 C 0.0090(16) 0.6119(8) 0.5818(8) 0.066(5) Uani 0.583(4) 1 d PDU A 1
C80_1 C 0.1294(15) 0.6253(7) 0.5785(8) 0.054(4) Uani 0.583(4) 1 d PDU A 1
S1 S 0.63128(17) 0.86779(8) 0.86151(7) 0.0338(4) Uani 1 1 d . . .
S2 S 0.62205(17) 0.72249(8) 0.86628(8) 0.0335(4) Uani 1 1 d . . .
S3 S 0.47118(18) 0.88028(8) 0.95103(7) 0.0338(4) Uani 1 1 d . . .
S4 S 0.45984(17) 0.72479(8) 0.95652(7) 0.0335(4) Uani 1 1 d . . .
S5 S 0.4071(2) 0.59049(9) 0.95103(8) 0.0421(4) Uani 1 1 d . . .
S6 S 0.5950(2) 0.59017(9) 0.83970(9) 0.0413(4) Uani 1 1 d . . .
S7 S 0.5728(2) 0.99016(9) 0.80524(9) 0.0450(5) Uani 1 1 d . . .
S8 S 0.3887(2) 1.00876(9) 0.91590(9) 0.0453(5) Uani 1 1 d . . .
C1 C 0.5446(7) 0.8296(3) 0.9083(3) 0.0316(13) Uani 1 1 d U . .
C2 C 0.5404(6) 0.7683(3) 0.9100(3) 0.0272(12) Uani 1 1 d U . .
C3 C 0.4797(7) 0.6528(3) 0.9233(3) 0.0321(14) Uani 1 1 d U . .
C4 C 0.5448(7) 0.9368(3) 0.8597(3) 0.0328(14) Uani 1 1 d U . .
C5 C 0.4965(9) 0.5280(3) 0.9256(3) 0.0465(19) Uani 1 1 d U . .
H5A H 0.5856 0.5305 0.9472 0.056 Uiso 1 1 calc R . .
H5B H 0.4622 0.4876 0.9355 0.056 Uiso 1 1 calc R . .
C6 C 0.5525(7) 0.6518(3) 0.8813(3) 0.0316(14) Uani 1 1 d U . .
C7 C 0.4742(7) 0.9434(3) 0.9016(3) 0.0338(14) Uani 1 1 d U . .
C8 C 0.4791(8) 1.0667(4) 0.8856(4) 0.0461(18) Uani 1 1 d U . .
H8A H 0.4441 1.1083 0.8910 0.055 Uiso 1 1 calc R . .
H8B H 0.5674 1.0658 0.9083 0.055 Uiso 1 1 calc R . .
C9 C 0.4769(9) 1.0559(4) 0.8186(4) 0.053(2) Uani 1 1 d U . .
H9A H 0.5078 1.0937 0.8013 0.064 Uiso 1 1 calc R . .
H9B H 0.3887 1.0488 0.7972 0.064 Uiso 1 1 calc R . .
C10 C 0.4902(8) 0.5319(3) 0.8588(3) 0.0423(17) Uani 1 1 d U . .
H10A H 0.4027 0.5417 0.8382 0.051 Uiso 1 1 calc R . .
H10B H 0.5126 0.4911 0.8438 0.051 Uiso 1 1 calc R . .
C1S C 0.006(3) 1.0338(15) 1.0468(15) 0.037(5) Uani 0.50 1 d PU B -1
H1SA H 0.0428 1.0573 1.0815 0.044 Uiso 0.50 1 calc PR B -1
C2S C -0.1224(18) 1.0282(8) 1.0305(7) 0.045(3) Uani 0.50 1 d PU B -1
H2SA H -0.1735 1.0459 1.0557 0.054 Uiso 0.50 1 calc PR B -1
C3S C -0.180(2) 0.9973(13) 0.9780(11) 0.043(5) Uani 0.50 1 d PU B -1
H3SA H -0.2693 0.9951 0.9666 0.052 Uiso 0.50 1 calc PR B -1
C4S C -0.1068(18) 0.9707(8) 0.9439(7) 0.046(4) Uani 0.50 1 d PU B -1
H4SA H -0.1446 0.9483 0.9086 0.056 Uiso 0.50 1 calc PR B -1
C5S C 0.024(3) 0.9755(14) 0.9597(15) 0.034(5) Uani 0.50 1 d PU B -1
H5SA H 0.0750 0.9584 0.9340 0.041 Uiso 0.50 1 calc PR B -1
C6S C 0.0806(16) 1.0053(7) 1.0129(6) 0.039(3) Uani 0.50 1 d PU B -1
C7S C 0.221(2) 1.0093(15) 1.0334(12) 0.048(6) Uani 0.50 1 d PU B -1
H7SA H 0.2436 1.0067 1.0776 0.073 Uiso 0.50 1 calc PR B -1
H7SB H 0.2514 1.0489 1.0201 0.073 Uiso 0.50 1 calc PR B -1
H7SC H 0.2611 0.9750 1.0158 0.073 Uiso 0.50 1 calc PR B -1
C1_2 C 0.131(2) 0.6296(10) 0.7808(10) 0.063(5) Uani 0.417(4) 1 d PDU A 2
C2_2 C 0.006(2) 0.6244(12) 0.7689(10) 0.065(5) Uani 0.417(4) 1 d PDU A 2
C3_2 C -0.085(3) 0.6666(11) 0.7884(11) 0.068(5) Uani 0.417(4) 1 d PDU A 2
C4_2 C -0.035(2) 0.7118(11) 0.8256(12) 0.078(5) Uani 0.417(4) 1 d PDU A 2
C5_2 C 0.103(2) 0.7220(10) 0.8440(11) 0.065(5) Uani 0.417(4) 1 d PDU A 2
C6_2 C 0.1747(19) 0.6831(9) 0.8200(7) 0.050(4) Uani 0.417(4) 1 d PDU A 2
C7_2 C 0.286(2) 0.7097(10) 0.7984(11) 0.063(5) Uani 0.417(4) 1 d PDU A 2
C8_2 C 0.310(2) 0.6767(11) 0.7501(10) 0.054(5) Uani 0.417(4) 1 d PDU A 2
C9_2 C 0.215(2) 0.6261(12) 0.7379(12) 0.061(5) Uani 0.417(4) 1 d PDU A 2
C10_2 C 0.164(3) 0.609(2) 0.6814(13) 0.066(6) Uani 0.417(4) 1 d PDU A 2
C11_2 C 0.024(3) 0.6011(11) 0.6641(12) 0.062(5) Uani 0.417(4) 1 d PDU A 2
C12_2 C -0.046(2) 0.6082(9) 0.7061(10) 0.066(4) Uani 0.417(4) 1 d PDU A 2
C13_2 C -0.173(3) 0.6382(13) 0.6907(11) 0.071(6) Uani 0.417(4) 1 d PDU A 2
C14_2 C -0.191(2) 0.6778(10) 0.7366(10) 0.068(4) Uani 0.417(4) 1 d PDU A 2
C15_2 C -0.242(4) 0.7399(12) 0.7280(12) 0.076(6) Uani 0.417(4) 1 d PDU A 2
C16_2 C -0.196(2) 0.7871(11) 0.7734(9) 0.064(5) Uani 0.417(4) 1 d PDU A 2
C17_2 C -0.097(2) 0.7719(11) 0.8200(9) 0.061(4) Uani 0.417(4) 1 d PDU A 2
C18_2 C -0.002(2) 0.8203(11) 0.8387(19) 0.061(5) Uani 0.417(4) 1 d PDU A 2
C19_2 C 0.120(2) 0.7890(10) 0.8478(8) 0.059(4) Uani 0.417(4) 1 d PDU A 2
C20_2 C 0.223(2) 0.8135(11) 0.8268(12) 0.063(6) Uani 0.417(4) 1 d PDU A 2
C21_2 C 0.3085(18) 0.7763(10) 0.7987(8) 0.059(4) Uani 0.417(4) 1 d PDU A 2
C22_2 C 0.365(4) 0.8048(11) 0.7552(13) 0.055(5) Uani 0.417(4) 1 d PDU A 2
C23_2 C 0.3848(17) 0.7650(8) 0.7066(9) 0.048(4) Uani 0.417(4) 1 d PDU A 2
C24_2 C 0.347(2) 0.7029(9) 0.6967(10) 0.044(5) Uani 0.417(4) 1 d PDU A 2
C25_2 C 0.293(3) 0.6809(14) 0.6355(10) 0.045(5) Uani 0.417(4) 1 d PDU A 2
C26_2 C 0.198(3) 0.6354(16) 0.6276(16) 0.059(6) Uani 0.417(4) 1 d PDU A 2
C27_2 C 0.085(2) 0.6383(12) 0.5789(12) 0.067(5) Uani 0.417(4) 1 d PDU A 2
C28_2 C -0.026(2) 0.6167(12) 0.6011(13) 0.066(5) Uani 0.417(4) 1 d PDU A 2
C29_2 C -0.138(2) 0.6470(11) 0.5783(10) 0.064(5) Uani 0.417(4) 1 d PDU A 2
C30_2 C -0.207(2) 0.6571(9) 0.6271(10) 0.059(4) Uani 0.417(4) 1 d PDU A 2
C31_2 C -0.281(3) 0.7114(11) 0.6204(11) 0.059(5) Uani 0.417(4) 1 d PDU A 2
C32_2 C -0.304(2) 0.7513(11) 0.6685(10) 0.068(4) Uani 0.417(4) 1 d PDU A 2
C33_2 C -0.318(3) 0.8172(11) 0.6547(12) 0.071(6) Uani 0.417(4) 1 d PDU A 2
C34_2 C -0.279(3) 0.8710(13) 0.6897(12) 0.068(5) Uani 0.417(4) 1 d PDU A 2
C35_2 C -0.218(2) 0.8524(11) 0.7512(12) 0.066(5) Uani 0.417(4) 1 d PDU A 2
C36_2 C -0.132(2) 0.8971(12) 0.7820(12) 0.062(5) Uani 0.417(4) 1 d PDU A 2
C37_2 C -0.013(2) 0.8786(10) 0.8202(10) 0.060(4) Uani 0.417(4) 1 d PDU A 2
C38_2 C 0.096(2) 0.9130(13) 0.8110(15) 0.064(6) Uani 0.417(4) 1 d PDU A 2
C39_2 C 0.208(2) 0.8804(9) 0.8076(9) 0.062(4) Uani 0.417(4) 1 d PDU A 2
C40_2 C 0.274(3) 0.9044(15) 0.7614(15) 0.062(5) Uani 0.417(4) 1 d PDU A 2
C41_2 C 0.3553(18) 0.8679(9) 0.7344(9) 0.055(4) Uani 0.417(4) 1 d PDU A 2
C42_2 C 0.368(3) 0.8664(10) 0.6727(9) 0.052(5) Uani 0.417(4) 1 d PDU A 2
C43_2 C 0.383(2) 0.8037(9) 0.6548(9) 0.046(4) Uani 0.417(4) 1 d PDU A 2
C44_2 C 0.342(3) 0.7841(10) 0.5944(10) 0.050(5) Uani 0.417(4) 1 d PDU A 2
C45_2 C 0.285(2) 0.7228(10) 0.5820(9) 0.047(5) Uani 0.417(4) 1 d PDU A 2
C46_2 C 0.1837(19) 0.7200(11) 0.5308(9) 0.061(4) Uani 0.417(4) 1 d PDU A 2
C47_2 C 0.081(2) 0.6774(10) 0.5339(10) 0.062(4) Uani 0.417(4) 1 d PDU A 2
C48_2 C -0.036(2) 0.7015(13) 0.4989(13) 0.061(5) Uani 0.417(4) 1 d PDU A 2
C49_2 C -0.1396(18) 0.6905(9) 0.5268(8) 0.052(4) Uani 0.417(4) 1 d PDU A 2
C50_2 C -0.234(3) 0.7396(14) 0.5251(14) 0.061(5) Uani 0.417(4) 1 d PDU A 2
C51_2 C -0.3006(18) 0.7546(9) 0.5705(9) 0.057(4) Uani 0.417(4) 1 d PDU A 2
C52_2 C -0.322(2) 0.8165(10) 0.5905(12) 0.057(5) Uani 0.417(4) 1 d PDU A 2
C53_2 C -0.2748(18) 0.8674(10) 0.5595(10) 0.058(4) Uani 0.417(4) 1 d PDU A 2
C54_2 C -0.240(3) 0.9216(12) 0.5939(14) 0.077(6) Uani 0.417(4) 1 d PDU A 2
C55_2 C -0.256(4) 0.920(2) 0.6576(14) 0.068(6) Uani 0.417(4) 1 d PDU A 2
C56_2 C -0.162(3) 0.9556(17) 0.6953(13) 0.072(6) Uani 0.417(4) 1 d PDU A 2
C57_2 C -0.094(2) 0.9483(14) 0.7529(13) 0.062(5) Uani 0.417(4) 1 d PDU A 2
C58_2 C 0.048(2) 0.9592(10) 0.7702(10) 0.063(5) Uani 0.417(4) 1 d PDU A 2
C59_2 C 0.107(2) 0.9808(14) 0.7257(12) 0.061(5) Uani 0.417(4) 1 d PDU A 2
C60_2 C 0.227(2) 0.9569(10) 0.7212(11) 0.064(5) Uani 0.417(4) 1 d PDU A 2
C61_2 C 0.231(3) 0.9558(14) 0.6559(11) 0.062(6) Uani 0.417(4) 1 d PDU A 2
C62_2 C 0.302(2) 0.9114(9) 0.6315(9) 0.065(4) Uani 0.417(4) 1 d PDU A 2
C63_2 C 0.255(3) 0.8988(14) 0.5710(12) 0.074(6) Uani 0.417(4) 1 d PDU A 2
C64_2 C 0.2867(19) 0.8354(10) 0.5558(9) 0.060(4) Uani 0.417(4) 1 d PDU A 2
C65_2 C 0.189(2) 0.8271(12) 0.5047(10) 0.070(5) Uani 0.417(4) 1 d PDU A 2
C66_2 C 0.141(2) 0.7694(11) 0.4937(11) 0.069(5) Uani 0.417(4) 1 d PDU A 2
C67_2 C 0.001(3) 0.7533(12) 0.4722(9) 0.078(5) Uani 0.417(4) 1 d PDU A 2
C68_2 C -0.075(3) 0.8022(13) 0.474(2) 0.072(6) Uani 0.417(4) 1 d PDU A 2
C69_2 C -0.192(2) 0.7960(12) 0.4915(10) 0.065(4) Uani 0.417(4) 1 d PDU A 2
C70_2 C -0.212(3) 0.8600(13) 0.5114(16) 0.074(6) Uani 0.417(4) 1 d PDU A 2
C71_2 C -0.109(2) 0.9017(10) 0.5055(9) 0.065(4) Uani 0.417(4) 1 d PDU A 2
C72_2 C -0.074(3) 0.9499(11) 0.5496(10) 0.068(5) Uani 0.417(4) 1 d PDU A 2
C73_2 C -0.140(3) 0.9675(12) 0.5953(11) 0.072(5) Uani 0.417(4) 1 d PDU A 2
C74_2 C -0.088(2) 0.9848(15) 0.6558(12) 0.063(6) Uani 0.417(4) 1 d PDU A 2
C75_2 C 0.036(2) 0.9983(11) 0.6657(11) 0.054(5) Uani 0.417(4) 1 d PDU A 2
C76_2 C 0.114(2) 0.9836(9) 0.6243(10) 0.061(4) Uani 0.417(4) 1 d PDU A 2
C77_2 C 0.057(3) 0.9596(15) 0.5662(11) 0.074(6) Uani 0.417(4) 1 d PDU A 2
C78_2 C 0.137(2) 0.9231(10) 0.5375(10) 0.068(5) Uani 0.417(4) 1 d PDU A 2
C79_2 C 0.093(2) 0.8763(11) 0.4955(10) 0.078(5) Uani 0.417(4) 1 d PDU A 2
C80_2 C -0.030(2) 0.8664(12) 0.4764(11) 0.071(5) Uani 0.417(4) 1 d PDU A 2
loop_
_atom_site_aniso_label
_atom_site_aniso_U_11
_atom_site_aniso_U_22
_atom_site_aniso_U_33
_atom_site_aniso_U_23
_atom_site_aniso_U_13
_atom_site_aniso_U_12
Sm1 0.0931(12) 0.0470(10) 0.0231(6) 0.0066(5) 0.0079(6) -0.0064(8)
Sm2 0.0473(8) 0.0325(7) 0.0304(6) 0.0115(5) 0.0044(5) 0.0059(5)
Sm3 0.0488(11) 0.0425(11) 0.0436(10) -0.0171(8) 0.0057(7) 0.0016(8)
Sm4 0.198(9) 0.136(10) 0.083(4) -0.038(5) 0.053(5) -0.024(6)
C1_1 0.062(9) 0.038(7) 0.098(11) 0.005(9) 0.028(8) 0.019(7)
C2_1 0.067(8) 0.033(6) 0.084(9) 0.011(7) 0.025(7) 0.011(6)
C9_1 0.078(11) 0.051(9) 0.102(10) 0.028(8) -0.003(9) 0.040(8)
C3_1 0.064(8) 0.016(5) 0.080(9) -0.008(6) 0.019(8) -0.005(6)
C4_1 0.072(9) 0.032(7) 0.084(10) -0.024(7) 0.021(8) 0.005(8)
C5_1 0.072(9) 0.017(6) 0.091(10) -0.019(6) 0.032(8) -0.008(6)
C6_1 0.081(8) 0.014(6) 0.086(8) 0.008(6) 0.032(7) 0.024(6)
C7_1 0.039(7) 0.063(8) 0.075(9) 0.012(8) 0.024(8) 0.022(7)
C8_1 0.050(8) 0.077(10) 0.082(10) 0.010(8) -0.002(8) 0.044(7)
C10_1 0.081(9) 0.066(8) 0.062(8) 0.036(7) 0.014(8) 0.028(8)
C11_1 0.089(10) 0.069(9) 0.083(9) 0.055(8) 0.001(9) 0.003(9)
C12_1 0.096(9) 0.029(8) 0.087(10) 0.032(7) 0.016(9) 0.003(7)
C13_1 0.078(8) 0.035(6) 0.087(8) 0.021(7) 0.026(7) -0.007(6)
C14_1 0.065(8) 0.015(6) 0.081(9) -0.016(6) 0.019(7) -0.012(6)
C15_1 0.056(7) 0.040(6) 0.080(8) -0.021(6) 0.007(7) -0.007(6)
C16_1 0.065(10) 0.059(8) 0.064(9) -0.028(8) -0.008(8) -0.015(8)
C17_1 0.073(8) 0.046(7) 0.060(7) -0.036(6) 0.005(7) -0.013(7)
C18_1 0.083(10) 0.061(9) 0.054(8) -0.036(7) 0.009(9) -0.008(9)
C19_1 0.069(9) 0.037(7) 0.084(9) -0.018(7) 0.038(8) 0.004(7)
C20_1 0.053(9) 0.073(9) 0.071(9) -0.007(8) 0.043(7) 0.000(8)
C21_1 0.047(9) 0.072(8) 0.071(10) 0.016(8) 0.031(8) 0.030(7)
C22_1 0.027(6) 0.079(8) 0.081(8) 0.012(8) 0.031(6) 0.002(6)
C23_1 0.019(5) 0.082(9) 0.079(9) 0.006(8) 0.016(7) -0.012(6)
C24_1 0.041(9) 0.076(10) 0.072(9) 0.029(9) -0.008(7) 0.021(8)
C25_1 0.048(7) 0.093(9) 0.039(6) 0.024(7) -0.010(6) 0.012(7)
C26_1 0.068(10) 0.097(9) 0.049(7) 0.028(8) -0.020(8) 0.029(8)
C27_1 0.082(10) 0.103(11) 0.047(8) 0.031(8) -0.001(8) 0.014(9)
C28_1 0.073(9) 0.079(8) 0.054(7) 0.051(7) 0.026(7) 0.018(7)
C29_1 0.076(8) 0.099(9) 0.048(7) 0.026(7) 0.030(6) -0.007(8)
C30_1 0.071(8) 0.071(8) 0.079(9) 0.028(7) 0.035(7) -0.026(7)
C31_1 0.055(7) 0.058(7) 0.064(7) -0.002(6) 0.026(6) -0.018(6)
C32_1 0.036(7) 0.045(7) 0.071(9) -0.020(7) 0.010(7) -0.008(6)
C33_1 0.018(5) 0.058(7) 0.057(6) -0.015(6) -0.001(5) -0.008(5)
C34_1 0.031(7) 0.072(8) 0.043(8) 0.003(7) -0.017(7) -0.007(6)
C35_1 0.050(7) 0.085(8) 0.043(6) -0.028(6) -0.021(6) -0.012(7)
C36_1 0.072(8) 0.106(10) 0.023(7) -0.031(7) -0.008(7) 0.007(8)
C37_1 0.064(7) 0.086(8) 0.030(5) -0.021(6) 0.006(6) 0.000(7)
C38_1 0.080(9) 0.086(10) 0.032(6) -0.007(9) 0.036(6) -0.001(8)
C39_1 0.056(8) 0.074(9) 0.043(7) 0.010(6) 0.033(6) 0.013(7)
C40_1 0.057(7) 0.076(8) 0.052(7) 0.003(7) 0.034(6) -0.008(7)
C41_1 0.039(9) 0.105(10) 0.081(9) 0.005(9) 0.035(7) -0.014(8)
C42_1 0.026(5) 0.054(7) 0.079(7) -0.002(6) 0.026(5) -0.024(5)
C43_1 0.027(7) 0.069(9) 0.064(8) -0.010(8) 0.004(6) -0.012(7)
C44_1 0.035(6) 0.073(8) 0.051(7) -0.015(7) -0.010(6) -0.009(6)
C45_1 0.045(7) 0.102(11) 0.031(6) -0.018(8) -0.023(6) -0.017(8)
C46_1 0.066(8) 0.113(9) 0.032(6) -0.027(7) -0.015(6) -0.005(7)
C47_1 0.078(9) 0.097(9) 0.014(5) 0.002(7) 0.003(7) 0.029(8)
C48_1 0.077(10) 0.115(10) 0.034(7) -0.016(7) 0.027(8) 0.003(9)
C49_1 0.070(8) 0.066(9) 0.048(7) 0.028(7) 0.033(7) 0.000(7)
C50_1 0.050(7) 0.072(8) 0.067(8) 0.000(7) 0.035(6) 0.006(7)
C51_1 0.038(6) 0.064(9) 0.059(8) 0.009(7) 0.031(7) 0.000(7)
C52_1 0.024(6) 0.047(7) 0.055(8) 0.011(6) 0.006(6) -0.001(6)
C53_1 0.020(6) 0.050(7) 0.051(8) 0.003(6) 0.008(6) 0.009(5)
C54_1 0.036(7) 0.048(8) 0.054(8) 0.009(7) 0.003(6) 0.008(6)
C55_1 0.037(6) 0.071(8) 0.042(6) -0.004(6) -0.014(5) 0.010(6)
C56_1 0.065(9) 0.089(9) 0.044(8) 0.022(7) -0.019(7) 0.017(8)
C57_1 0.071(8) 0.097(10) 0.023(5) 0.003(6) -0.016(6) 0.013(8)
C58_1 0.085(10) 0.101(11) 0.026(6) 0.017(8) 0.018(7) 0.006(9)
C59_1 0.098(10) 0.077(9) 0.027(6) 0.033(6) 0.025(7) 0.014(8)
C60_1 0.075(9) 0.065(9) 0.060(7) 0.024(8) 0.028(7) -0.024(8)
C61_1 0.088(8) 0.048(7) 0.066(7) 0.013(6) 0.036(7) -0.018(7)
C62_1 0.066(8) 0.038(8) 0.086(9) 0.003(7) 0.024(7) -0.035(7)
C63_1 0.073(9) 0.029(6) 0.098(9) -0.020(7) 0.026(8) -0.017(6)
C64_1 0.062(9) 0.053(8) 0.076(8) -0.032(7) -0.007(8) -0.004(8)
C65_1 0.072(9) 0.051(7) 0.066(8) -0.028(7) 0.007(7) -0.016(7)
C66_1 0.076(10) 0.091(10) 0.047(8) -0.030(8) -0.002(8) -0.010(9)
C67_1 0.073(8) 0.083(8) 0.033(6) -0.037(6) 0.025(6) -0.005(7)
C68_1 0.073(8) 0.067(8) 0.045(6) -0.035(6) 0.021(7) 0.009(8)
C69_1 0.057(8) 0.057(8) 0.059(9) -0.015(7) 0.026(7) 0.011(7)
C70_1 0.050(9) 0.047(7) 0.057(7) -0.009(6) 0.025(7) 0.009(7)
C71_1 0.063(9) 0.039(8) 0.072(8) -0.014(7) 0.013(7) 0.028(7)
C72_1 0.065(9) 0.021(8) 0.080(9) 0.015(7) 0.015(8) 0.018(7)
C73_1 0.045(9) 0.048(10) 0.067(8) 0.013(8) 0.009(7) 0.024(7)
C74_1 0.068(8) 0.069(8) 0.058(7) 0.030(7) 0.000(7) 0.023(7)
C75_1 0.084(10) 0.065(9) 0.046(8) 0.034(7) 0.018(7) 0.017(8)
C76_1 0.101(9) 0.025(6) 0.049(8) 0.014(7) 0.035(7) -0.013(6)
C77_1 0.082(10) 0.021(6) 0.081(9) 0.017(7) 0.025(8) -0.001(7)
C78_1 0.081(9) 0.017(6) 0.075(9) -0.018(7) 0.017(8) -0.013(7)
C79_1 0.074(10) 0.035(7) 0.086(10) -0.033(7) 0.008(8) -0.002(7)
C80_1 0.057(8) 0.038(7) 0.069(7) -0.036(6) 0.020(7) 0.008(6)
S1 0.0366(9) 0.0338(8) 0.0336(8) -0.0047(6) 0.0133(7) -0.0072(7)
S2 0.0370(9) 0.0328(8) 0.0341(8) -0.0009(6) 0.0152(7) -0.0038(7)
S3 0.0431(9) 0.0346(8) 0.0255(7) -0.0043(6) 0.0115(7) -0.0047(7)
S4 0.0371(9) 0.0364(8) 0.0290(7) 0.0014(6) 0.0111(7) -0.0045(7)
S5 0.0513(11) 0.0401(10) 0.0367(9) 0.0066(7) 0.0128(8) -0.0103(8)
S6 0.0543(11) 0.0325(9) 0.0396(9) -0.0039(7) 0.0151(8) 0.0001(8)
S7 0.0618(13) 0.0378(10) 0.0381(9) 0.0023(8) 0.0161(9) -0.0084(9)
S8 0.0555(12) 0.0359(9) 0.0472(10) -0.0035(8) 0.0168(9) 0.0037(8)
C1 0.036(3) 0.038(3) 0.023(3) -0.008(3) 0.012(2) -0.007(3)
C2 0.029(3) 0.028(3) 0.025(3) 0.000(2) 0.008(2) 0.003(2)
C3 0.038(4) 0.032(3) 0.023(3) 0.000(2) -0.001(3) 0.000(3)
C4 0.037(4) 0.030(3) 0.030(3) -0.004(3) 0.006(3) -0.008(3)
C5 0.065(5) 0.029(3) 0.042(4) 0.007(3) 0.005(4) -0.013(3)
C6 0.036(4) 0.033(3) 0.023(3) 0.006(2) 0.000(3) -0.002(3)
C7 0.038(4) 0.033(3) 0.031(3) -0.003(3) 0.008(3) -0.005(3)
C8 0.052(5) 0.032(4) 0.055(4) 0.001(3) 0.012(4) 0.006(3)
C9 0.056(5) 0.047(5) 0.049(4) 0.010(4) -0.005(4) -0.002(4)
C10 0.053(5) 0.032(4) 0.039(4) -0.002(3) 0.002(3) -0.004(3)
C1S 0.042(12) 0.044(10) 0.020(8) -0.008(7) -0.003(8) -0.010(8)
C2S 0.055(9) 0.049(8) 0.029(6) 0.003(6) 0.006(6) -0.001(7)
C3S 0.047(12) 0.043(8) 0.034(9) 0.002(7) -0.009(8) -0.015(9)
C4S 0.053(9) 0.042(7) 0.036(7) -0.006(6) -0.010(6) -0.012(7)
C5S 0.038(11) 0.036(9) 0.026(9) -0.009(7) 0.002(8) -0.004(8)
C6S 0.044(8) 0.031(6) 0.033(6) -0.002(5) -0.011(6) -0.003(6)
C7S 0.042(13) 0.062(13) 0.036(11) -0.001(9) -0.004(9) 0.006(11)
C1_2 0.092(11) 0.049(9) 0.051(9) 0.028(8) 0.023(9) 0.023(9)
C2_2 0.103(11) 0.040(9) 0.057(10) 0.024(9) 0.025(10) -0.011(9)
C3_2 0.096(11) 0.051(10) 0.061(9) 0.028(9) 0.030(9) -0.015(9)
C4_2 0.104(12) 0.090(11) 0.047(9) 0.016(9) 0.033(9) 0.000(10)
C5_2 0.083(11) 0.085(11) 0.024(7) 0.032(8) 0.003(8) 0.007(10)
C6_2 0.067(9) 0.057(9) 0.026(7) 0.027(7) 0.012(7) 0.026(8)
C7_2 0.055(10) 0.074(10) 0.048(10) 0.024(9) -0.016(9) 0.007(9)
C8_2 0.045(10) 0.056(10) 0.060(9) 0.016(9) 0.008(8) 0.022(8)
C9_2 0.073(11) 0.046(10) 0.065(9) 0.015(9) 0.013(10) 0.023(9)
C10_2 0.070(11) 0.033(10) 0.094(11) -0.004(9) 0.014(10) 0.016(9)
C11_2 0.087(12) 0.012(7) 0.085(13) -0.007(10) 0.012(11) -0.013(9)
C12_2 0.099(10) 0.025(7) 0.081(10) 0.010(8) 0.037(9) -0.020(8)
C13_2 0.078(10) 0.042(11) 0.096(11) -0.007(9) 0.021(10) -0.041(9)
C14_2 0.077(9) 0.054(8) 0.081(9) 0.009(8) 0.036(8) -0.031(8)
C15_2 0.057(11) 0.099(11) 0.085(10) 0.000(10) 0.043(9) -0.016(10)
C16_2 0.062(9) 0.083(10) 0.065(9) -0.008(9) 0.053(8) -0.014(9)
C17_2 0.076(10) 0.077(10) 0.044(8) 0.000(8) 0.048(8) -0.005(9)
C18_2 0.076(10) 0.073(11) 0.039(8) -0.005(10) 0.021(8) 0.013(9)
C19_2 0.076(9) 0.086(9) 0.014(6) -0.016(7) 0.006(7) 0.010(8)
C20_2 0.060(9) 0.092(11) 0.024(9) -0.027(9) -0.019(8) 0.004(9)
C21_2 0.046(8) 0.080(9) 0.035(7) 0.000(8) -0.029(7) 0.002(8)
C22_2 0.037(9) 0.067(9) 0.051(10) -0.008(9) -0.017(9) -0.011(8)
C23_2 0.021(7) 0.063(9) 0.055(8) -0.001(8) -0.004(7) 0.009(7)
C24_2 0.030(8) 0.055(9) 0.050(10) 0.006(9) 0.014(8) 0.017(7)
C25_2 0.034(9) 0.044(8) 0.062(9) -0.006(8) 0.022(8) 0.011(7)
C26_2 0.073(11) 0.031(9) 0.072(9) -0.014(8) 0.011(9) 0.021(9)
C27_2 0.080(12) 0.038(9) 0.083(10) -0.032(9) 0.017(10) 0.003(9)
C28_2 0.080(11) 0.029(8) 0.087(11) -0.025(9) 0.013(10) -0.001(9)
C29_2 0.070(11) 0.041(9) 0.076(10) -0.026(8) 0.003(10) -0.017(9)
C30_2 0.061(9) 0.038(8) 0.082(10) -0.001(8) 0.021(9) -0.028(8)
C31_2 0.035(9) 0.066(11) 0.070(9) -0.011(9) 0.001(8) -0.014(9)
C32_2 0.033(7) 0.087(9) 0.087(9) 0.002(9) 0.016(8) -0.018(8)
C33_2 0.038(9) 0.083(11) 0.095(13) -0.012(11) 0.018(11) 0.014(9)
C34_2 0.040(9) 0.075(10) 0.094(12) 0.000(11) 0.026(10) 0.020(9)
C35_2 0.042(10) 0.093(11) 0.075(11) 0.008(10) 0.041(9) 0.012(9)
C36_2 0.063(11) 0.057(11) 0.079(10) -0.014(10) 0.042(10) 0.001(10)
C37_2 0.070(10) 0.063(10) 0.051(8) -0.012(8) 0.020(8) 0.003(9)
C38_2 0.070(11) 0.069(10) 0.049(9) -0.033(9) 0.005(10) -0.014(10)
C39_2 0.057(9) 0.073(9) 0.043(8) -0.034(7) -0.018(7) -0.008(8)
C40_2 0.056(10) 0.057(10) 0.063(10) -0.024(9) -0.012(9) -0.018(9)
C41_2 0.032(7) 0.059(8) 0.065(9) -0.008(8) -0.011(7) -0.007(7)
C42_2 0.035(9) 0.051(10) 0.070(10) -0.009(9) 0.009(9) -0.014(8)
C43_2 0.017(6) 0.066(9) 0.054(9) 0.005(8) 0.007(7) 0.004(8)
C44_2 0.038(8) 0.056(10) 0.062(10) 0.008(9) 0.027(8) 0.008(9)
C45_2 0.053(9) 0.051(9) 0.046(9) 0.000(8) 0.031(7) 0.031(8)
C46_2 0.067(9) 0.075(9) 0.047(7) -0.024(8) 0.027(7) 0.002(8)
C47_2 0.066(9) 0.074(9) 0.045(8) -0.038(8) 0.009(8) 0.005(9)
C48_2 0.061(10) 0.085(11) 0.039(8) -0.036(8) 0.019(8) 0.000(9)
C49_2 0.052(8) 0.062(9) 0.042(7) -0.034(7) 0.009(7) -0.002(7)
C50_2 0.049(9) 0.087(11) 0.037(9) -0.028(9) -0.013(8) -0.003(10)
C51_2 0.027(7) 0.069(9) 0.067(9) -0.020(8) -0.011(7) -0.011(7)
C52_2 0.021(7) 0.069(11) 0.076(10) 0.006(10) -0.003(8) 0.006(9)
C53_2 0.030(7) 0.079(10) 0.061(9) 0.007(8) 0.002(7) 0.040(8)
C54_2 0.062(12) 0.058(11) 0.104(12) 0.030(11) -0.001(11) 0.032(10)
C55_2 0.056(10) 0.062(10) 0.087(12) 0.000(10) 0.016(11) 0.025(9)
C56_2 0.079(10) 0.053(11) 0.092(10) -0.009(9) 0.035(9) 0.020(9)
C57_2 0.075(10) 0.045(11) 0.073(10) -0.011(9) 0.028(9) 0.009(9)
C58_2 0.087(10) 0.040(8) 0.061(9) -0.033(8) 0.012(9) -0.008(8)
C59_2 0.065(10) 0.039(9) 0.078(11) -0.030(9) 0.016(10) -0.012(9)
C60_2 0.070(9) 0.034(8) 0.085(9) -0.014(8) 0.008(9) -0.020(7)
C61_2 0.075(10) 0.025(9) 0.090(11) -0.005(10) 0.025(10) -0.012(8)
C62_2 0.060(9) 0.054(8) 0.085(9) 0.019(8) 0.022(8) -0.024(8)
C63_2 0.074(8) 0.080(8) 0.073(8) 0.017(7) 0.028(7) -0.015(7)
C64_2 0.056(8) 0.073(8) 0.060(8) 0.024(7) 0.035(7) -0.006(7)
C65_2 0.071(10) 0.099(12) 0.051(10) 0.044(9) 0.035(8) 0.014(10)
C66_2 0.070(11) 0.109(11) 0.037(8) -0.013(9) 0.031(9) 0.003(10)
C67_2 0.090(11) 0.119(11) 0.022(7) -0.017(8) 0.004(8) -0.003(10)
C68_2 0.074(11) 0.103(11) 0.032(9) 0.003(10) -0.009(10) 0.006(10)
C69_2 0.062(9) 0.089(9) 0.038(7) -0.007(8) -0.005(7) 0.016(8)
C70_2 0.066(12) 0.092(12) 0.052(10) 0.019(10) -0.012(10) 0.022(11)
C71_2 0.069(9) 0.075(9) 0.049(8) 0.048(7) 0.005(7) 0.018(8)
C72_2 0.084(11) 0.051(9) 0.071(10) 0.038(8) 0.019(9) 0.028(9)
C73_2 0.074(10) 0.046(9) 0.092(10) 0.022(9) 0.004(10) 0.030(9)
C74_2 0.067(11) 0.039(9) 0.081(11) 0.000(10) 0.014(10) 0.011(9)
C75_2 0.064(11) 0.027(8) 0.076(11) -0.007(9) 0.026(9) -0.008(9)
C76_2 0.081(9) 0.022(7) 0.083(9) 0.008(7) 0.021(8) -0.010(7)
C77_2 0.099(11) 0.053(11) 0.065(10) 0.035(9) 0.005(10) -0.008(10)
C78_2 0.079(10) 0.064(9) 0.063(9) 0.051(8) 0.017(8) 0.003(9)
C79_2 0.089(12) 0.100(11) 0.047(9) 0.055(9) 0.021(9) 0.019(11)
C80_2 0.087(11) 0.095(11) 0.033(8) 0.033(8) 0.020(8) 0.011(10)
loop_
_atom_type_symbol
_atom_type_description
_atom_type_scat_dispersion_real
_atom_type_scat_dispersion_imag
_atom_type_scat_source
C C -0.0020 0.0020 'International Tables Vol C Tables 4.2.6.8 and 6.1.1.4'
H H 0.0000 0.0000 'International Tables Vol C Tables 4.2.6.8 and 6.1.1.4'
S S 0.1206 0.1480 'International Tables Vol C Tables 4.2.6.8 and 6.1.1.4'
Sm Sm -0.2130 4.0092 'International Tables Vol C Tables 4.2.6.8 and 6.1.1.4'
loop_
_geom_angle_atom_site_label_1
_geom_angle_atom_site_label_2
_geom_angle_atom_site_label_3
_geom_angle
C29_1 Sm1 C28_1 35.0(4)
C29_1 Sm1 C27_1 65.1(6)
C28_1 Sm1 C27_1 36.6(4)
C29_1 Sm1 C49_1 36.7(4)
C28_1 Sm1 C49_1 61.9(5)
C27_1 Sm1 C49_1 72.7(6)
C29_1 Sm1 C68_2 75.5(7)
C28_1 Sm1 C68_2 57.2(7)
C27_1 Sm1 C68_2 25.3(8)
C49_1 Sm1 C68_2 66.3(7)
C29_1 Sm1 C47_1 73.1(6)
C28_1 Sm1 C47_1 59.7(6)
C27_1 Sm1 C47_1 31.4(5)
C49_1 Sm1 C47_1 59.7(5)
C68_2 Sm1 C47_1 8.1(7)
C29_1 Sm1 C79_2 21.2(6)
C28_1 Sm1 C79_2 19.1(6)
C27_1 Sm1 C79_2 43.9(7)
C49_1 Sm1 C79_2 42.7(6)
C68_2 Sm1 C79_2 56.3(8)
C47_1 Sm1 C79_2 55.6(7)
C29_1 Sm1 C80_2 51.3(7)
C28_1 Sm1 C80_2 24.2(7)
C27_1 Sm1 C80_2 13.9(6)
C49_1 Sm1 C80_2 63.1(6)
C68_2 Sm1 C80_2 33.4(5)
C47_1 Sm1 C80_2 37.0(8)
C79_2 Sm1 C80_2 30.2(5)
C29_1 Sm1 C48_1 61.3(6)
C28_1 Sm1 C48_1 69.2(6)
C27_1 Sm1 C48_1 58.3(6)
C49_1 Sm1 C48_1 32.2(4)
C68_2 Sm1 C48_1 40.8(7)
C47_1 Sm1 C48_1 32.8(4)
C79_2 Sm1 C48_1 54.5(7)
C80_2 Sm1 C48_1 55.9(7)
C29_1 Sm1 C71_2 69.9(6)
C28_1 Sm1 C71_2 34.9(6)
C27_1 Sm1 C71_2 28.4(7)
C49_1 Sm1 C71_2 92.5(6)
C68_2 Sm1 C71_2 52.5(8)
C47_1 Sm1 C71_2 59.5(7)
C79_2 Sm1 C71_2 52.4(7)
C80_2 Sm1 C71_2 30.9(4)
C48_1 Sm1 C71_2 85.8(6)
C6_2 Sm2 C75_1 28.3(6)
C6_2 Sm2 C7_2 35.0(4)
C75_1 Sm2 C7_2 58.6(6)
C6_2 Sm2 C74_1 22.5(5)
C75_1 Sm2 C74_1 30.6(5)
C7_2 Sm2 C74_1 31.0(6)
C6_2 Sm2 C56_1 27.8(6)
C75_1 Sm2 C56_1 55.1(6)
C7_2 Sm2 C56_1 13.4(6)
C74_1 Sm2 C56_1 33.6(4)
C6_2 Sm2 C1_2 33.3(4)
C75_1 Sm2 C1_2 14.8(5)
C7_2 Sm2 C1_2 54.8(7)
C74_1 Sm2 C1_2 23.8(6)
C56_1 Sm2 C1_2 55.4(6)
C6_2 Sm2 C59_1 39.4(6)
C75_1 Sm2 C59_1 32.9(4)
C7_2 Sm2 C59_1 73.6(6)
C74_1 Sm2 C59_1 56.7(5)
C56_1 Sm2 C59_1 63.3(6)
C1_2 Sm2 C59_1 47.7(5)
C6_2 Sm2 C5_2 29.8(4)
C75_1 Sm2 C5_2 44.3(6)
C7_2 Sm2 C5_2 55.6(7)
C74_1 Sm2 C5_2 52.3(5)
C56_1 Sm2 C5_2 42.9(7)
C1_2 Sm2 C5_2 56.4(6)
C59_1 Sm2 C5_2 26.0(6)
C6_2 Sm2 C76_1 59.1(6)
C75_1 Sm2 C76_1 31.1(4)
C7_2 Sm2 C76_1 84.0(6)
C74_1 Sm2 C76_1 53.0(5)
C56_1 Sm2 C76_1 84.2(6)
C1_2 Sm2 C76_1 29.3(6)
C59_1 Sm2 C76_1 51.4(5)
C5_2 Sm2 C76_1 72.2(6)
C6_2 Sm2 C8_2 53.9(6)
C75_1 Sm2 C8_2 64.6(6)
C7_2 Sm2 C8_2 29.9(5)
C74_1 Sm2 C8_2 35.4(6)
C56_1 Sm2 C8_2 42.9(6)
C1_2 Sm2 C8_2 53.2(7)
C59_1 Sm2 C8_2 91.8(6)
C5_2 Sm2 C8_2 81.4(6)
C76_1 Sm2 C8_2 76.8(7)
C6_2 Sm2 C73_1 52.8(5)
C75_1 Sm2 C73_1 53.7(5)
C7_2 Sm2 C73_1 41.8(6)
C74_1 Sm2 C73_1 30.5(4)
C56_1 Sm2 C73_1 52.6(5)
C1_2 Sm2 C73_1 40.0(6)
C59_1 Sm2 C73_1 85.1(5)
C5_2 Sm2 C73_1 82.6(6)
C76_1 Sm2 C73_1 59.6(6)
C8_2 Sm2 C73_1 18.2(5)
C27_2 Sm3 C47_2 35.3(6)
C27_2 Sm3 Sm1 134.9(7)
C47_2 Sm3 Sm1 99.6(6)
C27_2 Sm3 Sm2 120.9(7)
C47_2 Sm3 Sm2 152.8(6)
C27_2 Sm3 C28_2 36.8(6)
C47_2 Sm3 C28_2 63.7(8)
C27_2 Sm3 C26_2 36.2(7)
C47_2 Sm3 C26_2 61.4(10)
C28_2 Sm3 C26_2 58.6(8)
C27_2 Sm3 C80_1 9.2(9)
C47_2 Sm3 C80_1 37.0(8)
C28_2 Sm3 C80_1 44.0(7)
C26_2 Sm3 C80_1 28.3(10)
C27_2 Sm3 C79_1 22.9(8)
C47_2 Sm3 C79_1 49.9(7)
C28_2 Sm3 C79_1 14.5(6)
C26_2 Sm3 C79_1 50.9(8)
C80_1 Sm3 C79_1 31.0(5)
C27_2 Sm3 C68_1 36.6(8)
C47_2 Sm3 C68_1 18.8(6)
C28_2 Sm3 C68_1 72.0(7)
C26_2 Sm3 C68_1 49.4(9)
C80_1 Sm3 C68_1 33.1(4)
C79_1 Sm3 C68_1 57.5(5)
C27_2 Sm3 C29_2 60.8(8)
C47_2 Sm3 C29_2 71.5(7)
C28_2 Sm3 C29_2 31.7(5)
C26_2 Sm3 C29_2 89.7(8)
C80_1 Sm3 C29_2 69.8(6)
C79_1 Sm3 C29_2 39.7(6)
C68_1 Sm3 C29_2 87.3(6)
C27_2 Sm3 C65_1 46.9(8)
C47_2 Sm3 C65_1 49.5(6)
C28_2 Sm3 C65_1 34.1(7)
C26_2 Sm3 C65_1 81.7(8)
C80_1 Sm3 C65_1 56.0(5)
C79_1 Sm3 C65_1 32.6(4)
C68_1 Sm3 C65_1 66.3(5)
C29_2 Sm3 C65_1 22.3(6)
C48_1 Sm4 C49_1 34.2(5)
C48_1 Sm4 C47_2 54.6(7)
C49_1 Sm4 C47_2 74.7(7)
C48_1 Sm4 C46_2 41.0(7)
C49_1 Sm4 C46_2 43.8(7)
C47_2 Sm4 C46_2 34.3(5)
C48_1 Sm4 C48_2 47.1(8)
C49_1 Sm4 C48_2 80.0(6)
C47_2 Sm4 C48_2 34.0(5)
C46_2 Sm4 C48_2 57.2(7)
C48_1 Sm4 C67_1 33.2(4)
C49_1 Sm4 C67_1 59.2(6)
C47_2 Sm4 C67_1 22.0(6)
C46_2 Sm4 C67_1 30.9(6)
C48_2 Sm4 C67_1 26.4(6)
C48_1 Sm4 C67_2 20.5(6)
C49_1 Sm4 C67_2 54.2(7)
C47_2 Sm4 C67_2 52.4(8)
C46_2 Sm4 C67_2 53.6(8)
C48_2 Sm4 C67_2 31.5(5)
C67_1 Sm4 C67_2 31.4(8)
C48_1 Sm4 C66_2 15.0(6)
C49_1 Sm4 C66_2 22.4(6)
C47_2 Sm4 C66_2 55.4(8)
C46_2 Sm4 C66_2 31.8(4)
C48_2 Sm4 C66_2 57.8(7)
C67_1 Sm4 C66_2 37.4(7)
C67_2 Sm4 C66_2 35.1(6)
C48_1 Sm4 C47_1 34.2(5)
C49_1 Sm4 C47_1 59.6(5)
C47_2 Sm4 C47_1 74.3(8)
C46_2 Sm4 C47_1 73.9(6)
C48_2 Sm4 C47_1 47.3(7)
C67_1 Sm4 C47_1 53.9(6)
C67_2 Sm4 C47_1 22.5(7)
C66_2 Sm4 C47_1 48.1(7)
C48_1 Sm4 C46_1 55.7(7)
C49_1 Sm4 C46_1 88.3(6)
C47_2 Sm4 C46_1 64.9(7)
C46_2 Sm4 C46_1 83.4(7)
C48_2 Sm4 C46_1 30.9(7)
C67_1 Sm4 C46_1 53.4(5)
C67_2 Sm4 C46_1 35.4(7)
C66_2 Sm4 C46_1 70.5(7)
C47_1 Sm4 C46_1 32.4(4)
C2_1 C1_1 C6_1 121.7(19)
C2_1 C1_1 C9_1 117.4(18)
C6_1 C1_1 C9_1 106.9(17)
C1_1 C2_1 C3_1 121.4(16)
C1_1 C2_1 C12_1 121.8(18)
C3_1 C2_1 C12_1 106.7(15)
C10_1 C9_1 C1_1 122(2)
C10_1 C9_1 C8_1 118.0(18)
C1_1 C9_1 C8_1 108.4(16)
C4_1 C3_1 C2_1 119.8(17)
C4_1 C3_1 C14_1 120.8(16)
C2_1 C3_1 C14_1 108.9(14)
C3_1 C4_1 C17_1 122.2(17)
C3_1 C4_1 C5_1 117.7(17)
C17_1 C4_1 C5_1 107.2(15)
C6_1 C5_1 C19_1 120.0(15)
C6_1 C5_1 C4_1 122.3(18)
C19_1 C5_1 C4_1 109.3(14)
C5_1 C6_1 C1_1 117(2)
C5_1 C6_1 C7_1 118.3(15)
C1_1 C6_1 C7_1 106.8(17)
C8_1 C7_1 C21_1 124.3(19)
C8_1 C7_1 C6_1 110.8(17)
C21_1 C7_1 C6_1 117.6(16)
C7_1 C8_1 C24_1 122.6(17)
C7_1 C8_1 C9_1 106.8(16)
C24_1 C8_1 C9_1 119.6(17)
C9_1 C10_1 C26_1 121.6(18)
C9_1 C10_1 C11_1 118.7(19)
C26_1 C10_1 C11_1 108.8(15)
C12_1 C11_1 C28_1 118.7(18)
C12_1 C11_1 C10_1 118.0(19)
C28_1 C11_1 C10_1 107.7(15)
C12_1 C11_1 Sm1 94.2(13)
C28_1 C11_1 Sm1 53.0(8)
C10_1 C11_1 Sm1 82.4(10)
C11_1 C12_1 C2_1 121(2)
C11_1 C12_1 C13_1 123.7(17)
C2_1 C12_1 C13_1 106.5(15)
C14_1 C13_1 C30_1 122.3(14)
C14_1 C13_1 C12_1 110.7(15)
C30_1 C13_1 C12_1 117.2(15)
C13_1 C14_1 C15_1 123.1(14)
C13_1 C14_1 C3_1 107.2(14)
C15_1 C14_1 C3_1 116.7(16)
C32_1 C15_1 C14_1 113.7(14)
C32_1 C15_1 C16_1 121.2(15)
C14_1 C15_1 C16_1 120.9(15)
C17_1 C16_1 C15_1 119.1(18)
C17_1 C16_1 C35_1 116.4(17)
C15_1 C16_1 C35_1 116.0(15)
C16_1 C17_1 C4_1 120.0(17)
C16_1 C17_1 C18_1 123.1(17)
C4_1 C17_1 C18_1 107.6(15)
C37_1 C18_1 C17_1 119.6(16)
C37_1 C18_1 C19_1 121.7(16)
C17_1 C18_1 C19_1 109.3(17)
C20_1 C19_1 C5_1 125.9(16)
C20_1 C19_1 C18_1 117.5(15)
C5_1 C19_1 C18_1 105.5(15)
C19_1 C20_1 C21_1 112.6(15)
C19_1 C20_1 C39_1 122.6(16)
C21_1 C20_1 C39_1 120.4(16)
C22_1 C21_1 C7_1 113.7(17)
C22_1 C21_1 C20_1 115.3(15)
C7_1 C21_1 C20_1 124.1(16)
C21_1 C22_1 C41_1 124.9(16)
C21_1 C22_1 C23_1 120.2(14)
C41_1 C22_1 C23_1 107.2(14)
C24_1 C23_1 C43_1 118.9(16)
C24_1 C23_1 C22_1 124.8(15)
C43_1 C23_1 C22_1 108.9(13)
C23_1 C24_1 C8_1 112.2(16)
C23_1 C24_1 C25_1 120.5(16)
C8_1 C24_1 C25_1 121.4(17)
C26_1 C25_1 C24_1 115.1(17)
C26_1 C25_1 C45_1 118.3(16)
C24_1 C25_1 C45_1 120.0(14)
C26_1 C25_1 Sm1 65.4(12)
C24_1 C25_1 Sm1 101.6(10)
C45_1 C25_1 Sm1 78.1(10)
C25_1 C26_1 C10_1 124.3(19)
C25_1 C26_1 C27_1 119.2(19)
C10_1 C26_1 C27_1 106.2(16)
C25_1 C26_1 Sm1 86.7(13)
C10_1 C26_1 Sm1 90.0(13)
C27_1 C26_1 Sm1 59.6(12)
C47_1 C27_1 C26_1 122.7(19)
C47_1 C27_1 C28_1 120.0(18)
C26_1 C27_1 C28_1 109.3(17)
C47_1 C27_1 Sm1 81.8(14)
C26_1 C27_1 Sm1 88.0(14)
C28_1 C27_1 Sm1 71.5(9)
C47_1 C27_1 Sm4 62.1(13)
C26_1 C27_1 Sm4 96.1(14)
C28_1 C27_1 Sm4 86.0(10)
C29_1 C28_1 C11_1 121.5(17)
C29_1 C28_1 C27_1 120.7(16)
C11_1 C28_1 C27_1 106.7(15)
C29_1 C28_1 Sm1 69.8(8)
C11_1 C28_1 Sm1 97.4(10)
C27_1 C28_1 Sm1 71.9(9)
C28_1 C29_1 C30_1 120.4(16)
C28_1 C29_1 C49_1 117.1(15)
C30_1 C29_1 C49_1 118.6(15)
C28_1 C29_1 Sm1 75.2(9)
C30_1 C29_1 Sm1 96.9(11)
C49_1 C29_1 Sm1 78.1(9)
C28_1 C29_1 Sm4 88.1(10)
C30_1 C29_1 Sm4 103.2(11)
C49_1 C29_1 Sm4 58.7(8)
C31_1 C30_1 C13_1 113.6(15)
C31_1 C30_1 C29_1 122.2(16)
C13_1 C30_1 C29_1 118.4(16)
C31_1 C30_1 Sm1 99.6(11)
C13_1 C30_1 Sm1 96.1(11)
C29_1 C30_1 Sm1 52.6(9)
C30_1 C31_1 C32_1 122.7(14)
C30_1 C31_1 C51_1 118.1(15)
C32_1 C31_1 C51_1 109.2(12)
C15_1 C32_1 C33_1 121.6(15)
C15_1 C32_1 C31_1 121.6(15)
C33_1 C32_1 C31_1 106.3(12)
C34_1 C33_1 C32_1 122.2(14)
C34_1 C33_1 C52_1 120.9(15)
C32_1 C33_1 C52_1 109.1(12)
C55_1 C34_1 C33_1 119.7(16)
C55_1 C34_1 C35_1 117.0(17)
C33_1 C34_1 C35_1 117.0(15)
C36_1 C35_1 C34_1 117.7(16)
C36_1 C35_1 C16_1 117.0(16)
C34_1 C35_1 C16_1 121.9(15)
C57_1 C36_1 C35_1 120.9(16)
C57_1 C36_1 C37_1 103.3(15)
C35_1 C36_1 C37_1 122.0(17)
C18_1 C37_1 C38_1 119.7(16)
C18_1 C37_1 C36_1 119.2(16)
C38_1 C37_1 C36_1 110.2(15)
C58_1 C38_1 C39_1 119.5(17)
C58_1 C38_1 C37_1 109.2(15)
C39_1 C38_1 C37_1 123.2(17)
C38_1 C39_1 C40_1 118.3(15)
C38_1 C39_1 C20_1 114.1(15)
C40_1 C39_1 C20_1 121.5(15)
C60_1 C40_1 C41_1 119.3(16)
C60_1 C40_1 C39_1 119.4(15)
C41_1 C40_1 C39_1 115.9(16)
C40_1 C41_1 C22_1 121.7(17)
C40_1 C41_1 C42_1 118.3(16)
C22_1 C41_1 C42_1 107.7(15)
C41_1 C42_1 C43_1 110.9(15)
C41_1 C42_1 C62_1 121.5(14)
C43_1 C42_1 C62_1 116.8(13)
C44_1 C43_1 C42_1 124.2(15)
C44_1 C43_1 C23_1 123.4(16)
C42_1 C43_1 C23_1 105.2(14)
C43_1 C44_1 C64_1 114.8(15)
C43_1 C44_1 C45_1 118.1(16)
C64_1 C44_1 C45_1 116.7(15)
C46_1 C45_1 C44_1 121.8(17)
C46_1 C45_1 C25_1 118.0(16)
C44_1 C45_1 C25_1 118.0(15)
C46_1 C45_1 Sm4 63.7(10)
C44_1 C45_1 Sm4 99.1(11)
C25_1 C45_1 Sm4 93.2(11)
C46_1 C45_1 Sm1 71.4(10)
C44_1 C45_1 Sm1 111.6(12)
C25_1 C45_1 Sm1 73.6(10)
C66_1 C46_1 C45_1 115.8(19)
C66_1 C46_1 C47_1 111.6(16)
C45_1 C46_1 C47_1 121.6(18)
C66_1 C46_1 Sm4 77.3(13)
C45_1 C46_1 Sm4 87.0(11)
C47_1 C46_1 Sm4 71.9(12)
C66_1 C46_1 Sm1 97.8(13)
C45_1 C46_1 Sm1 81.3(11)
C47_1 C46_1 Sm1 60.0(12)
C27_1 C47_1 C46_1 118.5(18)
C27_1 C47_1 C48_1 120.2(19)
C46_1 C47_1 C48_1 105.9(17)
C27_1 C47_1 Sm1 66.7(13)
C46_1 C47_1 Sm1 90.6(13)
C48_1 C47_1 Sm1 75.2(12)
C27_1 C47_1 Sm4 90.3(15)
C46_1 C47_1 Sm4 75.6(12)
C48_1 C47_1 Sm4 63.2(12)
C67_1 C48_1 C49_1 122.6(17)
C67_1 C48_1 C47_1 108.0(16)
C49_1 C48_1 C47_1 121.8(18)
C67_1 C48_1 Sm4 81.2(10)
C49_1 C48_1 Sm4 79.0(10)
C47_1 C48_1 Sm4 82.6(13)
C67_1 C48_1 Sm1 104.9(10)
C49_1 C48_1 Sm1 69.2(9)
C47_1 C48_1 Sm1 72.0(13)
C48_1 C49_1 C50_1 114.7(15)
C48_1 C49_1 C29_1 118.3(15)
C50_1 C49_1 C29_1 118.7(15)
C48_1 C49_1 Sm4 66.9(9)
C50_1 C49_1 Sm4 84.3(9)
C29_1 C49_1 Sm4 89.7(10)
C48_1 C49_1 Sm1 78.7(10)
C50_1 C49_1 Sm1 98.7(9)
C29_1 C49_1 Sm1 65.2(8)
C69_1 C50_1 C51_1 119.4(15)
C69_1 C50_1 C49_1 120.0(16)
C51_1 C50_1 C49_1 117.8(15)
C69_1 C50_1 Sm4 87.7(12)
C51_1 C50_1 Sm4 103.2(11)
C49_1 C50_1 Sm4 63.1(8)
C69_1 C50_1 Sm1 107.6(12)
C51_1 C50_1 Sm1 93.1(10)
C49_1 C50_1 Sm1 52.8(8)
C50_1 C51_1 C52_1 121.8(15)
C50_1 C51_1 C31_1 124.5(15)
C52_1 C51_1 C31_1 105.8(13)
C51_1 C52_1 C33_1 109.3(13)
C51_1 C52_1 C53_1 120.3(13)
C33_1 C52_1 C53_1 120.5(13)
C70_1 C53_1 C54_1 118.7(14)
C70_1 C53_1 C52_1 115.8(15)
C54_1 C53_1 C52_1 119.0(13)
C53_1 C54_1 C73_1 122.6(13)
C53_1 C54_1 C55_1 120.0(14)
C73_1 C54_1 C55_1 109.3(14)
C53_1 C54_1 Sm2 101.3(10)
C73_1 C54_1 Sm2 67.5(8)
C55_1 C54_1 Sm2 71.5(8)
C34_1 C55_1 C56_1 124.2(15)
C34_1 C55_1 C54_1 119.5(14)
C56_1 C55_1 C54_1 106.7(14)
C34_1 C55_1 Sm2 94.6(14)
C56_1 C55_1 Sm2 63.9(9)
C54_1 C55_1 Sm2 79.2(8)
C57_1 C56_1 C55_1 115.5(16)
C57_1 C56_1 C74_1 129.6(18)
C55_1 C56_1 C74_1 107.0(14)
C57_1 C56_1 Sm2 85.0(10)
C55_1 C56_1 Sm2 86.1(10)
C74_1 C56_1 Sm2 71.8(9)
C56_1 C57_1 C36_1 124.1(17)
C56_1 C57_1 C58_1 111.9(15)
C36_1 C57_1 C58_1 112.1(15)
C56_1 C57_1 Sm2 66.2(10)
C36_1 C57_1 Sm2 96.6(11)
C58_1 C57_1 Sm2 72.7(9)
C59_1 C58_1 C38_1 123.8(18)
C59_1 C58_1 C57_1 121.0(16)
C38_1 C58_1 C57_1 104.1(15)
C59_1 C58_1 Sm2 69.8(10)
C38_1 C58_1 Sm2 93.3(14)
C57_1 C58_1 Sm2 75.6(9)
C58_1 C59_1 C60_1 117.4(16)
C58_1 C59_1 C75_1 120.4(17)
C60_1 C59_1 C75_1 109.5(15)
C58_1 C59_1 Sm2 81.0(11)
C60_1 C59_1 Sm2 83.9(9)
C75_1 C59_1 Sm2 69.4(9)
C40_1 C60_1 C59_1 121.5(15)
C40_1 C60_1 C61_1 123.8(15)
C59_1 C60_1 C61_1 106.4(16)
C40_1 C60_1 Sm2 92.8(10)
C59_1 C60_1 Sm2 66.2(9)
C61_1 C60_1 Sm2 80.4(10)
C62_1 C61_1 C76_1 123.6(15)
C62_1 C61_1 C60_1 115.0(15)
C76_1 C61_1 C60_1 106.8(15)
C62_1 C61_1 Sm2 95.2(11)
C76_1 C61_1 Sm2 64.8(8)
C60_1 C61_1 Sm2 70.2(9)
C63_1 C62_1 C61_1 113.9(17)
C63_1 C62_1 C42_1 122.9(14)
C61_1 C62_1 C42_1 120.6(14)
C62_1 C63_1 C78_1 121.9(16)
C62_1 C63_1 C64_1 116.2(15)
C78_1 C63_1 C64_1 109.1(15)
C65_1 C64_1 C44_1 120.2(17)
C65_1 C64_1 C63_1 105.7(15)
C44_1 C64_1 C63_1 124.1(15)
C65_1 C64_1 Sm3 62.7(9)
C44_1 C64_1 Sm3 91.9(11)
C63_1 C64_1 Sm3 81.7(10)
C66_1 C65_1 C64_1 119.0(18)
C66_1 C65_1 C79_1 119.8(17)
C64_1 C65_1 C79_1 110.1(15)
C66_1 C65_1 Sm3 78.0(13)
C64_1 C65_1 Sm3 88.6(11)
C79_1 C65_1 Sm3 70.4(9)
C65_1 C66_1 C46_1 126(2)
C65_1 C66_1 C67_1 120.9(17)
C46_1 C66_1 C67_1 104.3(14)
C65_1 C66_1 Sm4 97.9(15)
C46_1 C66_1 Sm4 72.4(12)
C67_1 C66_1 Sm4 66.8(10)
C65_1 C66_1 Sm3 72.2(12)
C46_1 C66_1 Sm3 95.1(14)
C67_1 C66_1 Sm3 74.1(10)
C68_1 C67_1 C48_1 122.5(16)
C68_1 C67_1 C66_1 117.2(16)
C48_1 C67_1 C66_1 108.4(14)
C68_1 C67_1 Sm4 90.2(9)
C48_1 C67_1 Sm4 65.6(9)
C66_1 C67_1 Sm4 78.9(12)
C68_1 C67_1 Sm3 70.4(8)
C48_1 C67_1 Sm3 92.9(10)
C66_1 C67_1 Sm3 73.1(11)
C67_1 C68_1 C69_1 117.2(16)
C67_1 C68_1 C80_1 119.9(16)
C69_1 C68_1 C80_1 112.9(14)
C67_1 C68_1 Sm3 79.9(8)
C69_1 C68_1 Sm3 88.3(10)
C80_1 C68_1 Sm3 70.5(8)
C67_1 C68_1 Sm4 61.1(7)
C69_1 C68_1 Sm4 82.4(10)
C80_1 C68_1 Sm4 96.4(9)
C50_1 C69_1 C68_1 121.7(17)
C50_1 C69_1 C70_1 117.1(16)
C68_1 C69_1 C70_1 104.9(16)
C50_1 C69_1 Sm3 86.9(11)
C68_1 C69_1 Sm3 62.6(9)
C70_1 C69_1 Sm3 79.0(13)
C50_1 C69_1 Sm4 65.3(10)
C68_1 C69_1 Sm4 69.7(10)
C70_1 C69_1 Sm4 99.4(13)
C53_1 C70_1 C71_1 120.0(17)
C53_1 C70_1 C69_1 123.5(18)
C71_1 C70_1 C69_1 106.5(17)
C53_1 C70_1 Sm3 98.0(13)
C71_1 C70_1 Sm3 66.2(13)
C69_1 C70_1 Sm3 72.1(12)
C80_1 C71_1 C72_1 116.3(17)
C80_1 C71_1 C70_1 111.9(17)
C72_1 C71_1 C70_1 121(2)
C80_1 C71_1 Sm3 64.9(10)
C72_1 C71_1 Sm3 86.2(15)
C70_1 C71_1 Sm3 85.1(14)
C77_1 C72_1 C73_1 113.7(16)
C77_1 C72_1 C71_1 124.6(16)
C73_1 C72_1 C71_1 117.6(19)
C77_1 C72_1 Sm2 77.3(12)
C73_1 C72_1 Sm2 65.6(11)
C71_1 C72_1 Sm2 105.9(17)
C77_1 C72_1 Sm3 82.0(13)
C73_1 C72_1 Sm3 105.7(14)
C71_1 C72_1 Sm3 65.6(13)
C74_1 C73_1 C72_1 123.8(16)
C74_1 C73_1 C54_1 106.5(15)
C72_1 C73_1 C54_1 118.2(16)
C74_1 C73_1 Sm2 66.1(8)
C72_1 C73_1 Sm2 86.3(13)
C54_1 C73_1 Sm2 83.4(9)
C75_1 C74_1 C73_1 121.5(15)
C75_1 C74_1 C56_1 114.0(16)
C73_1 C74_1 C56_1 110.3(15)
C75_1 C74_1 Sm2 73.9(10)
C73_1 C74_1 Sm2 83.4(9)
C56_1 C74_1 Sm2 74.7(10)
C74_1 C75_1 C76_1 117.3(15)
C74_1 C75_1 C59_1 123.0(16)
C76_1 C75_1 C59_1 107.5(14)
C74_1 C75_1 Sm2 75.5(10)
C76_1 C75_1 Sm2 82.2(9)
C59_1 C75_1 Sm2 77.8(9)
C75_1 C76_1 C77_1 122.0(16)
C75_1 C76_1 C61_1 109.4(14)
C77_1 C76_1 C61_1 121.0(15)
C75_1 C76_1 Sm2 66.7(9)
C77_1 C76_1 Sm2 88.9(10)
C61_1 C76_1 Sm2 86.2(9)
C72_1 C77_1 C76_1 120.8(16)
C72_1 C77_1 C78_1 115.6(14)
C76_1 C77_1 C78_1 113.3(17)
C72_1 C77_1 Sm2 75.8(12)
C76_1 C77_1 Sm2 63.3(9)
C78_1 C77_1 Sm2 101.8(10)
C79_1 C78_1 C77_1 119.5(15)
C79_1 C78_1 C63_1 107.3(16)
C77_1 C78_1 C63_1 123.3(15)
C79_1 C78_1 Sm3 62.7(9)
C77_1 C78_1 Sm3 88.5(10)
C63_1 C78_1 Sm3 85.9(9)
C80_1 C79_1 C78_1 122.5(15)
C80_1 C79_1 C65_1 119.1(16)
C78_1 C79_1 C65_1 107.7(16)
C80_1 C79_1 Sm3 73.6(9)
C78_1 C79_1 Sm3 87.2(10)
C65_1 C79_1 Sm3 77.0(9)
C79_1 C80_1 C71_1 121.4(16)
C79_1 C80_1 C68_1 123.1(15)
C71_1 C80_1 C68_1 103.7(15)
C79_1 C80_1 Sm3 75.4(9)
C71_1 C80_1 Sm3 84.5(12)
C68_1 C80_1 Sm3 76.4(8)
C4 S1 C1 93.6(3)
C2 S2 C6 95.5(3)
C1 S3 C7 93.7(3)
C3 S4 C2 95.6(3)
C3 S5 C5 98.6(4)
C6 S6 C10 98.9(4)
C4 S7 C9 102.1(4)
C7 S8 C8 98.0(4)
C2 C1 S3 125.8(5)
C2 C1 S1 120.8(5)
S3 C1 S1 113.4(4)
C1 C2 S2 121.4(5)
C1 C2 S4 124.9(5)
S2 C2 S4 113.7(3)
C6 C3 S5 127.8(5)
C6 C3 S4 116.9(5)
S5 C3 S4 115.2(4)
C7 C4 S1 116.9(5)
C7 C4 S7 129.0(6)
S1 C4 S7 113.9(4)
C10 C5 S5 111.0(6)
C10 C5 H5A 109.4
S5 C5 H5A 109.4
C10 C5 H5B 109.4
S5 C5 H5B 109.4
H5A C5 H5B 108.0
C3 C6 S6 130.3(5)
C3 C6 S2 117.0(5)
S6 C6 S2 112.7(4)
C4 C7 S8 128.0(6)
C4 C7 S3 116.8(6)
S8 C7 S3 115.1(4)
C9 C8 S8 111.7(6)
C9 C8 H8A 109.3
S8 C8 H8A 109.3
C9 C8 H8B 109.3
S8 C8 H8B 109.3
H8A C8 H8B 107.9
C8 C9 S7 112.9(6)
C8 C9 H9A 109.0
S7 C9 H9A 109.0
C8 C9 H9B 109.0
S7 C9 H9B 109.0
H9A C9 H9B 107.8
C5 C10 S6 112.1(5)
C5 C10 H10A 109.2
S6 C10 H10A 109.2
C5 C10 H10B 109.2
S6 C10 H10B 109.2
H10A C10 H10B 107.9
C6S C1S C2S 120(2)
C6S C1S H1SA 120.2
C2S C1S H1SA 120.2
C1S C2S C3S 122(2)
C1S C2S H2SA 119.1
C3S C2S H2SA 119.1
C4S C3S C2S 119(2)
C4S C3S H3SA 120.7
C2S C3S H3SA 120.7
C3S C4S C5S 121(2)
C3S C4S H4SA 119.7
C5S C4S H4SA 119.7
C6S C5S C4S 120(3)
C6S C5S H5SA 120.0
C4S C5S H5SA 120.0
C1S C6S C5S 119(2)
C1S C6S C7S 118.7(18)
C5S C6S C7S 122(2)
C2_2 C1_2 C9_2 127(2)
C2_2 C1_2 C6_2 112(2)
C9_2 C1_2 C6_2 106(2)
C2_2 C1_2 Sm2 83.4(16)
C9_2 C1_2 Sm2 79.7(14)
C6_2 C1_2 Sm2 66.5(10)
C1_2 C2_2 C12_2 113(2)
C1_2 C2_2 C3_2 127(2)
C12_2 C2_2 C3_2 107(2)
C1_2 C2_2 Sm2 68.5(15)
C12_2 C2_2 Sm2 87.4(13)
C3_2 C2_2 Sm2 80.2(16)
C4_2 C3_2 C2_2 116(2)
C4_2 C3_2 C14_2 122(2)
C2_2 C3_2 C14_2 109(2)
C4_2 C3_2 Sm2 73.5(17)
C2_2 C3_2 Sm2 70.4(15)
C14_2 C3_2 Sm2 89.8(14)
C3_2 C4_2 C17_2 119(2)
C3_2 C4_2 C5_2 123(2)
C17_2 C4_2 C5_2 108.2(18)
C3_2 C4_2 Sm2 80.2(18)
C17_2 C4_2 Sm2 91.7(14)
C5_2 C4_2 Sm2 66.8(14)
C6_2 C5_2 C19_2 125(2)
C6_2 C5_2 C4_2 115(2)
C19_2 C5_2 C4_2 105.7(17)
C6_2 C5_2 Sm2 66.7(12)
C19_2 C5_2 Sm2 85.3(12)
C4_2 C5_2 Sm2 82.3(15)
C5_2 C6_2 C1_2 127(2)
C5_2 C6_2 C7_2 118(2)
C1_2 C6_2 C7_2 106.5(17)
C5_2 C6_2 Sm2 83.5(13)
C1_2 C6_2 Sm2 80.1(11)
C7_2 C6_2 Sm2 75.2(12)
C8_2 C7_2 C21_2 117(2)
C8_2 C7_2 C6_2 110.9(18)
C21_2 C7_2 C6_2 121(2)
C8_2 C7_2 Sm2 83.4(15)
C21_2 C7_2 Sm2 83.9(13)
C6_2 C7_2 Sm2 69.8(11)
C7_2 C8_2 C24_2 126(2)
C7_2 C8_2 C9_2 107(2)
C24_2 C8_2 C9_2 115(2)
C7_2 C8_2 Sm2 66.7(14)
C24_2 C8_2 Sm2 91.9(13)
C9_2 C8_2 Sm2 76.0(15)
C10_2 C9_2 C1_2 117(3)
C10_2 C9_2 C8_2 121(3)
C1_2 C9_2 C8_2 110(2)
C10_2 C9_2 Sm2 93(2)
C1_2 C9_2 Sm2 69.1(13)
C8_2 C9_2 Sm2 72.8(14)
C9_2 C10_2 C26_2 124(3)
C9_2 C10_2 C11_2 119(3)
C26_2 C10_2 C11_2 104(2)
C9_2 C10_2 Sm3 106(3)
C26_2 C10_2 Sm3 55(2)
C11_2 C10_2 Sm3 70.0(18)
C12_2 C11_2 C28_2 121(3)
C12_2 C11_2 C10_2 120(3)
C28_2 C11_2 C10_2 113(2)
C12_2 C11_2 Sm3 105.3(15)
C28_2 C11_2 Sm3 57.8(13)
C10_2 C11_2 Sm3 81(2)
C11_2 C12_2 C2_2 123(2)
C11_2 C12_2 C13_2 121(2)
C2_2 C12_2 C13_2 106.2(19)
C14_2 C13_2 C30_2 121(2)
C14_2 C13_2 C12_2 111(2)
C30_2 C13_2 C12_2 113(2)
C13_2 C14_2 C15_2 125(2)
C13_2 C14_2 C3_2 106(2)
C15_2 C14_2 C3_2 118(2)
C32_2 C15_2 C14_2 113(2)
C32_2 C15_2 C16_2 126(2)
C14_2 C15_2 C16_2 119(2)
C17_2 C16_2 C15_2 118(2)
C17_2 C16_2 C35_2 122(2)
C15_2 C16_2 C35_2 114(2)
C16_2 C17_2 C4_2 123(2)
C16_2 C17_2 C18_2 116(2)
C4_2 C17_2 C18_2 109.1(19)
C37_2 C18_2 C19_2 120(2)
C37_2 C18_2 C17_2 125(2)
C19_2 C18_2 C17_2 106(2)
C20_2 C19_2 C5_2 117.0(19)
C20_2 C19_2 C18_2 122(2)
C5_2 C19_2 C18_2 110.5(18)
C20_2 C19_2 Sm2 77.9(13)
C5_2 C19_2 Sm2 64.9(11)
C18_2 C19_2 Sm2 95.5(18)
C19_2 C20_2 C21_2 124(2)
C19_2 C20_2 C39_2 114(2)
C21_2 C20_2 C39_2 116.3(19)
C19_2 C20_2 Sm2 74.6(12)
C21_2 C20_2 Sm2 68.3(12)
C39_2 C20_2 Sm2 107.4(14)
C22_2 C21_2 C7_2 122(2)
C22_2 C21_2 C20_2 118(2)
C7_2 C21_2 C20_2 115(2)
C22_2 C21_2 Sm2 100(2)
C7_2 C21_2 Sm2 64.7(13)
C20_2 C21_2 Sm2 82.4(13)
C21_2 C22_2 C41_2 129(2)
C21_2 C22_2 C23_2 115(2)
C41_2 C22_2 C23_2 109.0(18)
C24_2 C23_2 C43_2 118.1(18)
C24_2 C23_2 C22_2 127(2)
C43_2 C23_2 C22_2 107.3(16)
C23_2 C24_2 C8_2 111.1(19)
C23_2 C24_2 C25_2 120(2)
C8_2 C24_2 C25_2 122.1(19)
C26_2 C25_2 C24_2 119(2)
C26_2 C25_2 C45_2 114(2)
C24_2 C25_2 C45_2 121(2)
C26_2 C25_2 Sm3 63.9(19)
C24_2 C25_2 Sm3 102.9(18)
C45_2 C25_2 Sm3 77.2(15)
C25_2 C26_2 C10_2 118(3)
C25_2 C26_2 C27_2 123(3)
C10_2 C26_2 C27_2 109(2)
C25_2 C26_2 Sm3 86(2)
C10_2 C26_2 Sm3 96(3)
C27_2 C26_2 Sm3 57.5(15)
C47_2 C27_2 C28_2 125(2)
C47_2 C27_2 C26_2 120(3)
C28_2 C27_2 C26_2 110(2)
C47_2 C27_2 Sm3 77.0(14)
C28_2 C27_2 Sm3 84.1(15)
C26_2 C27_2 Sm3 86(2)
C47_2 C27_2 Sm4 55.3(13)
C28_2 C27_2 Sm4 97.7(15)
C26_2 C27_2 Sm4 97.3(19)
C29_2 C28_2 C11_2 127(3)
C29_2 C28_2 C27_2 116(2)
C11_2 C28_2 C27_2 104.0(19)
C29_2 C28_2 Sm3 80.9(16)
C11_2 C28_2 Sm3 91.9(15)
C27_2 C28_2 Sm3 59.1(13)
C28_2 C29_2 C30_2 109(2)
C28_2 C29_2 C49_2 117(2)
C30_2 C29_2 C49_2 124.5(19)
C28_2 C29_2 Sm3 67.4(15)
C30_2 C29_2 Sm3 97.4(15)
C49_2 C29_2 Sm3 75.4(12)
C31_2 C30_2 C13_2 111(2)
C31_2 C30_2 C29_2 114.0(19)
C13_2 C30_2 C29_2 129(2)
C30_2 C31_2 C51_2 128(2)
C30_2 C31_2 C32_2 127(2)
C51_2 C31_2 C32_2 100.5(17)
C15_2 C32_2 C31_2 120(2)
C15_2 C32_2 C33_2 113(2)
C31_2 C32_2 C33_2 116(2)
C34_2 C33_2 C52_2 121(2)
C34_2 C33_2 C32_2 132(3)
C52_2 C33_2 C32_2 101(2)
C55_2 C34_2 C33_2 114(3)
C55_2 C34_2 C35_2 129(3)
C33_2 C34_2 C35_2 109(3)
C36_2 C35_2 C34_2 114(2)
C36_2 C35_2 C16_2 115(2)
C34_2 C35_2 C16_2 126(2)
C57_2 C36_2 C35_2 122(2)
C57_2 C36_2 C37_2 101(2)
C35_2 C36_2 C37_2 121(2)
C18_2 C37_2 C38_2 120(2)
C18_2 C37_2 C36_2 117(2)
C38_2 C37_2 C36_2 115(2)
C58_2 C38_2 C39_2 122(3)
C58_2 C38_2 C37_2 105(2)
C39_2 C38_2 C37_2 119(2)
C38_2 C39_2 C40_2 114(2)
C38_2 C39_2 C20_2 120(2)
C40_2 C39_2 C20_2 120(2)
C41_2 C40_2 C39_2 123(2)
C41_2 C40_2 C60_2 109(2)
C39_2 C40_2 C60_2 123(2)
C40_2 C41_2 C42_2 129(2)
C40_2 C41_2 C22_2 113(2)
C42_2 C41_2 C22_2 106.4(18)
C41_2 C42_2 C43_2 109.6(19)
C41_2 C42_2 C62_2 118.8(19)
C43_2 C42_2 C62_2 122(2)
C44_2 C43_2 C42_2 122(2)
C44_2 C43_2 C23_2 124(2)
C42_2 C43_2 C23_2 107.6(17)
C43_2 C44_2 C64_2 111.1(19)
C43_2 C44_2 C45_2 120(2)
C64_2 C44_2 C45_2 117(2)
C46_2 C45_2 C44_2 115(2)
C46_2 C45_2 C25_2 123(2)
C44_2 C45_2 C25_2 116(2)
C46_2 C45_2 Sm3 68.5(12)
C44_2 C45_2 Sm3 108.5(16)
C25_2 C45_2 Sm3 71.8(16)
C46_2 C45_2 Sm4 58.5(11)
C44_2 C45_2 Sm4 91.0(16)
C25_2 C45_2 Sm4 96.0(17)
C66_2 C46_2 C45_2 125(2)
C66_2 C46_2 C47_2 111(2)
C45_2 C46_2 C47_2 117(2)
C66_2 C46_2 Sm4 77.3(14)
C45_2 C46_2 Sm4 92.0(13)
C47_2 C46_2 Sm4 72.5(12)
C66_2 C46_2 Sm3 104.8(15)
C45_2 C46_2 Sm3 81.8(13)
C47_2 C46_2 Sm3 56.1(10)
C27_2 C47_2 C48_2 123(2)
C27_2 C47_2 C46_2 122(2)
C48_2 C47_2 C46_2 110(2)
C27_2 C47_2 Sm3 67.7(14)
C48_2 C47_2 Sm3 91.2(16)
C46_2 C47_2 Sm3 90.9(12)
C27_2 C47_2 Sm4 98.6(16)
C48_2 C47_2 Sm4 74.4(16)
C46_2 C47_2 Sm4 73.2(12)
C67_2 C48_2 C49_2 132(2)
C67_2 C48_2 C47_2 103(2)
C49_2 C48_2 C47_2 112(2)
C67_2 C48_2 Sm4 76.4(16)
C49_2 C48_2 Sm4 85.0(16)
C47_2 C48_2 Sm4 71.6(15)
C67_2 C48_2 Sm3 102.9(18)
C49_2 C48_2 Sm3 73.9(14)
C47_2 C48_2 Sm3 56.0(13)
C48_2 C49_2 C50_2 119(2)
C48_2 C49_2 C29_2 125(2)
C50_2 C49_2 C29_2 112(2)
C48_2 C49_2 Sm3 75.3(15)
C50_2 C49_2 Sm3 104.2(17)
C29_2 C49_2 Sm3 71.8(13)
C48_2 C49_2 Sm4 64.2(15)
C50_2 C49_2 Sm4 88.0(17)
C29_2 C49_2 Sm4 97.7(14)
C51_2 C50_2 C49_2 127(2)
C51_2 C50_2 C69_2 115(2)
C49_2 C50_2 C69_2 108(2)
C50_2 C51_2 C52_2 125(2)
C50_2 C51_2 C31_2 114(2)
C52_2 C51_2 C31_2 111.1(19)
C51_2 C52_2 C33_2 111(2)
C51_2 C52_2 C53_2 117(2)
C33_2 C52_2 C53_2 123(2)
C70_2 C53_2 C54_2 114(2)
C70_2 C53_2 C52_2 124(2)
C54_2 C53_2 C52_2 116(2)
C53_2 C54_2 C73_2 134(3)
C53_2 C54_2 C55_2 116(3)
C73_2 C54_2 C55_2 103(2)
C34_2 C55_2 C56_2 107(3)
C34_2 C55_2 C54_2 128(3)
C56_2 C55_2 C54_2 111(3)
C57_2 C56_2 C55_2 134(3)
C57_2 C56_2 C74_2 112(3)
C55_2 C56_2 C74_2 107(3)
C56_2 C57_2 C36_2 113(2)
C56_2 C57_2 C58_2 123(2)
C36_2 C57_2 C58_2 113(2)
C59_2 C58_2 C38_2 124(3)
C59_2 C58_2 C57_2 117(2)
C38_2 C58_2 C57_2 107(2)
C58_2 C59_2 C60_2 120(2)
C58_2 C59_2 C75_2 122(2)
C60_2 C59_2 C75_2 110(2)
C59_2 C60_2 C40_2 116(2)
C59_2 C60_2 C61_2 107(2)
C40_2 C60_2 C61_2 121(2)
C62_2 C61_2 C76_2 125(2)
C62_2 C61_2 C60_2 122(2)
C76_2 C61_2 C60_2 106(2)
C63_2 C62_2 C61_2 114(2)
C63_2 C62_2 C42_2 123(2)
C61_2 C62_2 C42_2 117(2)
C62_2 C63_2 C78_2 124(2)
C62_2 C63_2 C64_2 111(2)
C78_2 C63_2 C64_2 116(2)
C62_2 C63_2 Sm1 99(2)
C78_2 C63_2 Sm1 66.4(15)
C64_2 C63_2 Sm1 75.4(16)
C65_2 C64_2 C44_2 123(2)
C65_2 C64_2 C63_2 97.7(19)
C44_2 C64_2 C63_2 131(2)
C65_2 C64_2 Sm1 65.2(12)
C44_2 C64_2 Sm1 95.1(14)
C63_2 C64_2 Sm1 76.7(17)
C66_2 C65_2 C64_2 117(2)
C66_2 C65_2 C79_2 114(2)
C64_2 C65_2 C79_2 114(2)
C66_2 C65_2 Sm1 78.9(14)
C64_2 C65_2 Sm1 87.0(13)
C79_2 C65_2 Sm1 66.4(12)
C66_2 C65_2 Sm4 60.5(13)
C64_2 C65_2 Sm4 87.7(12)
C79_2 C65_2 Sm4 85.0(13)
C65_2 C66_2 C46_2 122(2)
C65_2 C66_2 C67_2 126(2)
C46_2 C66_2 C67_2 101.7(19)
C65_2 C66_2 Sm4 92.0(16)
C46_2 C66_2 Sm4 70.9(13)
C67_2 C66_2 Sm4 72.4(12)
C65_2 C66_2 Sm1 73.2(14)
C46_2 C66_2 Sm1 90.5(14)
C67_2 C66_2 Sm1 76.4(12)
C68_2 C67_2 C48_2 113(3)
C68_2 C67_2 C66_2 113(2)
C48_2 C67_2 C66_2 114(2)
C68_2 C67_2 Sm4 80(2)
C48_2 C67_2 Sm4 72.1(16)
C66_2 C67_2 Sm4 72.5(12)
C68_2 C67_2 Sm1 62(2)
C48_2 C67_2 Sm1 90.7(17)
C66_2 C67_2 Sm1 72.4(12)
C67_2 C68_2 C69_2 122(3)
C67_2 C68_2 C80_2 122(2)
C69_2 C68_2 C80_2 113(2)
C67_2 C68_2 Sm1 90(2)
C69_2 C68_2 Sm1 88(2)
C80_2 C68_2 Sm1 74(2)
C67_2 C68_2 Sm4 70(2)
C69_2 C68_2 Sm4 89(2)
C80_2 C68_2 Sm4 95(2)
C68_2 C69_2 C70_2 101(2)
C68_2 C69_2 C50_2 126(2)
C70_2 C69_2 C50_2 121(2)
C68_2 C69_2 Sm1 62(2)
C70_2 C69_2 Sm1 75.5(19)
C50_2 C69_2 Sm1 94.3(16)
C68_2 C69_2 Sm4 63(2)
C70_2 C69_2 Sm4 95(2)
C50_2 C69_2 Sm4 78.9(15)
C53_2 C70_2 C71_2 120(2)
C53_2 C70_2 C69_2 118(2)
C71_2 C70_2 C69_2 113(2)
C53_2 C70_2 Sm1 97(2)
C71_2 C70_2 Sm1 67.6(16)
C69_2 C70_2 Sm1 74.6(18)
C80_2 C71_2 C72_2 128(2)
C80_2 C71_2 C70_2 105(2)
C72_2 C71_2 C70_2 119(2)
C80_2 C71_2 Sm1 69.9(12)
C72_2 C71_2 Sm1 88.8(13)
C70_2 C71_2 Sm1 82.3(19)
C77_2 C72_2 C73_2 113(2)
C77_2 C72_2 C71_2 114(2)
C73_2 C72_2 C71_2 126(3)
C77_2 C72_2 Sm1 77.2(18)
C73_2 C72_2 Sm1 105.4(16)
C71_2 C72_2 Sm1 62.8(11)
C74_2 C73_2 C72_2 127(2)
C74_2 C73_2 C54_2 111(2)
C72_2 C73_2 C54_2 106(3)
C75_2 C74_2 C73_2 114(3)
C75_2 C74_2 C56_2 130(3)
C73_2 C74_2 C56_2 108(2)
C74_2 C75_2 C76_2 123(2)
C74_2 C75_2 C59_2 114(2)
C76_2 C75_2 C59_2 107(2)
C75_2 C76_2 C77_2 119(2)
C75_2 C76_2 C61_2 110(2)
C77_2 C76_2 C61_2 118(2)
C72_2 C77_2 C78_2 118(2)
C72_2 C77_2 C76_2 121(2)
C78_2 C77_2 C76_2 115(2)
C72_2 C77_2 Sm1 76.0(17)
C78_2 C77_2 Sm1 67.0(15)
C76_2 C77_2 Sm1 105.9(18)
C79_2 C78_2 C77_2 124(2)
C79_2 C78_2 C63_2 104(2)
C77_2 C78_2 C63_2 121(2)
C79_2 C78_2 Sm1 65.1(12)
C77_2 C78_2 Sm1 85.2(17)
C63_2 C78_2 Sm1 85.4(17)
C80_2 C79_2 C78_2 121(2)
C80_2 C79_2 C65_2 124(2)
C78_2 C79_2 C65_2 107(2)
C80_2 C79_2 Sm1 75.7(14)
C78_2 C79_2 Sm1 85.1(13)
C65_2 C79_2 Sm1 81.8(13)
C79_2 C80_2 C71_2 115(2)
C79_2 C80_2 C68_2 118(2)
C71_2 C80_2 C68_2 107(2)
C79_2 C80_2 Sm1 74.2(14)
C71_2 C80_2 Sm1 79.1(12)
C68_2 C80_2 Sm1 72(2)
loop_
_geom_bond_atom_site_label_1
_geom_bond_atom_site_label_2
_geom_bond_distance
Sm1 C29_1 2.287(16)
Sm1 C28_1 2.356(14)
Sm1 C27_1 2.361(19)
Sm1 C49_1 2.466(16)
Sm1 C68_2 2.54(5)
Sm1 C47_1 2.54(3)
Sm1 C79_2 2.55(2)
Sm1 C80_2 2.57(2)
Sm1 C48_1 2.587(17)
Sm1 C71_2 2.686(18)
Sm2 C6_2 2.456(16)
Sm2 C75_1 2.527(17)
Sm2 C7_2 2.53(3)
Sm2 C74_1 2.547(15)
Sm2 C56_1 2.586(19)
Sm2 C1_2 2.64(2)
Sm2 C59_1 2.639(14)
Sm2 C5_2 2.66(2)
Sm2 C76_1 2.726(16)
Sm2 C8_2 2.74(2)
Sm2 C73_1 2.768(17)
Sm3 C27_2 2.10(3)
Sm3 C47_2 2.22(2)
Sm3 C28_2 2.44(3)
Sm3 C26_2 2.49(4)
Sm3 C80_1 2.519(14)
Sm3 C79_1 2.542(18)
Sm3 C68_1 2.597(14)
Sm3 C29_2 2.61(3)
Sm3 C65_1 2.629(15)
Sm4 C48_1 2.300(19)
Sm4 C49_1 2.455(18)
Sm4 C47_2 2.46(2)
Sm4 C46_2 2.47(2)
Sm4 C48_2 2.49(3)
Sm4 C67_1 2.496(14)
Sm4 C67_2 2.55(2)
Sm4 C66_2 2.55(2)
Sm4 C47_1 2.56(3)
Sm4 C46_1 2.604(17)
C1_1 C2_1 1.32(3)
C1_1 C6_1 1.449(16)
C1_1 C9_1 1.469(17)
C2_1 C3_1 1.456(16)
C2_1 C12_1 1.460(16)
C9_1 C10_1 1.347(17)
C9_1 C8_1 1.500(17)
C3_1 C4_1 1.335(16)
C3_1 C14_1 1.491(16)
C4_1 C17_1 1.453(17)
C4_1 C5_1 1.50(2)
C5_1 C6_1 1.348(16)
C5_1 C19_1 1.469(16)
C6_1 C7_1 1.495(17)
C7_1 C8_1 1.38(2)
C7_1 C21_1 1.451(17)
C8_1 C24_1 1.457(17)
C10_1 C26_1 1.462(17)
C10_1 C11_1 1.49(2)
C11_1 C12_1 1.326(17)
C11_1 C28_1 1.456(17)
C12_1 C13_1 1.497(17)
C13_1 C14_1 1.37(2)
C13_1 C30_1 1.445(17)
C14_1 C15_1 1.442(16)
C15_1 C32_1 1.393(15)
C15_1 C16_1 1.453(17)
C16_1 C17_1 1.392(17)
C16_1 C35_1 1.492(17)
C17_1 C18_1 1.476(17)
C18_1 C37_1 1.32(2)
C18_1 C19_1 1.481(17)
C19_1 C20_1 1.388(16)
C20_1 C21_1 1.454(16)
C20_1 C39_1 1.486(16)
C21_1 C22_1 1.410(16)
C22_1 C41_1 1.427(17)
C22_1 C23_1 1.472(19)
C23_1 C24_1 1.401(15)
C23_1 C43_1 1.452(16)
C24_1 C25_1 1.463(16)
C25_1 C26_1 1.405(17)
C25_1 C45_1 1.485(17)
C26_1 C27_1 1.468(17)
C27_1 C47_1 1.34(2)
C27_1 C28_1 1.479(17)
C28_1 C29_1 1.399(16)
C29_1 C30_1 1.461(17)
C29_1 C49_1 1.507(17)
C30_1 C31_1 1.401(16)
C31_1 C32_1 1.440(18)
C31_1 C51_1 1.461(16)
C32_1 C33_1 1.426(16)
C33_1 C34_1 1.406(16)
C33_1 C52_1 1.427(14)
C34_1 C55_1 1.40(3)
C34_1 C35_1 1.467(17)
C35_1 C36_1 1.418(17)
C36_1 C57_1 1.385(17)
C36_1 C37_1 1.457(16)
C37_1 C38_1 1.447(16)
C38_1 C58_1 1.372(17)
C38_1 C39_1 1.418(17)
C39_1 C40_1 1.453(16)
C40_1 C60_1 1.37(3)
C40_1 C41_1 1.418(16)
C41_1 C42_1 1.430(15)
C42_1 C43_1 1.441(15)
C42_1 C62_1 1.442(18)
C43_1 C44_1 1.424(16)
C44_1 C64_1 1.43(3)
C44_1 C45_1 1.467(16)
C45_1 C46_1 1.424(17)
C46_1 C66_1 1.375(17)
C46_1 C47_1 1.441(17)
C47_1 C48_1 1.449(17)
C48_1 C67_1 1.382(16)
C48_1 C49_1 1.404(17)
C49_1 C50_1 1.482(16)
C50_1 C69_1 1.37(3)
C50_1 C51_1 1.410(16)
C51_1 C52_1 1.419(15)
C52_1 C53_1 1.428(18)
C53_1 C70_1 1.401(15)
C53_1 C54_1 1.402(14)
C54_1 C73_1 1.458(16)
C54_1 C55_1 1.482(15)
C55_1 C56_1 1.441(17)
C56_1 C57_1 1.362(17)
C56_1 C74_1 1.483(17)
C57_1 C58_1 1.53(2)
C58_1 C59_1 1.372(17)
C59_1 C60_1 1.435(17)
C59_1 C75_1 1.467(16)
C60_1 C61_1 1.497(16)
C61_1 C62_1 1.401(15)
C61_1 C76_1 1.460(16)
C62_1 C63_1 1.392(15)
C63_1 C78_1 1.444(16)
C63_1 C64_1 1.476(16)
C64_1 C65_1 1.417(17)
C65_1 C66_1 1.373(17)
C65_1 C79_1 1.455(17)
C66_1 C67_1 1.53(2)
C67_1 C68_1 1.366(16)
C68_1 C69_1 1.424(17)
C68_1 C80_1 1.460(16)
C69_1 C70_1 1.482(16)
C70_1 C71_1 1.452(16)
C71_1 C80_1 1.416(16)
C71_1 C72_1 1.435(16)
C72_1 C77_1 1.42(3)
C72_1 C73_1 1.430(16)
C73_1 C74_1 1.415(16)
C74_1 C75_1 1.34(2)
C75_1 C76_1 1.422(16)
C76_1 C77_1 1.423(15)
C77_1 C78_1 1.440(15)
C78_1 C79_1 1.433(17)
C79_1 C80_1 1.35(2)
S1 C4 1.754(7)
S1 C1 1.754(7)
S2 C2 1.756(6)
S2 C6 1.763(7)
S3 C1 1.751(7)
S3 C7 1.765(7)
S4 C3 1.756(7)
S4 C2 1.765(6)
S5 C3 1.735(7)
S5 C5 1.818(9)
S6 C6 1.741(7)
S6 C10 1.802(8)
S7 C4 1.754(7)
S7 C9 1.817(10)
S8 C7 1.751(7)
S8 C8 1.805(9)
C1 C2 1.322(9)
C3 C6 1.351(10)
C4 C7 1.338(10)
C5 C10 1.500(11)
C5 H5A 0.9900
C5 H5B 0.9900
C8 C9 1.527(12)
C8 H8A 0.9900
C8 H8B 0.9900
C9 H9A 0.9900
C9 H9B 0.9900
C10 H10A 0.9900
C10 H10B 0.9900
C1S C6S 1.37(4)
C1S C2S 1.37(3)
C1S H1SA 0.9500
C2S C3S 1.39(3)
C2S H2SA 0.9500
C3S C4S 1.34(4)
C3S H3SA 0.9500
C4S C5S 1.39(3)
C4S H4SA 0.9500
C5S C6S 1.39(3)
C5S H5SA 0.9500
C6S C7S 1.50(2)
C7S H7SA 0.9800
C7S H7SB 0.9800
C7S H7SC 0.9800
C1_2 C2_2 1.33(3)
C1_2 C9_2 1.460(17)
C1_2 C6_2 1.470(17)
C2_2 C12_2 1.460(17)
C2_2 C3_2 1.468(18)
C3_2 C4_2 1.326(18)
C3_2 C14_2 1.488(18)
C4_2 C17_2 1.449(18)
C4_2 C5_2 1.49(2)
C5_2 C6_2 1.328(17)
C5_2 C19_2 1.455(18)
C6_2 C7_2 1.499(18)
C7_2 C8_2 1.37(2)
C7_2 C21_2 1.457(18)
C8_2 C24_2 1.456(17)
C8_2 C9_2 1.482(18)
C9_2 C10_2 1.340(18)
C10_2 C26_2 1.459(18)
C10_2 C11_2 1.50(2)
C11_2 C12_2 1.342(18)
C11_2 C28_2 1.454(18)
C12_2 C13_2 1.489(18)
C13_2 C14_2 1.39(2)
C13_2 C30_2 1.466(18)
C14_2 C15_2 1.445(18)
C15_2 C32_2 1.397(17)
C15_2 C16_2 1.460(18)
C16_2 C17_2 1.380(17)
C16_2 C35_2 1.497(17)
C17_2 C18_2 1.466(18)
C18_2 C37_2 1.32(2)
C18_2 C19_2 1.461(18)
C19_2 C20_2 1.402(18)
C20_2 C21_2 1.461(18)
C20_2 C39_2 1.503(18)
C21_2 C22_2 1.401(17)
C22_2 C41_2 1.437(17)
C22_2 C23_2 1.44(2)
C23_2 C24_2 1.405(17)
C23_2 C43_2 1.433(17)
C24_2 C25_2 1.467(18)
C25_2 C26_2 1.400(18)
C25_2 C45_2 1.496(17)
C26_2 C27_2 1.473(18)
C27_2 C47_2 1.31(2)
C27_2 C28_2 1.466(18)
C28_2 C29_2 1.386(18)
C29_2 C30_2 1.467(17)
C29_2 C49_2 1.489(17)
C30_2 C31_2 1.407(17)
C31_2 C51_2 1.445(17)
C31_2 C32_2 1.45(2)
C32_2 C33_2 1.456(17)
C33_2 C34_2 1.418(18)
C33_2 C52_2 1.443(17)
C34_2 C55_2 1.33(5)
C34_2 C35_2 1.468(18)
C35_2 C36_2 1.417(18)
C36_2 C57_2 1.390(18)
C36_2 C37_2 1.456(17)
C37_2 C38_2 1.448(17)
C38_2 C58_2 1.385(18)
C38_2 C39_2 1.413(18)
C39_2 C40_2 1.472(18)
C40_2 C41_2 1.410(18)
C40_2 C60_2 1.48(4)
C41_2 C42_2 1.429(16)
C42_2 C43_2 1.430(16)
C42_2 C62_2 1.43(2)
C43_2 C44_2 1.410(17)
C44_2 C64_2 1.46(3)
C44_2 C45_2 1.463(18)
C45_2 C46_2 1.425(18)
C46_2 C66_2 1.375(17)
C46_2 C47_2 1.452(17)
C47_2 C48_2 1.449(18)
C48_2 C67_2 1.368(17)
C48_2 C49_2 1.415(17)
C49_2 C50_2 1.466(18)
C50_2 C51_2 1.406(18)
C50_2 C69_2 1.55(4)
C51_2 C52_2 1.443(16)
C52_2 C53_2 1.45(2)
C53_2 C70_2 1.402(17)
C53_2 C54_2 1.411(17)
C54_2 C73_2 1.457(18)
C54_2 C55_2 1.484(18)
C55_2 C56_2 1.417(18)
C56_2 C57_2 1.367(18)
C56_2 C74_2 1.459(18)
C57_2 C58_2 1.53(2)
C58_2 C59_2 1.372(18)
C59_2 C60_2 1.422(18)
C59_2 C75_2 1.464(18)
C60_2 C61_2 1.485(18)
C61_2 C62_2 1.404(17)
C61_2 C76_2 1.456(18)
C62_2 C63_2 1.386(17)
C63_2 C78_2 1.441(18)
C63_2 C64_2 1.467(18)
C64_2 C65_2 1.412(18)
C65_2 C66_2 1.348(18)
C65_2 C79_2 1.465(18)
C66_2 C67_2 1.54(2)
C67_2 C68_2 1.345(18)
C68_2 C69_2 1.408(18)
C68_2 C80_2 1.468(18)
C69_2 C70_2 1.479(18)
C70_2 C71_2 1.459(18)
C71_2 C80_2 1.406(18)
C71_2 C72_2 1.436(16)
C72_2 C77_2 1.41(3)
C72_2 C73_2 1.424(17)
C73_2 C74_2 1.418(18)
C74_2 C75_2 1.34(2)
C75_2 C76_2 1.415(17)
C76_2 C77_2 1.428(16)
C77_2 C78_2 1.421(17)
C78_2 C79_2 1.398(18)
C79_2 C80_2 1.33(2)
