#------------------------------------------------------------------------------
#$Date: 2016-03-23 21:37:18 +0200 (Wed, 23 Mar 2016) $
#$Revision: 179453 $
#$URL: svn://www.crystallography.net/cod/cif/4/33/50/4335019.cif $
#------------------------------------------------------------------------------
#
# This file is available in the Crystallography Open Database (COD),
# http://www.crystallography.net/
#
# All data on this site have been placed in the public domain by the
# contributors.
#
data_4335019
loop_
_publ_author_name
'Feng Gao'
'Min-Xia Yao'
'Yu-Yang Li'
'Yi-Zhi Li'
'You Song'
'Jing-Lin Zuo'
_publ_section_title
;
 Syntheses, Structures, and Magnetic Properties of seven-coordinate
 Lanthanide Porphyrinate or Phthalocyaninate Complexes with Kl\"aui's
 Tripodal Ligand
;
_journal_name_full               'Inorganic Chemistry'
_journal_page_first              6407
_journal_page_last               6416
_journal_paper_doi               10.1021/ic400245n
_journal_volume                  52
_journal_year                    2013
_chemical_formula_sum            'C49 H51 Co Ho N8 O9 P3'
_chemical_formula_weight         1212.75
_chemical_name_systematic
; 
 ? 
;
_space_group_IT_number           14
_symmetry_cell_setting           monoclinic
_symmetry_space_group_name_Hall  '-P 2ybc'
_symmetry_space_group_name_H-M   'P 1 21/c 1'
_atom_sites_solution_hydrogens   geom
_atom_sites_solution_primary     direct
_atom_sites_solution_secondary   difmap
_audit_creation_method           SHELXL-97
_cell_angle_alpha                90.00
_cell_angle_beta                 107.189(3)
_cell_angle_gamma                90.00
_cell_formula_units_Z            4
_cell_length_a                   12.0291(14)
_cell_length_b                   23.5502(17)
_cell_length_c                   19.3964(11)
_cell_measurement_reflns_used    9937
_cell_measurement_temperature    291(2)
_cell_measurement_theta_max      26.83
_cell_measurement_theta_min      2.36
_cell_volume                     5249.3(8)
_computing_cell_refinement       'Bruker SMART'
_computing_data_collection       'Bruker SMART'
_computing_data_reduction        'Bruker SAINT'
_computing_molecular_graphics    'Bruker SHELXTL'
_computing_publication_material  'Bruker SHELXTL'
_computing_structure_refinement  'Bruker SHELXTL'
_computing_structure_solution    'Bruker SHELXTL'
_diffrn_ambient_temperature      291(2)
_diffrn_measured_fraction_theta_full 0.995
_diffrn_measured_fraction_theta_max 0.995
_diffrn_measurement_device_type  'Bruker APEX II CCD'
_diffrn_measurement_method       '\f and \w scans'
_diffrn_radiation_monochromator  graphite
_diffrn_radiation_source         'fine-focus sealed tube'
_diffrn_radiation_type           MoK\a
_diffrn_radiation_wavelength     0.71073
_diffrn_reflns_av_R_equivalents  0.0209
_diffrn_reflns_av_sigmaI/netI    0.0874
_diffrn_reflns_limit_h_max       14
_diffrn_reflns_limit_h_min       -14
_diffrn_reflns_limit_k_max       29
_diffrn_reflns_limit_k_min       -29
_diffrn_reflns_limit_l_max       23
_diffrn_reflns_limit_l_min       -15
_diffrn_reflns_number            41209
_diffrn_reflns_theta_full        26.00
_diffrn_reflns_theta_max         26.00
_diffrn_reflns_theta_min         1.40
_exptl_absorpt_coefficient_mu    1.965
_exptl_absorpt_correction_T_max  0.6831
_exptl_absorpt_correction_T_min  0.6092
_exptl_absorpt_correction_type   multi-scan
_exptl_absorpt_process_details   'SADABS; Bruker, 2000'
_exptl_crystal_colour            blue
_exptl_crystal_density_diffrn    1.535
_exptl_crystal_description       block
_exptl_crystal_F_000             2448
_exptl_crystal_size_max          0.28
_exptl_crystal_size_mid          0.22
_exptl_crystal_size_min          0.21
_refine_diff_density_max         1.284
_refine_diff_density_min         -0.715
_refine_diff_density_rms         0.164
_refine_ls_extinction_method     none
_refine_ls_goodness_of_fit_ref   1.018
_refine_ls_hydrogen_treatment    constr
_refine_ls_matrix_type           full
_refine_ls_number_parameters     646
_refine_ls_number_reflns         10262
_refine_ls_number_restraints     0
_refine_ls_restrained_S_all      1.018
_refine_ls_R_factor_all          0.0753
_refine_ls_R_factor_gt           0.0610
_refine_ls_shift/su_max          0.000
_refine_ls_shift/su_mean         0.000
_refine_ls_structure_factor_coef Fsqd
_refine_ls_weighting_details
'calc w=1/[\s^2^(Fo^2^)+(0.0919P)^2^+0.0000P] where P=(Fo^2^+2Fc^2^)/3'
_refine_ls_weighting_scheme      calc
_refine_ls_wR_factor_gt          0.1514
_refine_ls_wR_factor_ref         0.1592
_reflns_number_gt                7682
_reflns_number_total             10262
_reflns_threshold_expression     >2sigma(I)
_cod_data_source_file            ic400245n_si_002_7.cif
_cod_data_source_block           20120702c
_cod_database_code               4335019
loop_
_symmetry_equiv_pos_as_xyz
'x, y, z'
'-x, y+1/2, -z+1/2'
'-x, -y, -z'
'x, -y-1/2, z-1/2'
loop_
_atom_site_label
_atom_site_type_symbol
_atom_site_fract_x
_atom_site_fract_y
_atom_site_fract_z
_atom_site_U_iso_or_equiv
_atom_site_adp_type
_atom_site_occupancy
_atom_site_symmetry_multiplicity
_atom_site_calc_flag
_atom_site_refinement_flags
C1 C 0.0239(5) 0.3050(2) 1.0882(4) 0.0528(14) Uani 1 1 d .
H1 H -0.0038 0.2672 1.0963 0.063 Uiso 1 1 calc R
C2 C 0.1406(5) 0.3203(3) 1.0980(3) 0.0537(14) Uani 1 1 d .
H2 H 0.2071 0.2944 1.1136 0.064 Uiso 1 1 calc R
C3 C 0.1476(5) 0.3769(2) 1.0831(3) 0.0524(14) Uani 1 1 d .
H3 H 0.2190 0.3983 1.0865 0.063 Uiso 1 1 calc R
C4 C 0.0336(5) 0.3987(2) 1.0627(3) 0.0518(14) Uani 1 1 d .
H4 H 0.0131 0.4382 1.0487 0.062 Uiso 1 1 calc R
C5 C -0.0487(5) 0.3546(2) 1.0640(3) 0.0502(13) Uani 1 1 d .
H5 H -0.1331 0.3580 1.0542 0.060 Uiso 1 1 calc R
C6 C -0.2227(5) 0.4432(3) 0.8496(4) 0.0591(16) Uani 1 1 d .
H6A H -0.2530 0.4172 0.8096 0.071 Uiso 1 1 calc R
H6B H -0.1811 0.4732 0.8335 0.071 Uiso 1 1 calc R
C7 C -0.3237(5) 0.4688(3) 0.8715(4) 0.0656(17) Uani 1 1 d .
H7A H -0.3602 0.4398 0.8921 0.098 Uiso 1 1 calc R
H7B H -0.3795 0.4845 0.8297 0.098 Uiso 1 1 calc R
H7C H -0.2951 0.4982 0.9064 0.098 Uiso 1 1 calc R
C8 C 0.1042(6) 0.4752(3) 0.8663(4) 0.0612(16) Uani 1 1 d .
H8A H 0.0418 0.4932 0.8293 0.073 Uiso 1 1 calc R
H8B H 0.1382 0.4464 0.8429 0.073 Uiso 1 1 calc R
C9 C 0.1962(6) 0.5194(3) 0.8985(4) 0.0691(19) Uani 1 1 d .
H9A H 0.1619 0.5565 0.8904 0.104 Uiso 1 1 calc R
H9B H 0.2573 0.5168 0.8761 0.104 Uiso 1 1 calc R
H9C H 0.2276 0.5129 0.9494 0.104 Uiso 1 1 calc R
C10 C 0.3808(5) 0.3574(3) 0.9449(4) 0.0605(16) Uani 1 1 d .
H10A H 0.3537 0.3565 0.8926 0.073 Uiso 1 1 calc R
H10B H 0.4249 0.3230 0.9616 0.073 Uiso 1 1 calc R
C11 C 0.4582(6) 0.4091(3) 0.9703(4) 0.0704(19) Uani 1 1 d .
H11A H 0.4228 0.4418 0.9429 0.106 Uiso 1 1 calc R
H11B H 0.5329 0.4025 0.9634 0.106 Uiso 1 1 calc R
H11C H 0.4676 0.4156 1.0205 0.106 Uiso 1 1 calc R
C12 C 0.2836(7) 0.2074(2) 0.9682(4) 0.069(2) Uani 1 1 d .
H12A H 0.3303 0.2164 0.9365 0.082 Uiso 1 1 calc R
H12B H 0.2102 0.1925 0.9381 0.082 Uiso 1 1 calc R
C13 C 0.3443(6) 0.1605(3) 1.0176(4) 0.074(2) Uani 1 1 d .
H13A H 0.4215 0.1726 1.0439 0.111 Uiso 1 1 calc R
H13B H 0.3488 0.1275 0.9895 0.111 Uiso 1 1 calc R
H13C H 0.3015 0.1516 1.0508 0.111 Uiso 1 1 calc R
C14 C -0.0669(5) 0.1539(2) 0.9493(4) 0.0570(15) Uani 1 1 d .
H14A H -0.1100 0.1596 0.8990 0.068 Uiso 1 1 calc R
H14B H -0.1229 0.1441 0.9745 0.068 Uiso 1 1 calc R
C15 C 0.0112(5) 0.1045(2) 0.9537(4) 0.0614(16) Uani 1 1 d .
H15A H 0.0902 0.1157 0.9766 0.092 Uiso 1 1 calc R
H15B H 0.0041 0.0909 0.9059 0.092 Uiso 1 1 calc R
H15C H -0.0102 0.0748 0.9813 0.092 Uiso 1 1 calc R
C16 C -0.3002(5) 0.2696(3) 0.8916(4) 0.0574(15) Uani 1 1 d .
H16A H -0.2929 0.2495 0.8495 0.069 Uiso 1 1 calc R
H16B H -0.3228 0.3084 0.8770 0.069 Uiso 1 1 calc R
C17 C -0.3962(5) 0.2425(3) 0.9149(4) 0.0677(19) Uani 1 1 d .
H17A H -0.4256 0.2102 0.8849 0.102 Uiso 1 1 calc R
H17B H -0.4578 0.2694 0.9105 0.102 Uiso 1 1 calc R
H17C H -0.3666 0.2305 0.9643 0.102 Uiso 1 1 calc R
C18 C 0.1464(5) 0.3722(2) 0.6873(3) 0.0443(12) Uani 1 1 d .
C19 C 0.2645(5) 0.3862(2) 0.6883(3) 0.0463(12) Uani 1 1 d .
C20 C 0.3113(5) 0.4346(2) 0.6635(3) 0.0515(14) Uani 1 1 d .
H20 H 0.2669 0.4667 0.6458 0.062 Uiso 1 1 calc R
C21 C 0.4304(5) 0.4305(2) 0.6677(3) 0.0523(14) Uani 1 1 d .
H21 H 0.4652 0.4611 0.6519 0.063 Uiso 1 1 calc R
C22 C 0.4983(5) 0.3829(2) 0.6944(4) 0.0547(15) Uani 1 1 d .
H22 H 0.5753 0.3815 0.6939 0.066 Uiso 1 1 calc R
C23 C 0.4508(5) 0.3374(2) 0.7217(3) 0.0501(13) Uani 1 1 d .
H23 H 0.4964 0.3064 0.7425 0.060 Uiso 1 1 calc R
C24 C 0.3335(4) 0.3395(2) 0.7172(3) 0.0449(12) Uani 1 1 d .
C25 C 0.2556(5) 0.2980(2) 0.7347(3) 0.0439(13) Uani 1 1 d .
C26 C 0.2198(5) 0.20553(18) 0.7685(3) 0.0384(12) Uani 1 1 d .
C27 C 0.2594(4) 0.1479(2) 0.7864(3) 0.0451(12) Uani 1 1 d .
C28 C 0.3711(5) 0.1237(2) 0.8023(3) 0.0497(13) Uani 1 1 d .
H28 H 0.4365 0.1448 0.8023 0.060 Uiso 1 1 calc R
C29 C 0.3766(5) 0.0660(2) 0.8179(3) 0.0530(14) Uani 1 1 d .
H29 H 0.4491 0.0484 0.8305 0.064 Uiso 1 1 calc R
C30 C 0.2803(5) 0.0333(2) 0.8156(3) 0.0540(14) Uani 1 1 d .
H30 H 0.2902 -0.0053 0.8259 0.065 Uiso 1 1 calc R
C31 C 0.1669(5) 0.0567(2) 0.7980(3) 0.0481(13) Uani 1 1 d .
H31 H 0.1015 0.0350 0.7961 0.058 Uiso 1 1 calc R
C32 C 0.1608(4) 0.1152(2) 0.7835(3) 0.0428(12) Uani 1 1 d .
C33 C 0.0643(4) 0.1552(2) 0.7654(3) 0.0437(12) Uani 1 1 d .
C34 C -0.1383(4) 0.1727(2) 0.7259(3) 0.0409(12) Uani 1 1 d .
C35 C -0.2577(5) 0.1525(2) 0.7096(3) 0.0485(13) Uani 1 1 d .
C36 C -0.3035(5) 0.0990(2) 0.7224(3) 0.0531(14) Uani 1 1 d .
H36 H -0.2575 0.0685 0.7445 0.064 Uiso 1 1 calc R
C37 C -0.4277(5) 0.0973(2) 0.6976(3) 0.0559(15) Uani 1 1 d .
H37 H -0.4639 0.0645 0.7067 0.067 Uiso 1 1 calc R
C38 C -0.4997(5) 0.1416(2) 0.6605(3) 0.0550(15) Uani 1 1 d .
H38 H -0.5797 0.1363 0.6431 0.066 Uiso 1 1 calc R
C39 C -0.4509(5) 0.1935(2) 0.6498(4) 0.0535(14) Uani 1 1 d .
H39 H -0.4970 0.2239 0.6274 0.064 Uiso 1 1 calc R
C40 C -0.3282(5) 0.1977(2) 0.6748(4) 0.0500(14) Uani 1 1 d .
C41 C -0.2508(4) 0.2448(2) 0.6725(3) 0.0418(12) Uani 1 1 d .
C42 C -0.2144(5) 0.3362(2) 0.6347(3) 0.0480(13) Uani 1 1 d .
C43 C -0.2528(5) 0.3845(2) 0.5911(3) 0.0453(13) Uani 1 1 d .
C44 C -0.3638(5) 0.4015(2) 0.5452(3) 0.0524(14) Uani 1 1 d .
H44 H -0.4308 0.3801 0.5404 0.063 Uiso 1 1 calc R
C45 C -0.3651(5) 0.4530(2) 0.5077(3) 0.0517(14) Uani 1 1 d .
H45 H -0.4361 0.4657 0.4776 0.062 Uiso 1 1 calc R
C46 C -0.2674(5) 0.4858(2) 0.5130(3) 0.0523(14) Uani 1 1 d .
H46 H -0.2752 0.5191 0.4861 0.063 Uiso 1 1 calc R
C47 C -0.1582(5) 0.4706(2) 0.5573(3) 0.0507(14) Uani 1 1 d .
H47 H -0.0922 0.4925 0.5617 0.061 Uiso 1 1 calc R
C48 C -0.1549(5) 0.4173(2) 0.5966(3) 0.0454(12) Uani 1 1 d .
C49 C -0.0557(5) 0.3880(2) 0.6439(3) 0.0445(12) Uani 1 1 d .
Co1 Co 0.04403(6) 0.33449(3) 0.99185(4) 0.04359(19) Uani 1 1 d .
Ho1 Ho 0.00462(2) 0.291910(10) 0.776006(13) 0.03992(12) Uani 1 1 d .
N1 N 0.1456(4) 0.31894(17) 0.7190(2) 0.0440(10) Uani 1 1 d .
N2 N 0.2920(4) 0.24630(17) 0.7595(2) 0.0436(10) Uani 1 1 d .
N3 N 0.1026(4) 0.20873(15) 0.7587(3) 0.0375(10) Uani 1 1 d .
N4 N -0.0467(4) 0.13860(17) 0.7536(3) 0.0469(11) Uani 1 1 d .
N5 N -0.1375(4) 0.2288(2) 0.7063(3) 0.0461(10) Uani 1 1 d .
N6 N -0.2866(4) 0.29371(17) 0.6409(3) 0.0451(11) Uani 1 1 d .
N7 N -0.0967(4) 0.33976(17) 0.6666(2) 0.0431(10) Uani 1 1 d .
N8 N 0.0528(4) 0.40435(18) 0.6558(2) 0.0429(10) Uani 1 1 d .
O1 O -0.1465(3) 0.41429(15) 0.9063(2) 0.0526(10) Uani 1 1 d .
O2 O 0.0565(4) 0.44831(16) 0.9153(2) 0.0576(10) Uani 1 1 d .
O3 O -0.0363(3) 0.37312(15) 0.8254(2) 0.0518(9) Uani 1 1 d .
O4 O 0.2834(3) 0.36001(17) 0.9729(2) 0.0566(10) Uani 1 1 d .
O5 O 0.2598(3) 0.25878(16) 0.9981(2) 0.0563(10) Uani 1 1 d .
O6 O 0.1617(3) 0.29616(14) 0.8743(2) 0.0475(9) Uani 1 1 d .
O7 O -0.0139(4) 0.20749(14) 0.9778(3) 0.0533(11) Uani 1 1 d .
O8 O -0.1882(3) 0.27084(18) 0.9447(2) 0.0573(10) Uani 1 1 d .
O9 O -0.0770(3) 0.25651(15) 0.8570(2) 0.0483(9) Uani 1 1 d .
P1 P -0.02151(13) 0.39262(6) 0.90188(8) 0.0462(3) Uani 1 1 d .
P2 P 0.18836(12) 0.31004(6) 0.95238(8) 0.0460(3) Uani 1 1 d .
P3 P -0.06424(12) 0.26557(6) 0.93522(8) 0.0455(3) Uani 1 1 d .
loop_
_atom_site_aniso_label
_atom_site_aniso_U_11
_atom_site_aniso_U_22
_atom_site_aniso_U_33
_atom_site_aniso_U_23
_atom_site_aniso_U_13
_atom_site_aniso_U_12
C1 0.059(4) 0.053(3) 0.047(4) 0.007(3) 0.016(3) -0.011(3)
C2 0.054(3) 0.063(4) 0.038(3) 0.002(3) 0.005(3) 0.014(3)
C3 0.059(3) 0.055(3) 0.041(4) -0.013(3) 0.012(3) 0.005(2)
C4 0.059(3) 0.053(3) 0.044(3) -0.010(3) 0.016(3) 0.014(3)
C5 0.045(3) 0.059(3) 0.045(4) -0.009(3) 0.011(3) 0.009(2)
C6 0.056(3) 0.059(3) 0.061(4) 0.007(3) 0.016(3) 0.021(3)
C7 0.052(3) 0.063(4) 0.077(5) 0.011(3) 0.012(3) 0.012(3)
C8 0.070(4) 0.061(4) 0.055(4) 0.005(3) 0.021(3) 0.001(3)
C9 0.067(4) 0.058(4) 0.090(6) 0.022(4) 0.034(4) 0.006(3)
C10 0.057(4) 0.061(4) 0.063(4) -0.008(3) 0.017(3) -0.013(3)
C11 0.070(4) 0.068(4) 0.069(5) 0.014(3) 0.013(4) -0.021(3)
C12 0.079(5) 0.055(4) 0.051(4) -0.015(3) -0.013(4) 0.015(3)
C13 0.070(4) 0.059(4) 0.071(5) 0.006(3) -0.013(4) 0.019(3)
C14 0.065(4) 0.052(3) 0.056(4) 0.014(3) 0.021(3) 0.014(3)
C15 0.062(4) 0.051(3) 0.073(5) -0.011(3) 0.023(3) -0.011(3)
C16 0.045(3) 0.067(3) 0.057(4) 0.019(3) 0.010(3) 0.014(3)
C17 0.050(3) 0.064(4) 0.083(5) 0.014(3) 0.011(3) -0.017(3)
C18 0.048(3) 0.045(3) 0.040(3) -0.005(2) 0.014(2) 0.004(2)
C19 0.046(3) 0.050(3) 0.040(3) -0.008(2) 0.010(2) -0.009(2)
C20 0.055(3) 0.050(3) 0.044(3) 0.015(3) 0.005(3) -0.010(2)
C21 0.059(3) 0.043(3) 0.054(4) 0.008(3) 0.016(3) -0.014(2)
C22 0.042(3) 0.067(4) 0.052(4) 0.010(3) 0.010(3) -0.016(2)
C23 0.045(3) 0.051(3) 0.052(4) -0.010(3) 0.010(3) -0.012(2)
C24 0.048(3) 0.042(3) 0.044(3) -0.006(2) 0.012(3) -0.009(2)
C25 0.044(3) 0.051(3) 0.037(3) -0.009(2) 0.013(3) -0.005(2)
C26 0.045(3) 0.038(3) 0.032(3) -0.004(2) 0.011(2) 0.0068(19)
C27 0.044(3) 0.049(3) 0.040(3) 0.013(2) 0.008(2) 0.010(2)
C28 0.053(3) 0.050(3) 0.045(4) 0.011(3) 0.014(3) 0.012(2)
C29 0.053(3) 0.046(3) 0.057(4) 0.009(3) 0.012(3) 0.015(2)
C30 0.062(4) 0.045(3) 0.057(4) 0.008(3) 0.019(3) 0.018(2)
C31 0.056(3) 0.041(3) 0.045(3) 0.007(2) 0.012(3) 0.009(2)
C32 0.049(3) 0.041(3) 0.039(3) 0.011(2) 0.014(2) 0.008(2)
C33 0.045(3) 0.052(3) 0.035(3) 0.012(2) 0.013(2) -0.002(2)
C34 0.041(3) 0.046(3) 0.039(3) -0.006(2) 0.018(2) -0.013(2)
C35 0.049(3) 0.049(3) 0.048(4) -0.009(3) 0.015(3) -0.012(2)
C36 0.050(3) 0.051(3) 0.058(4) -0.009(3) 0.014(3) -0.019(2)
C37 0.055(3) 0.058(3) 0.058(4) -0.007(3) 0.021(3) -0.021(3)
C38 0.053(3) 0.055(3) 0.056(4) -0.008(3) 0.015(3) -0.015(3)
C39 0.054(3) 0.057(3) 0.049(4) -0.007(3) 0.014(3) -0.009(3)
C40 0.045(3) 0.057(3) 0.051(4) -0.014(3) 0.018(3) -0.012(2)
C41 0.042(3) 0.043(3) 0.039(3) -0.007(2) 0.009(2) -0.007(2)
C42 0.050(3) 0.052(3) 0.040(3) -0.008(3) 0.010(3) 0.014(2)
C43 0.048(3) 0.050(3) 0.034(3) 0.012(2) 0.006(2) 0.013(2)
C44 0.061(3) 0.049(3) 0.044(3) 0.010(3) 0.011(3) 0.020(2)
C45 0.050(3) 0.054(3) 0.047(4) 0.015(3) 0.008(3) 0.017(2)
C46 0.058(3) 0.053(3) 0.046(4) 0.012(3) 0.015(3) 0.021(3)
C47 0.065(4) 0.042(3) 0.048(4) 0.011(2) 0.021(3) 0.018(2)
C48 0.054(3) 0.047(3) 0.035(3) 0.012(2) 0.011(2) 0.013(2)
C49 0.050(3) 0.044(3) 0.041(3) 0.009(2) 0.014(3) 0.011(2)
Co1 0.0464(4) 0.0475(4) 0.0359(4) -0.0073(3) 0.0106(3) 0.0108(3)
Ho1 0.04101(17) 0.04255(17) 0.03527(19) 0.00685(9) 0.00983(13) 0.00834(8)
N1 0.048(2) 0.042(2) 0.043(3) 0.006(2) 0.015(2) 0.0059(18)
N2 0.046(2) 0.044(2) 0.042(3) 0.002(2) 0.014(2) -0.0035(18)
N3 0.036(2) 0.042(2) 0.033(3) -0.0044(17) 0.0068(19) 0.0070(15)
N4 0.049(3) 0.039(2) 0.056(3) 0.001(2) 0.021(2) -0.0172(19)
N5 0.046(2) 0.050(2) 0.045(3) -0.001(2) 0.016(2) 0.000(2)
N6 0.039(2) 0.052(3) 0.045(3) 0.003(2) 0.012(2) 0.0082(17)
N7 0.045(2) 0.042(2) 0.042(3) 0.0108(19) 0.012(2) 0.0106(17)
N8 0.045(2) 0.048(2) 0.036(3) 0.011(2) 0.012(2) 0.0086(18)
O1 0.053(2) 0.058(2) 0.046(2) 0.0083(19) 0.0124(18) 0.0217(17)
O2 0.069(3) 0.051(2) 0.053(3) 0.0113(19) 0.017(2) -0.0117(18)
O3 0.061(2) 0.053(2) 0.041(2) 0.0075(18) 0.0148(19) 0.0163(17)
O4 0.051(2) 0.064(2) 0.054(3) -0.015(2) 0.014(2) -0.0066(18)
O5 0.056(2) 0.057(2) 0.054(3) 0.009(2) 0.015(2) 0.0143(17)
O6 0.046(2) 0.060(2) 0.034(2) -0.0106(16) 0.0088(18) 0.0141(15)
O7 0.061(3) 0.046(2) 0.053(3) 0.0106(17) 0.016(2) 0.0104(16)
O8 0.046(2) 0.068(2) 0.057(3) -0.016(2) 0.015(2) -0.0134(18)
O9 0.054(2) 0.051(2) 0.038(2) -0.0063(17) 0.0117(17) -0.0139(16)
P1 0.0516(8) 0.0446(7) 0.0416(9) -0.0082(6) 0.0122(7) 0.0116(6)
P2 0.0455(8) 0.0493(7) 0.0401(9) -0.0071(7) 0.0080(6) 0.0104(6)
P3 0.0467(8) 0.0500(8) 0.0391(9) 0.0091(6) 0.0117(6) -0.0098(6)
loop_
_atom_type_symbol
_atom_type_description
_atom_type_scat_dispersion_real
_atom_type_scat_dispersion_imag
_atom_type_scat_source
C C 0.0033 0.0016 'International Tables Vol C Tables 4.2.6.8 and 6.1.1.4'
H H 0.0000 0.0000 'International Tables Vol C Tables 4.2.6.8 and 6.1.1.4'
N N 0.0061 0.0033 'International Tables Vol C Tables 4.2.6.8 and 6.1.1.4'
O O 0.0106 0.0060 'International Tables Vol C Tables 4.2.6.8 and 6.1.1.4'
P P 0.1023 0.0942 'International Tables Vol C Tables 4.2.6.8 and 6.1.1.4'
Co Co 0.3494 0.9721 'International Tables Vol C Tables 4.2.6.8 and 6.1.1.4'
Ho Ho -0.2175 4.6783 'International Tables Vol C Tables 4.2.6.8 and 6.1.1.4'
loop_
_geom_angle_atom_site_label_1
_geom_angle_atom_site_label_2
_geom_angle_atom_site_label_3
_geom_angle
C2 C1 C5 108.6(5)
C2 C1 Co1 70.0(4)
C5 C1 Co1 70.0(3)
C2 C1 H1 125.7
C5 C1 H1 125.7
Co1 C1 H1 125.7
C3 C2 C1 110.0(5)
C3 C2 Co1 71.6(4)
C1 C2 Co1 70.3(4)
C3 C2 H2 125.0
C1 C2 H2 125.0
Co1 C2 H2 125.0
C2 C3 C4 107.3(5)
C2 C3 Co1 69.9(3)
C4 C3 Co1 69.4(3)
C2 C3 H3 126.3
C4 C3 H3 126.3
Co1 C3 H3 126.3
C3 C4 C5 110.5(5)
C3 C4 Co1 71.1(3)
C5 C4 Co1 70.3(3)
C3 C4 H4 124.7
C5 C4 H4 124.7
Co1 C4 H4 124.7
C4 C5 C1 103.6(5)
C4 C5 Co1 69.2(3)
C1 C5 Co1 69.2(3)
C4 C5 H5 128.1
C1 C5 H5 128.1
Co1 C5 H5 128.1
O1 C6 C7 111.6(5)
O1 C6 H6A 109.3
C7 C6 H6A 109.3
O1 C6 H6B 109.3
C7 C6 H6B 109.3
H6A C6 H6B 108.0
C6 C7 H7A 109.5
C6 C7 H7B 109.5
H7A C7 H7B 109.5
C6 C7 H7C 109.5
H7A C7 H7C 109.5
H7B C7 H7C 109.5
O2 C8 C9 115.3(6)
O2 C8 H8A 108.4
C9 C8 H8A 108.4
O2 C8 H8B 108.4
C9 C8 H8B 108.4
H8A C8 H8B 107.5
C8 C9 H9A 109.5
C8 C9 H9B 109.5
H9A C9 H9B 109.5
C8 C9 H9C 109.5
H9A C9 H9C 109.5
H9B C9 H9C 109.5
O4 C10 C11 109.5(5)
O4 C10 H10A 109.8
C11 C10 H10A 109.8
O4 C10 H10B 109.8
C11 C10 H10B 109.8
H10A C10 H10B 108.2
C10 C11 H11A 109.5
C10 C11 H11B 109.5
H11A C11 H11B 109.5
C10 C11 H11C 109.5
H11A C11 H11C 109.5
H11B C11 H11C 109.5
O5 C12 C13 119.3(6)
O5 C12 H12A 107.5
C13 C12 H12A 107.5
O5 C12 H12B 107.5
C13 C12 H12B 107.5
H12A C12 H12B 107.0
C12 C13 H13A 109.5
C12 C13 H13B 109.5
H13A C13 H13B 109.5
C12 C13 H13C 109.5
H13A C13 H13C 109.5
H13B C13 H13C 109.5
O7 C14 C15 117.6(5)
O7 C14 H14A 107.9
C15 C14 H14A 107.9
O7 C14 H14B 107.9
C15 C14 H14B 107.9
H14A C14 H14B 107.2
C14 C15 H15A 109.5
C14 C15 H15B 109.5
H15A C15 H15B 109.5
C14 C15 H15C 109.5
H15A C15 H15C 109.5
H15B C15 H15C 109.5
O8 C16 C17 115.8(5)
O8 C16 H16A 108.3
C17 C16 H16A 108.3
O8 C16 H16B 108.3
C17 C16 H16B 108.3
H16A C16 H16B 107.4
C16 C17 H17A 109.5
C16 C17 H17B 109.5
H17A C17 H17B 109.5
C16 C17 H17C 109.5
H17A C17 H17C 109.5
H17B C17 H17C 109.5
N8 C18 N1 126.2(5)
N8 C18 C19 124.3(5)
N1 C18 C19 109.3(4)
C24 C19 C20 121.6(5)
C24 C19 C18 107.0(4)
C20 C19 C18 131.4(5)
C21 C20 C19 115.0(5)
C21 C20 H20 122.5
C19 C20 H20 122.5
C22 C21 C20 123.3(5)
C22 C21 H21 118.4
C20 C21 H21 118.4
C23 C22 C21 120.0(5)
C23 C22 H22 120.0
C21 C22 H22 120.0
C24 C23 C22 118.2(5)
C24 C23 H23 120.9
C22 C23 H23 120.9
C23 C24 C19 121.9(5)
C23 C24 C25 132.1(5)
C19 C24 C25 105.9(5)
N2 C25 N1 127.2(5)
N2 C25 C24 122.0(5)
N1 C25 C24 110.8(5)
N2 C26 N3 128.6(4)
N2 C26 C27 121.6(5)
N3 C26 C27 109.8(4)
C32 C27 C28 121.8(5)
C32 C27 C26 106.9(4)
C28 C27 C26 131.2(5)
C29 C28 C27 115.2(5)
C29 C28 H28 122.4
C27 C28 H28 122.4
C30 C29 C28 123.6(5)
C30 C29 H29 118.2
C28 C29 H29 118.2
C29 C30 C31 122.0(5)
C29 C30 H30 119.0
C31 C30 H30 119.0
C32 C31 C30 114.8(5)
C32 C31 H31 122.6
C30 C31 H31 122.6
C27 C32 C31 122.6(5)
C27 C32 C33 105.1(4)
C31 C32 C33 132.3(5)
N4 C33 N3 126.8(5)
N4 C33 C32 122.4(5)
N3 C33 C32 110.7(4)
N4 C34 N5 127.8(4)
N4 C34 C35 122.2(5)
N5 C34 C35 109.9(4)
C40 C35 C36 122.9(5)
C40 C35 C34 105.9(5)
C36 C35 C34 131.1(5)
C35 C36 C37 112.6(5)
C35 C36 H36 123.7
C37 C36 H36 123.7
C38 C37 C36 125.1(5)
C38 C37 H37 117.4
C36 C37 H37 117.4
C39 C38 C37 120.1(5)
C39 C38 H38 119.9
C37 C38 H38 119.9
C38 C39 C40 116.8(6)
C38 C39 H39 121.6
C40 C39 H39 121.6
C35 C40 C39 122.3(5)
C35 C40 C41 106.9(5)
C39 C40 C41 130.8(6)
N6 C41 N5 127.0(5)
N6 C41 C40 123.8(5)
N5 C41 C40 109.1(5)
N6 C42 N7 127.5(5)
N6 C42 C43 123.0(5)
N7 C42 C43 109.5(5)
C48 C43 C42 106.4(5)
C48 C43 C44 120.6(5)
C42 C43 C44 132.9(5)
C45 C44 C43 115.4(5)
C45 C44 H44 122.3
C43 C44 H44 122.3
C46 C45 C44 124.2(5)
C46 C45 H45 117.9
C44 C45 H45 117.9
C45 C46 C47 121.9(5)
C45 C46 H46 119.0
C47 C46 H46 119.0
C46 C47 C48 114.8(5)
C46 C47 H47 122.6
C48 C47 H47 122.6
C43 C48 C49 107.7(5)
C43 C48 C47 123.2(5)
C49 C48 C47 129.1(5)
N8 C49 N7 128.6(5)
N8 C49 C48 124.1(5)
N7 C49 C48 107.0(5)
C2 Co1 C4 65.4(2)
C2 Co1 C1 39.7(2)
C4 Co1 C1 66.5(2)
C2 Co1 C5 67.9(2)
C4 Co1 C5 40.5(2)
C1 Co1 C5 40.8(2)
C2 Co1 C3 38.5(2)
C4 Co1 C3 39.5(2)
C1 Co1 C3 66.2(2)
C5 Co1 C3 68.1(2)
C2 Co1 P3 117.38(18)
C4 Co1 P3 137.59(17)
C1 Co1 P3 89.62(17)
C5 Co1 P3 98.64(16)
C3 Co1 P3 154.84(18)
C2 Co1 P2 92.07(17)
C4 Co1 P2 129.67(17)
C1 Co1 P2 123.19(18)
C5 Co1 P2 159.80(17)
C3 Co1 P2 94.95(17)
P3 Co1 P2 92.64(6)
C2 Co1 P1 149.72(18)
C4 Co1 P1 89.65(18)
C1 Co1 P1 145.36(18)
C5 Co1 P1 104.85(16)
C3 Co1 P1 111.24(17)
P3 Co1 P1 92.51(6)
P2 Co1 P1 91.26(6)
O9 Ho1 O6 81.70(14)
O9 Ho1 O3 79.76(13)
O6 Ho1 O3 80.62(13)
O9 Ho1 N3 97.56(14)
O6 Ho1 N3 80.12(14)
O3 Ho1 N3 160.73(15)
O9 Ho1 N5 76.97(15)
O6 Ho1 N5 142.59(15)
O3 Ho1 N5 124.33(15)
N3 Ho1 N5 72.76(15)
O9 Ho1 N1 161.45(15)
O6 Ho1 N1 81.14(15)
O3 Ho1 N1 104.26(14)
N3 Ho1 N1 72.55(15)
N5 Ho1 N1 113.47(16)
O9 Ho1 N7 125.56(14)
O6 Ho1 N7 143.94(14)
O3 Ho1 N7 81.93(14)
N3 Ho1 N7 114.16(15)
N5 Ho1 N7 72.36(16)
N1 Ho1 N7 72.97(15)
C25 N1 C18 106.9(4)
C25 N1 Ho1 125.5(4)
C18 N1 Ho1 123.0(3)
C25 N2 C26 123.0(5)
C33 N3 C26 107.4(4)
C33 N3 Ho1 123.9(3)
C26 N3 Ho1 124.3(3)
C34 N4 C33 123.5(4)
C34 N5 C41 107.9(4)
C34 N5 Ho1 120.7(3)
C41 N5 Ho1 123.0(3)
C41 N6 C42 124.0(5)
C49 N7 C42 109.2(4)
C49 N7 Ho1 122.7(4)
C42 N7 Ho1 124.1(4)
C49 N8 C18 124.7(4)
C6 O1 P1 121.5(4)
C8 O2 P1 127.2(4)
P1 O3 Ho1 134.1(2)
C10 O4 P2 118.5(3)
C12 O5 P2 124.3(4)
P2 O6 Ho1 138.1(2)
C14 O7 P3 119.0(4)
C16 O8 P3 130.0(4)
P3 O9 Ho1 136.3(2)
O3 P1 O2 107.7(2)
O3 P1 O1 107.9(2)
O2 P1 O1 104.2(2)
O3 P1 Co1 120.37(15)
O2 P1 Co1 109.39(17)
O1 P1 Co1 106.19(16)
O6 P2 O5 108.6(2)
O6 P2 O4 109.6(2)
O5 P2 O4 101.0(2)
O6 P2 Co1 117.57(17)
O5 P2 Co1 111.13(17)
O4 P2 Co1 107.63(16)
O9 P3 O8 108.4(2)
O9 P3 O7 107.9(2)
O8 P3 O7 103.5(2)
O9 P3 Co1 119.20(15)
O8 P3 Co1 109.45(17)
O7 P3 Co1 107.21(18)
loop_
_geom_bond_atom_site_label_1
_geom_bond_atom_site_label_2
_geom_bond_distance
C1 C2 1.406(8)
C1 C5 1.451(8)
C1 Co1 2.074(6)
C1 H1 0.9800
C2 C3 1.372(8)
C2 Co1 2.071(6)
C2 H2 0.9800
C3 C4 1.407(8)
C3 Co1 2.093(6)
C3 H3 0.9800
C4 C5 1.440(8)
C4 Co1 2.071(5)
C4 H4 0.9800
C5 Co1 2.086(6)
C5 H5 0.9800
C6 O1 1.384(7)
C6 C7 1.525(8)
C6 H6A 0.9700
C6 H6B 0.9700
C7 H7A 0.9600
C7 H7B 0.9600
C7 H7C 0.9600
C8 O2 1.399(7)
C8 C9 1.513(9)
C8 H8A 0.9700
C8 H8B 0.9700
C9 H9A 0.9600
C9 H9B 0.9600
C9 H9C 0.9600
C10 O4 1.431(7)
C10 C11 1.523(8)
C10 H10A 0.9700
C10 H10B 0.9700
C11 H11A 0.9600
C11 H11B 0.9600
C11 H11C 0.9600
C12 O5 1.407(7)
C12 C13 1.502(8)
C12 H12A 0.9700
C12 H12B 0.9700
C13 H13A 0.9600
C13 H13B 0.9600
C13 H13C 0.9600
C14 O7 1.448(7)
C14 C15 1.482(8)
C14 H14A 0.9700
C14 H14B 0.9700
C15 H15A 0.9600
C15 H15B 0.9600
C15 H15C 0.9600
C16 O8 1.434(7)
C16 C17 1.502(8)
C16 H16A 0.9700
C16 H16B 0.9700
C17 H17A 0.9600
C17 H17B 0.9600
C17 H17C 0.9600
C18 N8 1.344(6)
C18 N1 1.399(6)
C18 C19 1.452(7)
C19 C24 1.391(8)
C19 C20 1.418(7)
C20 C21 1.414(8)
C20 H20 0.9300
C21 C22 1.395(8)
C21 H21 0.9300
C22 C23 1.390(7)
C22 H22 0.9300
C23 C24 1.388(7)
C23 H23 0.9300
C24 C25 1.461(7)
C25 N2 1.335(6)
C25 N1 1.360(7)
C26 N2 1.339(6)
C26 N3 1.368(7)
C26 C27 1.446(6)
C27 C32 1.401(7)
C27 C28 1.408(7)
C28 C29 1.390(7)
C28 H28 0.9300
C29 C30 1.381(8)
C29 H29 0.9300
C30 C31 1.417(7)
C30 H30 0.9300
C31 C32 1.404(7)
C31 H31 0.9300
C32 C33 1.454(7)
C33 N4 1.345(7)
C33 N3 1.362(6)
C34 N4 1.340(7)
C34 N5 1.375(7)
C34 C35 1.455(7)
C35 C40 1.403(8)
C35 C36 1.426(7)
C36 C37 1.429(8)
C36 H36 0.9300
C37 C38 1.410(9)
C37 H37 0.9300
C38 C39 1.397(8)
C38 H38 0.9300
C39 C40 1.414(8)
C39 H39 0.9300
C40 C41 1.457(7)
C41 N6 1.316(6)
C41 N5 1.380(7)
C42 N6 1.354(7)
C42 N7 1.370(7)
C42 C43 1.410(7)
C43 C48 1.387(8)
C43 C44 1.426(7)
C44 C45 1.412(8)
C44 H44 0.9300
C45 C46 1.386(8)
C45 H45 0.9300
C46 C47 1.388(8)
C46 H46 0.9300
C47 C48 1.461(7)
C47 H47 0.9300
C48 C49 1.449(7)
C49 N8 1.314(7)
C49 N7 1.362(6)
Co1 P3 2.1661(16)
Co1 P2 2.1719(16)
Co1 P1 2.1744(17)
Ho1 O9 2.245(4)
Ho1 O6 2.255(4)
Ho1 O3 2.257(4)
Ho1 N3 2.361(4)
Ho1 N5 2.365(5)
Ho1 N1 2.369(4)
Ho1 N7 2.394(4)
O1 P1 1.614(4)
O2 P1 1.589(4)
O3 P1 1.512(4)
O4 P2 1.606(4)
O5 P2 1.591(4)
O6 P2 1.489(4)
O7 P3 1.620(4)
O8 P3 1.560(4)
O9 P3 1.494(4)
loop_
_geom_torsion_atom_site_label_1
_geom_torsion_atom_site_label_2
_geom_torsion_atom_site_label_3
_geom_torsion_atom_site_label_4
_geom_torsion
C5 C1 C2 C3 1.3(7)
Co1 C1 C2 C3 60.9(4)
C5 C1 C2 Co1 -59.6(4)
C1 C2 C3 C4 -0.5(7)
Co1 C2 C3 C4 59.6(4)
C1 C2 C3 Co1 -60.1(5)
C2 C3 C4 C5 -0.5(7)
Co1 C3 C4 C5 59.4(4)
C2 C3 C4 Co1 -59.9(4)
C3 C4 C5 C1 1.2(7)
Co1 C4 C5 C1 61.1(4)
C3 C4 C5 Co1 -59.9(4)
C2 C1 C5 C4 -1.5(7)
Co1 C1 C5 C4 -61.1(4)
C2 C1 C5 Co1 59.6(4)
N8 C18 C19 C24 -172.3(5)
N1 C18 C19 C24 3.2(6)
N8 C18 C19 C20 4.8(10)
N1 C18 C19 C20 -179.7(6)
C24 C19 C20 C21 2.5(8)
C18 C19 C20 C21 -174.3(6)
C19 C20 C21 C22 -0.3(9)
C20 C21 C22 C23 -3.1(10)
C21 C22 C23 C24 4.2(9)
C22 C23 C24 C19 -2.0(8)
C22 C23 C24 C25 174.3(6)
C20 C19 C24 C23 -1.4(9)
C18 C19 C24 C23 176.1(5)
C20 C19 C24 C25 -178.6(5)
C18 C19 C24 C25 -1.1(6)
C23 C24 C25 N2 -1.0(10)
C19 C24 C25 N2 175.7(5)
C23 C24 C25 N1 -178.1(6)
C19 C24 C25 N1 -1.4(6)
N2 C26 C27 C32 -173.3(5)
N3 C26 C27 C32 3.0(7)
N2 C26 C27 C28 4.7(10)
N3 C26 C27 C28 -178.9(6)
C32 C27 C28 C29 -2.7(9)
C26 C27 C28 C29 179.5(6)
C27 C28 C29 C30 2.4(9)
C28 C29 C30 C31 -1.0(10)
C29 C30 C31 C32 -0.2(9)
C28 C27 C32 C31 1.6(9)
C26 C27 C32 C31 179.9(5)
C28 C27 C32 C33 -179.6(5)
C26 C27 C32 C33 -1.3(6)
C30 C31 C32 C27 -0.1(9)
C30 C31 C32 C33 -178.4(6)
C27 C32 C33 N4 175.9(5)
C31 C32 C33 N4 -5.5(10)
C27 C32 C33 N3 -0.7(6)
C31 C32 C33 N3 177.8(6)
N4 C34 C35 C40 -173.9(5)
N5 C34 C35 C40 4.0(6)
N4 C34 C35 C36 5.1(10)
N5 C34 C35 C36 -177.0(6)
C40 C35 C36 C37 -1.3(9)
C34 C35 C36 C37 179.8(6)
C35 C36 C37 C38 3.6(9)
C36 C37 C38 C39 -4.6(10)
C37 C38 C39 C40 2.9(9)
C36 C35 C40 C39 0.0(9)
C34 C35 C40 C39 179.1(6)
C36 C35 C40 C41 179.3(5)
C34 C35 C40 C41 -1.6(6)
C38 C39 C40 C35 -0.7(9)
C38 C39 C40 C41 -179.8(6)
C35 C40 C41 N6 177.0(5)
C39 C40 C41 N6 -3.8(10)
C35 C40 C41 N5 -1.3(7)
C39 C40 C41 N5 177.9(6)
N6 C42 C43 C48 -178.2(5)
N7 C42 C43 C48 0.6(6)
N6 C42 C43 C44 -0.7(10)
N7 C42 C43 C44 178.1(6)
C48 C43 C44 C45 -0.3(8)
C42 C43 C44 C45 -177.5(6)
C43 C44 C45 C46 0.5(9)
C44 C45 C46 C47 -0.8(9)
C45 C46 C47 C48 0.8(8)
C42 C43 C48 C49 0.6(6)
C44 C43 C48 C49 -177.3(5)
C42 C43 C48 C47 178.3(5)
C44 C43 C48 C47 0.4(9)
C46 C47 C48 C43 -0.6(8)
C46 C47 C48 C49 176.6(6)
C43 C48 C49 N8 173.3(5)
C47 C48 C49 N8 -4.2(9)
C43 C48 C49 N7 -1.6(6)
C47 C48 C49 N7 -179.1(5)
C3 C2 Co1 C4 -38.0(3)
C1 C2 Co1 C4 82.1(4)
C3 C2 Co1 C1 -120.1(5)
C3 C2 Co1 C5 -82.2(4)
C1 C2 Co1 C5 37.9(3)
C1 C2 Co1 C3 120.1(5)
C3 C2 Co1 P3 -170.6(3)
C1 C2 Co1 P3 -50.5(4)
C3 C2 Co1 P2 95.4(3)
C1 C2 Co1 P2 -144.5(3)
C3 C2 Co1 P1 -0.7(6)
C1 C2 Co1 P1 119.4(4)
C3 C4 Co1 C2 37.0(4)
C5 C4 Co1 C2 -84.1(4)
C3 C4 Co1 C1 80.6(4)
C5 C4 Co1 C1 -40.5(3)
C3 C4 Co1 C5 121.1(5)
C5 C4 Co1 C3 -121.1(5)
C3 C4 Co1 P3 141.4(3)
C5 C4 Co1 P3 20.3(5)
C3 C4 Co1 P2 -33.9(4)
C5 C4 Co1 P2 -155.0(3)
C3 C4 Co1 P1 -125.2(3)
C5 C4 Co1 P1 113.7(3)
C5 C1 Co1 C2 119.5(5)
C2 C1 Co1 C4 -79.3(4)
C5 C1 Co1 C4 40.2(3)
C2 C1 Co1 C5 -119.5(5)
C2 C1 Co1 C3 -36.0(3)
C5 C1 Co1 C3 83.5(3)
C2 C1 Co1 P3 136.7(3)
C5 C1 Co1 P3 -103.7(3)
C2 C1 Co1 P2 43.8(4)
C5 C1 Co1 P2 163.4(3)
C2 C1 Co1 P1 -129.4(3)
C5 C1 Co1 P1 -9.9(5)
C4 C5 Co1 C2 77.6(4)
C1 C5 Co1 C2 -36.8(3)
C1 C5 Co1 C4 -114.4(5)
C4 C5 Co1 C1 114.4(5)
C4 C5 Co1 C3 35.9(3)
C1 C5 Co1 C3 -78.5(4)
C4 C5 Co1 P3 -166.3(3)
C1 C5 Co1 P3 79.3(3)
C4 C5 Co1 P2 70.5(6)
C1 C5 Co1 P2 -43.9(6)
C4 C5 Co1 P1 -71.4(3)
C1 C5 Co1 P1 174.2(3)
C4 C3 Co1 C2 -118.4(5)
C2 C3 Co1 C4 118.4(5)
C2 C3 Co1 C1 37.1(4)
C4 C3 Co1 C1 -81.3(4)
C2 C3 Co1 C5 81.6(4)
C4 C3 Co1 C5 -36.9(4)
C2 C3 Co1 P3 19.9(6)
C4 C3 Co1 P3 -98.5(5)
C2 C3 Co1 P2 -87.1(3)
C4 C3 Co1 P2 154.5(3)
C2 C3 Co1 P1 179.6(3)
C4 C3 Co1 P1 61.2(4)
N2 C25 N1 C18 -173.6(6)
C24 C25 N1 C18 3.3(6)
N2 C25 N1 Ho1 29.9(8)
C24 C25 N1 Ho1 -153.2(4)
N8 C18 N1 C25 171.4(5)
C19 C18 N1 C25 -4.0(6)
N8 C18 N1 Ho1 -31.4(7)
C19 C18 N1 Ho1 153.2(4)
O9 Ho1 N1 C25 19.0(7)
O6 Ho1 N1 C25 41.6(4)
O3 Ho1 N1 C25 119.5(4)
N3 Ho1 N1 C25 -40.8(4)
N5 Ho1 N1 C25 -102.4(4)
N7 Ho1 N1 C25 -163.8(5)
O9 Ho1 N1 C18 -133.9(4)
O6 Ho1 N1 C18 -111.4(4)
O3 Ho1 N1 C18 -33.5(4)
N3 Ho1 N1 C18 166.3(4)
N5 Ho1 N1 C18 104.6(4)
N7 Ho1 N1 C18 43.2(4)
N1 C25 N2 C26 4.2(9)
C24 C25 N2 C26 -172.4(5)
N3 C26 N2 C25 -3.8(9)
C27 C26 N2 C25 171.8(5)
N4 C33 N3 C26 -173.9(5)
C32 C33 N3 C26 2.6(6)
N4 C33 N3 Ho1 28.9(8)
C32 C33 N3 Ho1 -154.6(4)
N2 C26 N3 C33 172.5(6)
C27 C26 N3 C33 -3.5(6)
N2 C26 N3 Ho1 -30.3(8)
C27 C26 N3 Ho1 153.6(4)
O9 Ho1 N3 C33 29.7(4)
O6 Ho1 N3 C33 109.9(4)
O3 Ho1 N3 C33 110.3(5)
N5 Ho1 N3 C33 -44.0(4)
N1 Ho1 N3 C33 -166.4(5)
N7 Ho1 N3 C33 -104.9(4)
O9 Ho1 N3 C26 -123.7(4)
O6 Ho1 N3 C26 -43.5(4)
O3 Ho1 N3 C26 -43.1(7)
N5 Ho1 N3 C26 162.5(5)
N1 Ho1 N3 C26 40.2(4)
N7 Ho1 N3 C26 101.7(4)
N5 C34 N4 C33 -1.4(9)
C35 C34 N4 C33 176.1(5)
N3 C33 N4 C34 7.1(9)
C32 C33 N4 C34 -169.1(5)
N4 C34 N5 C41 172.9(5)
C35 C34 N5 C41 -4.9(6)
N4 C34 N5 Ho1 -38.1(7)
C35 C34 N5 Ho1 144.1(4)
N6 C41 N5 C34 -174.4(5)
C40 C41 N5 C34 3.8(6)
N6 C41 N5 Ho1 37.5(8)
C40 C41 N5 Ho1 -144.3(4)
O9 Ho1 N5 C34 -55.5(4)
O6 Ho1 N5 C34 1.4(5)
O3 Ho1 N5 C34 -123.2(4)
N3 Ho1 N5 C34 46.8(4)
N1 Ho1 N5 C34 108.3(4)
N7 Ho1 N5 C34 170.1(4)
O9 Ho1 N5 C41 88.7(4)
O6 Ho1 N5 C41 145.6(4)
O3 Ho1 N5 C41 21.0(5)
N3 Ho1 N5 C41 -168.9(5)
N1 Ho1 N5 C41 -107.4(4)
N7 Ho1 N5 C41 -45.7(4)
N5 C41 N6 C42 2.4(9)
C40 C41 N6 C42 -175.7(6)
N7 C42 N6 C41 -9.0(9)
C43 C42 N6 C41 169.6(5)
N8 C49 N7 C42 -172.6(5)
C48 C49 N7 C42 2.0(6)
N8 C49 N7 Ho1 29.1(8)
C48 C49 N7 Ho1 -156.3(3)
N6 C42 N7 C49 177.1(5)
C43 C42 N7 C49 -1.7(6)
N6 C42 N7 Ho1 -25.0(7)
C43 C42 N7 Ho1 156.3(4)
O9 Ho1 N7 C49 136.6(4)
O6 Ho1 N7 C49 3.7(5)
O3 Ho1 N7 C49 65.3(4)
N3 Ho1 N7 C49 -103.6(4)
N5 Ho1 N7 C49 -164.7(4)
N1 Ho1 N7 C49 -42.3(4)
O9 Ho1 N7 C42 -18.5(5)
O6 Ho1 N7 C42 -151.4(3)
O3 Ho1 N7 C42 -89.7(4)
N3 Ho1 N7 C42 101.4(4)
N5 Ho1 N7 C42 40.3(4)
N1 Ho1 N7 C42 162.6(4)
N7 C49 N8 C18 7.8(9)
C48 C49 N8 C18 -165.9(5)
N1 C18 N8 C49 -6.8(9)
C19 C18 N8 C49 168.0(5)
C7 C6 O1 P1 -169.2(4)
C9 C8 O2 P1 -166.9(4)
O9 Ho1 O3 P1 44.8(3)
O6 Ho1 O3 P1 -38.4(3)
N3 Ho1 O3 P1 -38.8(7)
N5 Ho1 O3 P1 111.2(3)
N1 Ho1 O3 P1 -116.7(3)
N7 Ho1 O3 P1 173.3(3)
C11 C10 O4 P2 179.3(4)
C13 C12 O5 P2 -175.5(5)
O9 Ho1 O6 P2 -38.7(3)
O3 Ho1 O6 P2 42.2(3)
N3 Ho1 O6 P2 -137.9(4)
N5 Ho1 O6 P2 -94.2(4)
N1 Ho1 O6 P2 148.4(4)
N7 Ho1 O6 P2 104.3(4)
C15 C14 O7 P3 141.0(5)
C17 C16 O8 P3 145.5(5)
O6 Ho1 O9 P3 33.7(3)
O3 Ho1 O9 P3 -48.2(3)
N3 Ho1 O9 P3 112.5(3)
N5 Ho1 O9 P3 -177.3(4)
N1 Ho1 O9 P3 56.2(6)
N7 Ho1 O9 P3 -120.5(3)
Ho1 O3 P1 O2 122.3(3)
Ho1 O3 P1 O1 -125.8(3)
Ho1 O3 P1 Co1 -3.9(4)
C8 O2 P1 O3 -0.2(6)
C8 O2 P1 O1 -114.6(5)
C8 O2 P1 Co1 132.2(5)
C6 O1 P1 O3 -37.0(5)
C6 O1 P1 O2 77.2(5)
C6 O1 P1 Co1 -167.3(4)
C2 Co1 P1 O3 145.5(4)
C4 Co1 P1 O3 178.9(3)
C1 Co1 P1 O3 -136.4(4)
C5 Co1 P1 O3 -143.1(3)
C3 Co1 P1 O3 145.1(3)
P3 Co1 P1 O3 -43.4(2)
P2 Co1 P1 O3 49.3(2)
C2 Co1 P1 O2 20.1(4)
C4 Co1 P1 O2 53.5(2)
C1 Co1 P1 O2 98.2(3)
C5 Co1 P1 O2 91.5(2)
C3 Co1 P1 O2 19.7(3)
P3 Co1 P1 O2 -168.84(18)
P2 Co1 P1 O2 -76.14(18)
C2 Co1 P1 O1 -91.7(4)
C4 Co1 P1 O1 -58.3(2)
C1 Co1 P1 O1 -13.7(4)
C5 Co1 P1 O1 -20.3(2)
C3 Co1 P1 O1 -92.2(2)
P3 Co1 P1 O1 79.29(17)
P2 Co1 P1 O1 171.99(17)
Ho1 O6 P2 O5 126.8(3)
Ho1 O6 P2 O4 -123.7(3)
Ho1 O6 P2 Co1 -0.4(4)
C12 O5 P2 O6 -4.9(6)
C12 O5 P2 O4 -120.2(6)
C12 O5 P2 Co1 125.9(5)
C10 O4 P2 O6 -43.4(5)
C10 O4 P2 O5 71.1(5)
C10 O4 P2 Co1 -172.4(4)
C2 Co1 P2 O6 163.3(2)
C4 Co1 P2 O6 -137.4(3)
C1 Co1 P2 O6 137.0(3)
C5 Co1 P2 O6 169.8(5)
C3 Co1 P2 O6 -158.3(2)
P3 Co1 P2 O6 45.74(19)
P1 Co1 P2 O6 -46.83(19)
C2 Co1 P2 O5 37.3(2)
C4 Co1 P2 O5 96.6(3)
C1 Co1 P2 O5 11.0(3)
C5 Co1 P2 O5 43.8(5)
C3 Co1 P2 O5 75.7(2)
P3 Co1 P2 O5 -80.25(19)
P1 Co1 P2 O5 -172.82(18)
C2 Co1 P2 O4 -72.4(2)
C4 Co1 P2 O4 -13.1(3)
C1 Co1 P2 O4 -98.7(3)
C5 Co1 P2 O4 -65.8(5)
C3 Co1 P2 O4 -34.0(2)
P3 Co1 P2 O4 170.06(18)
P1 Co1 P2 O4 77.50(19)
Ho1 O9 P3 O8 134.0(3)
Ho1 O9 P3 O7 -114.5(3)
Ho1 O9 P3 Co1 8.0(4)
C16 O8 P3 O9 -1.8(6)
C16 O8 P3 O7 -116.3(5)
C16 O8 P3 Co1 129.7(5)
C14 O7 P3 O9 -47.4(5)
C14 O7 P3 O8 67.4(5)
C14 O7 P3 Co1 -177.0(4)
C2 Co1 P3 O9 -143.3(3)
C4 Co1 P3 O9 134.0(3)
C1 Co1 P3 O9 -172.8(3)
C5 Co1 P3 O9 147.2(3)
C3 Co1 P3 O9 -157.1(4)
P2 Co1 P3 O9 -49.6(2)
P1 Co1 P3 O9 41.8(2)
C2 Co1 P3 O8 91.2(3)
C4 Co1 P3 O8 8.5(3)
C1 Co1 P3 O8 61.7(3)
C5 Co1 P3 O8 21.7(3)
C3 Co1 P3 O8 77.4(4)
P2 Co1 P3 O8 -175.1(2)
P1 Co1 P3 O8 -83.7(2)
C2 Co1 P3 O7 -20.5(3)
C4 Co1 P3 O7 -103.1(3)
C1 Co1 P3 O7 -50.0(3)
C5 Co1 P3 O7 -89.9(2)
C3 Co1 P3 O7 -34.3(4)
P2 Co1 P3 O7 73.25(19)
P1 Co1 P3 O7 164.63(19)
