#------------------------------------------------------------------------------
#$Date: 2016-02-16 22:30:59 +0200 (Tue, 16 Feb 2016) $
#$Revision: 176467 $
#$URL: svn://www.crystallography.net/cod/cif/4/34/07/4340787.cif $
#------------------------------------------------------------------------------
#
# This file is available in the Crystallography Open Database (COD),
# http://www.crystallography.net/
#
# All data on this site have been placed in the public domain by the
# contributors.
#
data_4340787
loop_
_publ_author_name
'Cheng, Ru-Jen'
'Chen, Yu-Hsuan'
'Chen, Ching-Chin'
'Lee, Gene-Hsiang'
'Peng, Shie-Ming'
'Chen, Peter Ping-Yu'
_publ_section_title
;
 Dual-Channel-Mediated Spin Coupling for One-Electron-Oxidized
 Cobalt(II)-Saddled Porphyrin.
;
_journal_issue                   17
_journal_name_full               'Inorganic chemistry'
_journal_page_first              8848
_journal_page_last               8850
_journal_paper_doi               10.1021/ic501120k
_journal_volume                  53
_journal_year                    2014
_chemical_formula_moiety         'C60 H60 Co I0.70 N4'
_chemical_formula_sum            'C60 H60 Co I0.7 N4'
_chemical_formula_weight         984.88
_space_group_IT_number           14
_symmetry_cell_setting           monoclinic
_symmetry_Int_Tables_number      14
_symmetry_space_group_name_Hall  '-P 2ybc'
_symmetry_space_group_name_H-M   'P 1 21/c 1'
_atom_sites_solution_hydrogens   geom
_atom_sites_solution_primary     direct
_atom_sites_solution_secondary   difmap
_audit_creation_method           SHELXL-97
_cell_angle_alpha                90.00
_cell_angle_beta                 106.899(3)
_cell_angle_gamma                90.00
_cell_formula_units_Z            4
_cell_length_a                   20.0908(6)
_cell_length_b                   19.9777(7)
_cell_length_c                   15.2121(4)
_cell_measurement_reflns_used    8666
_cell_measurement_temperature    110(2)
_cell_measurement_theta_max      29.0671
_cell_measurement_theta_min      2.7932
_cell_volume                     5842.0(3)
_computing_cell_refinement
; 
CrysAlis RED, Oxford Diffraction Ltd., 
Version 1.171.32.29 (release 10-06-2008 CrysAlis171 .NET) 
(compiled Jun 10 2008,16:49:55) 
;
_computing_data_collection
; 
CrysAlis CCD, Oxford Diffraction Ltd., 
Version 1.171.32.29 (release 10-06-2008 CrysAlis171 .NET) 
(compiled Jun 10 2008,16:49:55) 
;
_computing_data_reduction
; 
CrysAlis RED, Oxford Diffraction Ltd., 
Version 1.171.32.29 (release 10-06-2008 CrysAlis171 .NET) 
(compiled Jun 10 2008,16:49:55) 
;
_computing_molecular_graphics    'Bruker SHELXTL'
_computing_publication_material  'Bruker SHELXTL'
_computing_structure_refinement  'SHELXL-97 (Sheldrick, 1997)'
_computing_structure_solution    'SHELXS-97 (Sheldrick, 1990)'
_diffrn_ambient_temperature      110(2)
_diffrn_measured_fraction_theta_full 0.999
_diffrn_measured_fraction_theta_max 0.858
_diffrn_measurement_device_type  'CCD detector'
_diffrn_measurement_method       '\w scans'
_diffrn_radiation_monochromator  graphite
_diffrn_radiation_probe          x-ray
_diffrn_radiation_type           MoK\a
_diffrn_radiation_wavelength     0.71073
_diffrn_reflns_av_R_equivalents  0.0325
_diffrn_reflns_av_sigmaI/netI    0.0564
_diffrn_reflns_limit_h_max       27
_diffrn_reflns_limit_h_min       -27
_diffrn_reflns_limit_k_max       21
_diffrn_reflns_limit_k_min       -27
_diffrn_reflns_limit_l_max       20
_diffrn_reflns_limit_l_min       -20
_diffrn_reflns_number            30700
_diffrn_reflns_theta_full        26.00
_diffrn_reflns_theta_max         29.13
_diffrn_reflns_theta_min         2.80
_diffrn_source                   'fine-focus sealed tube'
_exptl_absorpt_coefficient_mu    0.700
_exptl_absorpt_correction_T_max  1.00000
_exptl_absorpt_correction_T_min  0.96783
_exptl_absorpt_correction_type   multi-scan
_exptl_absorpt_process_details
; 
CrysAlisPro, Agilent Technologies, 
Version 1.171.35.19 (release 27-10-2011 CrysAlis171 .NET) 
(compiled Oct 27 2011,15:02:11) 
Empirical absorption correction using spherical harmonics, 
 implemented in SCALE3 ABSPACK scaling algorithm. 
;
_exptl_crystal_colour            blue
_exptl_crystal_density_diffrn    1.120
_exptl_crystal_density_method    'not measured'
_exptl_crystal_description       parallelepiped
_exptl_crystal_F_000             2048
_exptl_crystal_size_max          0.72
_exptl_crystal_size_mid          0.14
_exptl_crystal_size_min          0.08
_platon_squeeze_details          ' '
_refine_diff_density_max         2.248
_refine_diff_density_min         -0.721
_refine_diff_density_rms         0.124
_refine_ls_extinction_method     none
_refine_ls_goodness_of_fit_ref   1.109
_refine_ls_hydrogen_treatment    constr
_refine_ls_matrix_type           full
_refine_ls_number_parameters     593
_refine_ls_number_reflns         13496
_refine_ls_number_restraints     0
_refine_ls_restrained_S_all      1.109
_refine_ls_R_factor_all          0.0989
_refine_ls_R_factor_gt           0.0661
_refine_ls_shift/su_max          0.001
_refine_ls_shift/su_mean         0.000
_refine_ls_structure_factor_coef Fsqd
_refine_ls_weighting_details
'calc w=1/[\s^2^(Fo^2^)+(0.1134P)^2^+5.6768P] where P=(Fo^2^+2Fc^2^)/3'
_refine_ls_weighting_scheme      calc
_refine_ls_wR_factor_gt          0.1838
_refine_ls_wR_factor_ref         0.2074
_reflns_number_gt                9374
_reflns_number_total             13496
_reflns_threshold_expression     >2sigma(I)
_cod_data_source_file            ic501120k_si_001.cif
_cod_data_source_block           cooetppi
_cod_depositor_comments
'Adding full bibliography for 4340787--4340790.cif.'
_cod_original_sg_symbol_H-M      'P 21/c'
_cod_original_formula_sum        'C60 H60 Co I0.70 N4'
_cod_database_code               4340787
loop_
_symmetry_equiv_pos_as_xyz
'x, y, z'
'-x, y+1/2, -z+1/2'
'-x, -y, -z'
'x, -y-1/2, z-1/2'
loop_
_atom_site_label
_atom_site_type_symbol
_atom_site_fract_x
_atom_site_fract_y
_atom_site_fract_z
_atom_site_U_iso_or_equiv
_atom_site_adp_type
_atom_site_occupancy
_atom_site_symmetry_multiplicity
_atom_site_calc_flag
_atom_site_refinement_flags
_atom_site_disorder_assembly
_atom_site_disorder_group
I I 0.74313(2) 0.01295(2) 0.49741(3) 0.02841(13) Uani 0.70 1 d P . .
Co Co 0.73511(2) -0.10563(2) 0.44002(3) 0.01314(13) Uani 1 1 d . . .
N1 N 0.65893(14) -0.13616(15) 0.48190(18) 0.0138(6) Uani 1 1 d . . .
N2 N 0.79904(14) -0.13463(16) 0.55524(19) 0.0159(6) Uani 1 1 d . . .
N3 N 0.80932(15) -0.10666(15) 0.3834(2) 0.0156(6) Uani 1 1 d . . .
N4 N 0.67163(15) -0.07580(15) 0.32570(19) 0.0156(6) Uani 1 1 d . . .
C1 C 0.58967(17) -0.14184(18) 0.4279(2) 0.0156(7) Uani 1 1 d . . .
C2 C 0.55362(18) -0.18864(19) 0.4716(2) 0.0171(7) Uani 1 1 d . . .
C3 C 0.59743(17) -0.20255(18) 0.5567(2) 0.0166(7) Uani 1 1 d . . .
C4 C 0.66191(17) -0.16681(17) 0.5644(2) 0.0142(7) Uani 1 1 d . . .
C5 C 0.71832(17) -0.15616(18) 0.6429(2) 0.0155(7) Uani 1 1 d . . .
C6 C 0.78215(19) -0.13291(19) 0.6368(2) 0.0191(7) Uani 1 1 d . . .
C7 C 0.84238(19) -0.1116(2) 0.7103(2) 0.0212(8) Uani 1 1 d . . .
C8 C 0.89683(19) -0.1070(2) 0.6744(2) 0.0208(8) Uani 1 1 d . . .
C9 C 0.87050(18) -0.1241(2) 0.5783(2) 0.0202(8) Uani 1 1 d . . .
C10 C 0.90742(18) -0.1344(2) 0.5144(3) 0.0209(8) Uani 1 1 d . A .
C11 C 0.87535(18) -0.13376(18) 0.4203(2) 0.0181(7) Uani 1 1 d . . .
C12 C 0.90707(19) -0.14636(19) 0.3472(3) 0.0207(8) Uani 1 1 d . . .
C13 C 0.8633(2) -0.1200(2) 0.2693(3) 0.0219(8) Uani 1 1 d . . .
C14 C 0.80437(19) -0.09152(18) 0.2929(2) 0.0174(7) Uani 1 1 d . . .
C15 C 0.75269(18) -0.04928(18) 0.2404(2) 0.0172(7) Uani 1 1 d . . .
C16 C 0.69141(18) -0.03561(18) 0.2629(2) 0.0161(7) Uani 1 1 d . . .
C17 C 0.63693(19) 0.01246(18) 0.2221(2) 0.0177(7) Uani 1 1 d . . .
C18 C 0.58249(19) -0.00199(19) 0.2570(3) 0.0194(7) Uani 1 1 d . . .
C19 C 0.60311(18) -0.05900(19) 0.3163(2) 0.0169(7) Uani 1 1 d . . .
C20 C 0.56137(18) -0.09859(18) 0.3556(2) 0.0160(7) Uani 1 1 d . . .
C21 C 0.4853(2) -0.2225(2) 0.4267(3) 0.0249(8) Uani 1 1 d . . .
H21A H 0.4492 -0.1880 0.4027 0.030 Uiso 1 1 calc R . .
H21B H 0.4713 -0.2493 0.4731 0.030 Uiso 1 1 calc R . .
C22 C 0.4899(2) -0.2679(2) 0.3482(3) 0.0351(10) Uani 1 1 d . . .
H22A H 0.4447 -0.2893 0.3207 0.053 Uiso 1 1 calc R . .
H22B H 0.5252 -0.3024 0.3719 0.053 Uiso 1 1 calc R . .
H22C H 0.5027 -0.2413 0.3015 0.053 Uiso 1 1 calc R . .
C23 C 0.58278(19) -0.25144(19) 0.6237(3) 0.0212(8) Uani 1 1 d . . .
H23A H 0.5318 -0.2554 0.6120 0.025 Uiso 1 1 calc R . .
H23B H 0.6026 -0.2340 0.6868 0.025 Uiso 1 1 calc R . .
C24 C 0.6132(2) -0.3210(2) 0.6169(3) 0.0298(9) Uani 1 1 d . . .
H24A H 0.6025 -0.3510 0.6620 0.045 Uiso 1 1 calc R . .
H24B H 0.6637 -0.3176 0.6295 0.045 Uiso 1 1 calc R . .
H24C H 0.5928 -0.3390 0.5550 0.045 Uiso 1 1 calc R . .
C25 C 0.70806(18) -0.16885(19) 0.7346(2) 0.0180(7) Uani 1 1 d . . .
C26 C 0.66367(18) -0.12734(19) 0.7651(2) 0.0189(7) Uani 1 1 d . . .
H26A H 0.6398 -0.0920 0.7270 0.023 Uiso 1 1 calc R . .
C27 C 0.6541(2) -0.1374(2) 0.8510(3) 0.0253(8) Uani 1 1 d . . .
H27A H 0.6235 -0.1092 0.8713 0.030 Uiso 1 1 calc R . .
C28 C 0.6892(2) -0.1886(2) 0.9071(3) 0.0269(9) Uani 1 1 d . . .
H28A H 0.6825 -0.1956 0.9658 0.032 Uiso 1 1 calc R . .
C29 C 0.7339(2) -0.2295(2) 0.8775(2) 0.0233(8) Uani 1 1 d . . .
H29A H 0.7584 -0.2643 0.9162 0.028 Uiso 1 1 calc R . .
C30 C 0.74329(19) -0.22000(19) 0.7914(2) 0.0192(7) Uani 1 1 d . . .
H30A H 0.7738 -0.2485 0.7712 0.023 Uiso 1 1 calc R . .
C31 C 0.8426(2) -0.0865(2) 0.8034(3) 0.0258(9) Uani 1 1 d . . .
H31A H 0.8179 -0.1187 0.8323 0.031 Uiso 1 1 calc R . .
H31B H 0.8911 -0.0825 0.8432 0.031 Uiso 1 1 calc R . .
C32 C 0.8081(2) -0.0206(2) 0.7952(3) 0.0363(10) Uani 1 1 d . . .
H32A H 0.8087 -0.0047 0.8564 0.054 Uiso 1 1 calc R . .
H32B H 0.7598 -0.0247 0.7566 0.054 Uiso 1 1 calc R . .
H32C H 0.8328 0.0114 0.7672 0.054 Uiso 1 1 calc R . .
C33 C 0.9669(2) -0.0757(2) 0.7220(3) 0.0301(10) Uani 1 1 d . . .
H33A H 1.0041 -0.1013 0.7063 0.036 Uiso 1 1 calc R . .
H33B H 0.9755 -0.0780 0.7894 0.036 Uiso 1 1 calc R . .
C34 C 0.9695(3) -0.0032(3) 0.6932(4) 0.0463(13) Uani 1 1 d . . .
H34A H 1.0152 0.0158 0.7248 0.069 Uiso 1 1 calc R . .
H34B H 0.9332 0.0224 0.7097 0.069 Uiso 1 1 calc R . .
H34C H 0.9618 -0.0009 0.6267 0.069 Uiso 1 1 calc R . .
C35 C 0.9847(2) -0.1413(2) 0.5497(3) 0.0304(10) Uani 1 1 d . . .
C36 C 1.0088(7) -0.1985(9) 0.6091(10) 0.047(2) Uani 0.52(3) 1 d P A 1
H36A H 0.9774 -0.2310 0.6194 0.056 Uiso 0.52(3) 1 calc PR A 1
C37 C 1.0799(7) -0.2035(8) 0.6501(9) 0.047(2) Uani 0.52(3) 1 d P A 1
H37A H 1.0972 -0.2395 0.6911 0.056 Uiso 0.52(3) 1 calc PR A 1
C38 C 1.1270(6) -0.1574(10) 0.6332(9) 0.047(2) Uani 0.52(3) 1 d P A 1
H38A H 1.1756 -0.1629 0.6609 0.056 Uiso 0.52(3) 1 calc PR A 1
C39 C 1.1028(6) -0.1052(10) 0.5772(9) 0.047(2) Uani 0.52(3) 1 d P A 1
H39A H 1.1340 -0.0734 0.5647 0.056 Uiso 0.52(3) 1 calc PR A 1
C40 C 1.0302(9) -0.0983(10) 0.5373(12) 0.047(2) Uani 0.52(3) 1 d P A 1
H40A H 1.0137 -0.0605 0.4993 0.056 Uiso 0.52(3) 1 calc PR A 1
C36' C 1.0220(7) -0.1889(8) 0.5995(10) 0.032(2) Uani 0.48(3) 1 d P A 2
H36C H 0.9984 -0.2269 0.6135 0.038 Uiso 0.48(3) 1 calc PR A 2
C37' C 1.0953(7) -0.1873(7) 0.6337(8) 0.032(2) Uani 0.48(3) 1 d P A 2
H37B H 1.1205 -0.2220 0.6717 0.038 Uiso 0.48(3) 1 calc PR A 2
C38' C 1.1290(6) -0.1327(9) 0.6094(10) 0.032(2) Uani 0.48(3) 1 d P A 2
H38B H 1.1783 -0.1310 0.6300 0.038 Uiso 0.48(3) 1 calc PR A 2
C39' C 1.0939(6) -0.0822(8) 0.5574(9) 0.032(2) Uani 0.48(3) 1 d P A 2
H39B H 1.1179 -0.0445 0.5437 0.038 Uiso 0.48(3) 1 calc PR A 2
C40' C 1.0231(9) -0.0865(9) 0.5250(10) 0.032(2) Uani 0.48(3) 1 d P A 2
H40B H 0.9982 -0.0525 0.4851 0.038 Uiso 0.48(3) 1 calc PR A 2
C41 C 0.9700(2) -0.1891(2) 0.3526(3) 0.0310(9) Uani 1 1 d . . .
H41A H 1.0099 -0.1716 0.4020 0.037 Uiso 1 1 calc R . .
H41B H 0.9818 -0.1853 0.2940 0.037 Uiso 1 1 calc R . .
C42 C 0.9599(3) -0.2616(3) 0.3710(4) 0.0478(13) Uani 1 1 d . . .
H42A H 1.0026 -0.2864 0.3741 0.072 Uiso 1 1 calc R . .
H42B H 0.9214 -0.2797 0.3214 0.072 Uiso 1 1 calc R . .
H42C H 0.9491 -0.2659 0.4296 0.072 Uiso 1 1 calc R . .
C43 C 0.8740(2) -0.1265(2) 0.1754(3) 0.0278(9) Uani 1 1 d . . .
H43A H 0.9245 -0.1285 0.1822 0.033 Uiso 1 1 calc R . .
H43B H 0.8550 -0.0864 0.1385 0.033 Uiso 1 1 calc R . .
C44 C 0.8390(2) -0.1888(3) 0.1248(3) 0.0389(11) Uani 1 1 d . . .
H44A H 0.8474 -0.1912 0.0645 0.058 Uiso 1 1 calc R . .
H44B H 0.7889 -0.1865 0.1166 0.058 Uiso 1 1 calc R . .
H44C H 0.8583 -0.2287 0.1606 0.058 Uiso 1 1 calc R . .
C45 C 0.76645(19) -0.01361(19) 0.1605(2) 0.0200(8) Uani 1 1 d . . .
C46 C 0.8188(2) 0.0345(2) 0.1781(3) 0.0272(9) Uani 1 1 d . . .
H46A H 0.8459 0.0431 0.2394 0.033 Uiso 1 1 calc R . .
C47 C 0.8311(3) 0.0697(3) 0.1056(3) 0.0395(11) Uani 1 1 d . . .
H47A H 0.8668 0.1027 0.1174 0.047 Uiso 1 1 calc R . .
C48 C 0.7918(3) 0.0569(3) 0.0170(3) 0.0408(12) Uani 1 1 d . . .
H48A H 0.7996 0.0818 -0.0323 0.049 Uiso 1 1 calc R . .
C49 C 0.7409(2) 0.0081(3) -0.0008(3) 0.0348(10) Uani 1 1 d . . .
H49A H 0.7146 -0.0013 -0.0623 0.042 Uiso 1 1 calc R . .
C50 C 0.7282(2) -0.0271(2) 0.0713(3) 0.0260(9) Uani 1 1 d . . .
H50A H 0.6932 -0.0607 0.0591 0.031 Uiso 1 1 calc R . .
C51 C 0.6384(2) 0.0716(2) 0.1615(3) 0.0311(10) Uani 1 1 d . . .
H51A H 0.6862 0.0770 0.1568 0.037 Uiso 1 1 calc R . .
H51B H 0.6269 0.1125 0.1909 0.037 Uiso 1 1 calc R . .
C52 C 0.5878(3) 0.0658(3) 0.0641(3) 0.0486(14) Uani 1 1 d . . .
H52A H 0.5916 0.1058 0.0286 0.073 Uiso 1 1 calc R . .
H52B H 0.5401 0.0618 0.0678 0.073 Uiso 1 1 calc R . .
H52C H 0.5994 0.0261 0.0337 0.073 Uiso 1 1 calc R . .
C53 C 0.5206(2) 0.0435(2) 0.2490(3) 0.0274(9) Uani 1 1 d . . .
H53A H 0.4776 0.0164 0.2358 0.033 Uiso 1 1 calc R . .
H53B H 0.5159 0.0752 0.1976 0.033 Uiso 1 1 calc R . .
C54 C 0.5303(3) 0.0822(3) 0.3381(4) 0.0444(12) Uani 1 1 d . . .
H54A H 0.4900 0.1113 0.3323 0.067 Uiso 1 1 calc R . .
H54B H 0.5725 0.1095 0.3506 0.067 Uiso 1 1 calc R . .
H54C H 0.5345 0.0506 0.3888 0.067 Uiso 1 1 calc R . .
C55 C 0.48444(19) -0.0936(2) 0.3166(2) 0.0203(8) Uani 1 1 d . . .
C56 C 0.4528(2) -0.1133(2) 0.2264(3) 0.0272(9) Uani 1 1 d . . .
H56A H 0.4806 -0.1299 0.1903 0.033 Uiso 1 1 calc R . .
C57 C 0.3813(2) -0.1089(3) 0.1885(3) 0.0387(11) Uani 1 1 d . . .
H57A H 0.3601 -0.1230 0.1270 0.046 Uiso 1 1 calc R . .
C58 C 0.3415(2) -0.0842(3) 0.2406(3) 0.0411(12) Uani 1 1 d . . .
H58A H 0.2925 -0.0812 0.2146 0.049 Uiso 1 1 calc R . .
C59 C 0.3711(2) -0.0635(3) 0.3299(3) 0.0393(11) Uani 1 1 d . . .
H59A H 0.3429 -0.0462 0.3651 0.047 Uiso 1 1 calc R . .
C60 C 0.4436(2) -0.0684(2) 0.3684(3) 0.0293(9) Uani 1 1 d . . .
H60A H 0.4646 -0.0543 0.4299 0.035 Uiso 1 1 calc R . .
loop_
_atom_site_aniso_label
_atom_site_aniso_U_11
_atom_site_aniso_U_22
_atom_site_aniso_U_33
_atom_site_aniso_U_23
_atom_site_aniso_U_13
_atom_site_aniso_U_12
I 0.0299(2) 0.0304(2) 0.0261(2) -0.00046(15) 0.00989(16) -0.00057(16)
Co 0.0126(2) 0.0156(2) 0.0113(2) 0.00236(17) 0.00352(17) -0.00046(18)
N1 0.0124(13) 0.0174(15) 0.0111(13) 0.0021(11) 0.0024(11) -0.0021(12)
N2 0.0089(13) 0.0225(16) 0.0161(14) 0.0044(12) 0.0031(11) -0.0002(12)
N3 0.0159(14) 0.0136(15) 0.0171(14) 0.0015(11) 0.0044(11) 0.0006(12)
N4 0.0156(14) 0.0175(15) 0.0147(14) 0.0013(11) 0.0062(11) 0.0022(12)
C1 0.0135(16) 0.0170(18) 0.0147(16) -0.0002(13) 0.0017(13) 0.0010(14)
C2 0.0146(16) 0.0187(18) 0.0191(17) -0.0010(14) 0.0067(13) 0.0003(14)
C3 0.0147(16) 0.0167(18) 0.0197(17) 0.0044(14) 0.0073(13) 0.0018(14)
C4 0.0147(15) 0.0137(17) 0.0143(16) 0.0029(13) 0.0043(13) 0.0005(14)
C5 0.0160(16) 0.0176(18) 0.0131(16) 0.0042(13) 0.0046(13) 0.0036(14)
C6 0.0228(18) 0.0188(18) 0.0128(16) 0.0039(14) 0.0008(14) -0.0009(15)
C7 0.0188(17) 0.028(2) 0.0141(17) 0.0063(15) 0.0004(14) -0.0013(16)
C8 0.0189(17) 0.028(2) 0.0130(17) 0.0063(14) 0.0004(14) -0.0040(16)
C9 0.0140(16) 0.025(2) 0.0180(18) 0.0066(15) -0.0007(14) -0.0017(15)
C10 0.0129(16) 0.024(2) 0.0260(19) 0.0060(15) 0.0055(14) -0.0007(15)
C11 0.0169(16) 0.0154(18) 0.0229(18) 0.0011(14) 0.0071(14) -0.0030(15)
C12 0.0175(17) 0.0192(19) 0.0271(19) -0.0015(15) 0.0092(15) -0.0024(15)
C13 0.0226(18) 0.022(2) 0.0240(19) -0.0019(15) 0.0116(15) -0.0010(16)
C14 0.0212(17) 0.0184(18) 0.0149(16) -0.0037(13) 0.0088(14) -0.0055(15)
C15 0.0209(17) 0.0161(18) 0.0145(16) -0.0023(13) 0.0052(13) -0.0037(15)
C16 0.0211(17) 0.0143(17) 0.0125(16) 0.0012(13) 0.0043(13) -0.0015(14)
C17 0.0183(17) 0.0164(18) 0.0184(17) 0.0050(14) 0.0053(14) 0.0053(15)
C18 0.0178(17) 0.0221(19) 0.0187(18) 0.0030(14) 0.0060(14) 0.0007(15)
C19 0.0178(16) 0.0190(18) 0.0132(16) 0.0031(13) 0.0033(13) 0.0010(15)
C20 0.0173(16) 0.0188(18) 0.0118(15) -0.0015(13) 0.0039(13) 0.0004(14)
C21 0.0185(18) 0.026(2) 0.028(2) 0.0043(16) 0.0042(15) -0.0043(17)
C22 0.027(2) 0.030(2) 0.043(3) -0.011(2) 0.0025(19) -0.0092(19)
C23 0.0195(17) 0.025(2) 0.0206(18) 0.0068(15) 0.0085(15) -0.0022(16)
C24 0.035(2) 0.025(2) 0.035(2) 0.0129(17) 0.0190(19) 0.0038(19)
C25 0.0169(16) 0.0217(19) 0.0140(16) 0.0020(14) 0.0025(13) -0.0042(15)
C26 0.0172(17) 0.0210(19) 0.0170(17) 0.0006(14) 0.0023(14) -0.0016(15)
C27 0.0249(19) 0.032(2) 0.0210(19) -0.0041(16) 0.0100(15) 0.0015(18)
C28 0.034(2) 0.033(2) 0.0166(18) -0.0004(16) 0.0128(16) -0.0049(19)
C29 0.0275(19) 0.023(2) 0.0164(17) 0.0064(15) 0.0017(15) -0.0030(17)
C30 0.0192(17) 0.0217(19) 0.0167(17) 0.0008(14) 0.0055(14) -0.0036(16)
C31 0.0239(19) 0.035(2) 0.0166(18) -0.0007(16) 0.0031(15) -0.0057(18)
C32 0.035(2) 0.038(3) 0.038(3) -0.010(2) 0.015(2) -0.004(2)
C33 0.0220(19) 0.048(3) 0.0177(19) 0.0027(18) 0.0008(15) -0.0124(19)
C34 0.040(3) 0.054(3) 0.047(3) -0.014(2) 0.016(2) -0.030(3)
C35 0.0177(19) 0.049(3) 0.024(2) -0.0019(18) 0.0043(16) -0.0003(19)
C36 0.022(3) 0.072(5) 0.043(3) 0.018(4) 0.005(2) 0.003(3)
C37 0.022(3) 0.072(5) 0.043(3) 0.018(4) 0.005(2) 0.003(3)
C38 0.022(3) 0.072(5) 0.043(3) 0.018(4) 0.005(2) 0.003(3)
C39 0.022(3) 0.072(5) 0.043(3) 0.018(4) 0.005(2) 0.003(3)
C40 0.022(3) 0.072(5) 0.043(3) 0.018(4) 0.005(2) 0.003(3)
C36' 0.023(3) 0.044(4) 0.029(3) -0.002(3) 0.010(2) -0.004(2)
C37' 0.023(3) 0.044(4) 0.029(3) -0.002(3) 0.010(2) -0.004(2)
C38' 0.023(3) 0.044(4) 0.029(3) -0.002(3) 0.010(2) -0.004(2)
C39' 0.023(3) 0.044(4) 0.029(3) -0.002(3) 0.010(2) -0.004(2)
C40' 0.023(3) 0.044(4) 0.029(3) -0.002(3) 0.010(2) -0.004(2)
C41 0.024(2) 0.038(3) 0.032(2) -0.0015(19) 0.0102(17) 0.0102(19)
C42 0.038(3) 0.035(3) 0.062(3) -0.013(2) 0.001(2) 0.008(2)
C43 0.028(2) 0.034(2) 0.026(2) 0.0004(17) 0.0158(17) 0.0037(19)
C44 0.042(3) 0.054(3) 0.025(2) -0.009(2) 0.0146(19) -0.012(2)
C45 0.0230(18) 0.0199(19) 0.0187(18) 0.0056(14) 0.0084(15) 0.0012(16)
C46 0.031(2) 0.026(2) 0.027(2) -0.0013(16) 0.0107(17) -0.0057(18)
C47 0.047(3) 0.038(3) 0.039(3) 0.007(2) 0.020(2) -0.015(2)
C48 0.058(3) 0.040(3) 0.032(2) 0.009(2) 0.025(2) -0.012(2)
C49 0.041(3) 0.044(3) 0.021(2) 0.0035(18) 0.0113(18) -0.007(2)
C50 0.028(2) 0.032(2) 0.0176(18) 0.0039(16) 0.0072(15) -0.0022(18)
C51 0.031(2) 0.030(2) 0.036(2) 0.0152(18) 0.0152(18) 0.0074(19)
C52 0.044(3) 0.068(4) 0.033(3) 0.024(2) 0.010(2) 0.020(3)
C53 0.0236(19) 0.025(2) 0.032(2) 0.0115(17) 0.0054(16) 0.0087(17)
C54 0.039(3) 0.039(3) 0.057(3) -0.008(2) 0.016(2) 0.015(2)
C55 0.0166(17) 0.024(2) 0.0191(18) 0.0108(14) 0.0036(14) 0.0025(15)
C56 0.0234(19) 0.033(2) 0.0221(19) 0.0050(16) 0.0020(16) 0.0020(18)
C57 0.028(2) 0.047(3) 0.032(2) 0.002(2) -0.0064(18) -0.001(2)
C58 0.023(2) 0.048(3) 0.045(3) 0.010(2) -0.002(2) 0.008(2)
C59 0.033(2) 0.041(3) 0.052(3) 0.012(2) 0.024(2) 0.015(2)
C60 0.029(2) 0.034(2) 0.027(2) 0.0057(17) 0.0094(17) 0.0071(19)
loop_
_atom_type_symbol
_atom_type_description
_atom_type_scat_dispersion_real
_atom_type_scat_dispersion_imag
_atom_type_scat_source
C C 0.0033 0.0016 'International Tables Vol C Tables 4.2.6.8 and 6.1.1.4'
H H 0.0000 0.0000 'International Tables Vol C Tables 4.2.6.8 and 6.1.1.4'
N N 0.0061 0.0033 'International Tables Vol C Tables 4.2.6.8 and 6.1.1.4'
Co Co 0.3494 0.9721 'International Tables Vol C Tables 4.2.6.8 and 6.1.1.4'
I I -0.4742 1.8119 'International Tables Vol C Tables 4.2.6.8 and 6.1.1.4'
loop_
_geom_angle_atom_site_label_1
_geom_angle_atom_site_label_2
_geom_angle_atom_site_label_3
_geom_angle
N1 Co N3 160.05(13)
N1 Co N4 90.88(12)
N3 Co N4 89.73(12)
N1 Co N2 89.29(12)
N3 Co N2 90.31(12)
N4 Co N2 179.41(14)
N1 Co I 99.26(9)
N3 Co I 100.69(9)
N4 Co I 88.90(9)
N2 Co I 90.51(10)
C4 N1 C1 105.7(3)
C4 N1 Co 127.9(2)
C1 N1 Co 125.7(2)
C6 N2 C9 106.0(3)
C6 N2 Co 122.4(2)
C9 N2 Co 123.2(2)
C14 N3 C11 105.6(3)
C14 N3 Co 126.9(2)
C11 N3 Co 126.6(2)
C19 N4 C16 105.3(3)
C19 N4 Co 123.1(2)
C16 N4 Co 123.5(2)
C20 C1 N1 121.6(3)
C20 C1 C2 128.3(3)
N1 C1 C2 109.0(3)
C3 C2 C1 107.1(3)
C3 C2 C21 126.2(3)
C1 C2 C21 126.2(3)
C2 C3 C4 106.8(3)
C2 C3 C23 125.2(3)
C4 C3 C23 127.7(3)
N1 C4 C5 121.1(3)
N1 C4 C3 110.0(3)
C5 C4 C3 128.6(3)
C6 C5 C4 121.7(3)
C6 C5 C25 120.0(3)
C4 C5 C25 118.3(3)
N2 C6 C5 121.6(3)
N2 C6 C7 109.4(3)
C5 C6 C7 128.6(3)
C8 C7 C6 107.4(3)
C8 C7 C31 125.0(3)
C6 C7 C31 126.7(3)
C7 C8 C9 106.8(3)
C7 C8 C33 125.4(3)
C9 C8 C33 126.6(3)
N2 C9 C10 121.3(3)
N2 C9 C8 109.8(3)
C10 C9 C8 128.8(3)
C11 C10 C9 122.3(3)
C11 C10 C35 119.6(3)
C9 C10 C35 117.9(3)
C10 C11 N3 121.4(3)
C10 C11 C12 127.6(3)
N3 C11 C12 109.8(3)
C13 C12 C11 106.5(3)
C13 C12 C41 125.9(4)
C11 C12 C41 127.1(3)
C12 C13 C14 107.6(3)
C12 C13 C43 123.9(3)
C14 C13 C43 128.3(3)
N3 C14 C15 121.8(3)
N3 C14 C13 109.5(3)
C15 C14 C13 128.4(3)
C14 C15 C16 122.7(3)
C14 C15 C45 117.9(3)
C16 C15 C45 119.2(3)
N4 C16 C15 120.2(3)
N4 C16 C17 110.2(3)
C15 C16 C17 129.2(3)
C18 C17 C16 106.3(3)
C18 C17 C51 124.0(3)
C16 C17 C51 129.4(3)
C17 C18 C19 107.0(3)
C17 C18 C53 124.6(3)
C19 C18 C53 127.3(3)
N4 C19 C20 121.2(3)
N4 C19 C18 110.7(3)
C20 C19 C18 127.9(3)
C1 C20 C19 122.1(3)
C1 C20 C55 119.8(3)
C19 C20 C55 118.1(3)
C2 C21 C22 111.6(3)
C2 C21 H21A 109.3
C22 C21 H21A 109.3
C2 C21 H21B 109.3
C22 C21 H21B 109.3
H21A C21 H21B 108.0
C21 C22 H22A 109.5
C21 C22 H22B 109.5
H22A C22 H22B 109.5
C21 C22 H22C 109.5
H22A C22 H22C 109.5
H22B C22 H22C 109.5
C3 C23 C24 112.6(3)
C3 C23 H23A 109.1
C24 C23 H23A 109.1
C3 C23 H23B 109.1
C24 C23 H23B 109.1
H23A C23 H23B 107.8
C23 C24 H24A 109.5
C23 C24 H24B 109.5
H24A C24 H24B 109.5
C23 C24 H24C 109.5
H24A C24 H24C 109.5
H24B C24 H24C 109.5
C30 C25 C26 119.3(3)
C30 C25 C5 121.5(3)
C26 C25 C5 119.2(3)
C27 C26 C25 120.3(4)
C27 C26 H26A 119.9
C25 C26 H26A 119.9
C28 C27 C26 120.2(4)
C28 C27 H27A 119.9
C26 C27 H27A 119.9
C27 C28 C29 119.7(3)
C27 C28 H28A 120.1
C29 C28 H28A 120.1
C28 C29 C30 120.4(4)
C28 C29 H29A 119.8
C30 C29 H29A 119.8
C25 C30 C29 120.1(4)
C25 C30 H30A 119.9
C29 C30 H30A 119.9
C32 C31 C7 110.3(3)
C32 C31 H31A 109.6
C7 C31 H31A 109.6
C32 C31 H31B 109.6
C7 C31 H31B 109.6
H31A C31 H31B 108.1
C31 C32 H32A 109.5
C31 C32 H32B 109.5
H32A C32 H32B 109.5
C31 C32 H32C 109.5
H32A C32 H32C 109.5
H32B C32 H32C 109.5
C8 C33 C34 111.1(4)
C8 C33 H33A 109.4
C34 C33 H33A 109.4
C8 C33 H33B 109.4
C34 C33 H33B 109.4
H33A C33 H33B 108.0
C33 C34 H34A 109.5
C33 C34 H34B 109.5
H34A C34 H34B 109.5
C33 C34 H34C 109.5
H34A C34 H34C 109.5
H34B C34 H34C 109.5
C40 C35 C36' 104.8(8)
C40 C35 C40' 11.5(9)
C36' C35 C40' 116.2(7)
C40 C35 C10 125.8(7)
C36' C35 C10 129.4(7)
C40' C35 C10 114.3(6)
C40 C35 C36 119.2(7)
C36' C35 C36 15.1(6)
C40' C35 C36 130.6(7)
C10 C35 C36 114.8(6)
C37 C36 C35 116.7(10)
C37 C36 H36A 121.6
C35 C36 H36A 121.6
C36 C37 C38 122.4(10)
C36 C37 H37A 118.8
C38 C37 H37A 118.8
C39 C38 C37 119.2(10)
C39 C38 H38A 120.4
C37 C38 H38A 120.4
C38 C39 C40 119.0(12)
C38 C39 H39A 120.5
C40 C39 H39A 120.5
C35 C40 C39 123.5(12)
C35 C40 H40A 118.3
C39 C40 H40A 118.3
C35 C36' C37' 123.8(10)
C35 C36' H36C 118.1
C37' C36' H36C 118.1
C38' C37' C36' 117.2(10)
C38' C37' H37B 121.4
C36' C37' H37B 121.4
C37' C38' C39' 122.2(11)
C37' C38' H38B 118.9
C39' C38' H38B 118.9
C40' C39' C38' 118.4(10)
C40' C39' H39B 120.8
C38' C39' H39B 120.8
C39' C40' C35 122.0(10)
C39' C40' H40B 119.0
C35 C40' H40B 119.0
C12 C41 C42 113.6(4)
C12 C41 H41A 108.9
C42 C41 H41A 108.9
C12 C41 H41B 108.9
C42 C41 H41B 108.9
H41A C41 H41B 107.7
C41 C42 H42A 109.5
C41 C42 H42B 109.5
H42A C42 H42B 109.5
C41 C42 H42C 109.5
H42A C42 H42C 109.5
H42B C42 H42C 109.5
C13 C43 C44 112.2(3)
C13 C43 H43A 109.2
C44 C43 H43A 109.2
C13 C43 H43B 109.2
C44 C43 H43B 109.2
H43A C43 H43B 107.9
C43 C44 H44A 109.5
C43 C44 H44B 109.5
H44A C44 H44B 109.5
C43 C44 H44C 109.5
H44A C44 H44C 109.5
H44B C44 H44C 109.5
C50 C45 C46 119.9(3)
C50 C45 C15 121.5(3)
C46 C45 C15 118.5(3)
C45 C46 C47 119.8(4)
C45 C46 H46A 120.1
C47 C46 H46A 120.1
C48 C47 C46 119.9(4)
C48 C47 H47A 120.0
C46 C47 H47A 120.0
C47 C48 C49 120.4(4)
C47 C48 H48A 119.8
C49 C48 H48A 119.8
C48 C49 C50 119.9(4)
C48 C49 H49A 120.0
C50 C49 H49A 120.0
C45 C50 C49 120.0(4)
C45 C50 H50A 120.0
C49 C50 H50A 120.0
C17 C51 C52 113.9(4)
C17 C51 H51A 108.8
C52 C51 H51A 108.8
C17 C51 H51B 108.8
C52 C51 H51B 108.8
H51A C51 H51B 107.7
C51 C52 H52A 109.5
C51 C52 H52B 109.5
H52A C52 H52B 109.5
C51 C52 H52C 109.5
H52A C52 H52C 109.5
H52B C52 H52C 109.5
C18 C53 C54 110.1(3)
C18 C53 H53A 109.6
C54 C53 H53A 109.6
C18 C53 H53B 109.6
C54 C53 H53B 109.6
H53A C53 H53B 108.2
C53 C54 H54A 109.5
C53 C54 H54B 109.5
H54A C54 H54B 109.5
C53 C54 H54C 109.5
H54A C54 H54C 109.5
H54B C54 H54C 109.5
C60 C55 C56 119.1(4)
C60 C55 C20 121.0(3)
C56 C55 C20 119.9(3)
C57 C56 C55 120.9(4)
C57 C56 H56A 119.5
C55 C56 H56A 119.5
C58 C57 C56 119.3(4)
C58 C57 H57A 120.3
C56 C57 H57A 120.3
C57 C58 C59 121.4(4)
C57 C58 H58A 119.3
C59 C58 H58A 119.3
C58 C59 C60 119.1(4)
C58 C59 H59A 120.4
C60 C59 H59A 120.4
C55 C60 C59 120.1(4)
C55 C60 H60A 120.0
C59 C60 H60A 120.0
loop_
_geom_bond_atom_site_label_1
_geom_bond_atom_site_label_2
_geom_bond_distance
I Co 2.5136(6)
Co N1 1.920(3)
Co N3 1.926(3)
Co N4 1.928(3)
Co N2 1.936(3)
N1 C4 1.382(4)
N1 C1 1.400(4)
N2 C6 1.379(4)
N2 C9 1.391(4)
N3 C14 1.385(4)
N3 C11 1.391(5)
N4 C19 1.383(4)
N4 C16 1.391(4)
C1 C20 1.384(5)
C1 C2 1.456(5)
C2 C3 1.366(5)
C2 C21 1.504(5)
C3 C4 1.454(5)
C3 C23 1.500(5)
C4 C5 1.403(5)
C5 C6 1.392(5)
C5 C25 1.489(5)
C6 C7 1.452(5)
C7 C8 1.360(5)
C7 C31 1.502(5)
C8 C9 1.444(5)
C8 C33 1.518(5)
C9 C10 1.400(5)
C10 C11 1.389(5)
C10 C35 1.495(5)
C11 C12 1.455(5)
C12 C13 1.360(5)
C12 C41 1.508(5)
C13 C14 1.451(5)
C13 C43 1.510(5)
C14 C15 1.395(5)
C15 C16 1.397(5)
C15 C45 1.503(5)
C16 C17 1.453(5)
C17 C18 1.378(5)
C17 C51 1.504(5)
C18 C19 1.437(5)
C18 C53 1.516(5)
C19 C20 1.407(5)
C20 C55 1.489(5)
C21 C22 1.524(6)
C21 H21A 0.9900
C21 H21B 0.9900
C22 H22A 0.9800
C22 H22B 0.9800
C22 H22C 0.9800
C23 C24 1.534(6)
C23 H23A 0.9900
C23 H23B 0.9900
C24 H24A 0.9800
C24 H24B 0.9800
C24 H24C 0.9800
C25 C30 1.391(5)
C25 C26 1.393(5)
C26 C27 1.389(5)
C26 H26A 0.9500
C27 C28 1.386(6)
C27 H27A 0.9500
C28 C29 1.383(6)
C28 H28A 0.9500
C29 C30 1.389(5)
C29 H29A 0.9500
C30 H30A 0.9500
C31 C32 1.476(6)
C31 H31A 0.9900
C31 H31B 0.9900
C32 H32A 0.9800
C32 H32B 0.9800
C32 H32C 0.9800
C33 C34 1.518(7)
C33 H33A 0.9900
C33 H33B 0.9900
C34 H34A 0.9800
C34 H34B 0.9800
C34 H34C 0.9800
C35 C40 1.31(2)
C35 C36' 1.308(18)
C35 C40' 1.45(2)
C35 C36 1.450(18)
C36 C37 1.386(14)
C36 H36A 0.9500
C37 C38 1.396(16)
C37 H37A 0.9500
C38 C39 1.345(16)
C38 H38A 0.9500
C39 C40 1.414(17)
C39 H39A 0.9500
C40 H40A 0.9500
C36' C37' 1.412(14)
C36' H36C 0.9500
C37' C38' 1.388(15)
C37' H37B 0.9500
C38' C39' 1.348(15)
C38' H38B 0.9500
C39' C40' 1.367(17)
C39' H39B 0.9500
C40' H40B 0.9500
C41 C42 1.500(7)
C41 H41A 0.9900
C41 H41B 0.9900
C42 H42A 0.9800
C42 H42B 0.9800
C42 H42C 0.9800
C43 C44 1.523(6)
C43 H43A 0.9900
C43 H43B 0.9900
C44 H44A 0.9800
C44 H44B 0.9800
C44 H44C 0.9800
C45 C50 1.378(5)
C45 C46 1.391(6)
C46 C47 1.390(6)
C46 H46A 0.9500
C47 C48 1.374(7)
C47 H47A 0.9500
C48 C49 1.382(7)
C48 H48A 0.9500
C49 C50 1.387(6)
C49 H49A 0.9500
C50 H50A 0.9500
C51 C52 1.539(7)
C51 H51A 0.9900
C51 H51B 0.9900
C52 H52A 0.9800
C52 H52B 0.9800
C52 H52C 0.9800
C53 C54 1.524(6)
C53 H53A 0.9900
C53 H53B 0.9900
C54 H54A 0.9800
C54 H54B 0.9800
C54 H54C 0.9800
C55 C60 1.387(5)
C55 C56 1.391(5)
C56 C57 1.386(6)
C56 H56A 0.9500
C57 C58 1.372(7)
C57 H57A 0.9500
C58 C59 1.379(7)
C58 H58A 0.9500
C59 C60 1.407(6)
C59 H59A 0.9500
C60 H60A 0.9500
loop_
_platon_squeeze_void_nr
_platon_squeeze_void_average_x
_platon_squeeze_void_average_y
_platon_squeeze_void_average_z
_platon_squeeze_void_volume
_platon_squeeze_void_count_electrons
_platon_squeeze_void_content
1 0.000 0.001 -0.017 1428 259 ' '
2 0.431 0.067 0.042 12 2 ' '
3 0.569 0.567 0.457 12 2 ' '
4 0.431 0.433 0.542 12 2 ' '
5 0.569 0.933 0.957 12 2 ' '
