#------------------------------------------------------------------------------
#$Date: 2016-03-23 23:52:22 +0200 (Wed, 23 Mar 2016) $
#$Revision: 179516 $
#$URL: svn://www.crystallography.net/cod/cif/4/34/13/4341386.cif $
#------------------------------------------------------------------------------
#
# This file is available in the Crystallography Open Database (COD),
# http://www.crystallography.net/
#
# All data on this site have been placed in the public domain by the
# contributors.
#
data_4341386
loop_
_publ_author_name
'Hunter, Seth C.'
'Smith, Brenda A.'
'Hoffmann, Christina M.'
'Wang, Xiaoping'
'Chen, Yu-Sheng'
'McIntyre, Garry J.'
'Xue, Zi-Ling'
_publ_section_title
;
 Intermolecular interactions in solid-state metalloporphyrins and their
 impacts on crystal and molecular structures.
;
_journal_issue                   21
_journal_name_full               'Inorganic chemistry'
_journal_page_first              11552
_journal_page_last               11562
_journal_paper_doi               10.1021/ic5015835
_journal_volume                  53
_journal_year                    2014
_chemical_formula_moiety         'C44 H28 Fe N4 Cl'
_chemical_formula_sum            'C44 H28 Cl Fe N4'
_chemical_formula_weight         704.00
_chemical_name_common            Fe(TPP)Cl
_chemical_name_systematic
; 
Chloro(meso-tetraphenylporphyrinato)iron(Ill)
;
_space_group_IT_number           79
_symmetry_cell_setting           tetragonal
_symmetry_space_group_name_Hall  'I 4'
_symmetry_space_group_name_H-M   'I 4'
_atom_sites_solution_hydrogens   geom
_atom_sites_solution_primary     direct
_atom_sites_solution_secondary   difmap
_audit_creation_method           SHELXL-97
_cell_angle_alpha                90.00
_cell_angle_beta                 90.00
_cell_angle_gamma                90.00
_cell_formula_units_Z            2
_cell_length_a                   13.504(3)
_cell_length_b                   13.504(3)
_cell_length_c                   9.731(10)
_cell_measurement_reflns_used    4156
_cell_measurement_temperature    143(2)
_cell_measurement_theta_max      27.45
_cell_measurement_theta_min      2.55
_cell_volume                     1774.5(19)
_computing_cell_refinement       'Bruker SAINT'
_computing_data_collection       'Bruker APEX2'
_computing_data_reduction        'Bruker SAINT'
_computing_molecular_graphics    'Bruker SHELXTL'
_computing_publication_material  'Bruker SHELXTL'
_computing_structure_refinement  'SHELXL-97 (Sheldrick, 2008)'
_computing_structure_solution    'SHELXS-97 (Sheldrick, 2008)'
_diffrn_ambient_temperature      143(2)
_diffrn_measured_fraction_theta_full 0.990
_diffrn_measured_fraction_theta_max 0.942
_diffrn_measurement_device_type  'Bruker APEX-II CCD'
_diffrn_measurement_method       '\f and \w scans'
_diffrn_radiation_monochromator  graphite
_diffrn_radiation_source         'fine-focus sealed tube'
_diffrn_radiation_type           MoK\a
_diffrn_radiation_wavelength     0.71073
_diffrn_reflns_av_R_equivalents  0.0536
_diffrn_reflns_av_sigmaI/netI    0.0426
_diffrn_reflns_limit_h_max       16
_diffrn_reflns_limit_h_min       -17
_diffrn_reflns_limit_k_max       17
_diffrn_reflns_limit_k_min       -17
_diffrn_reflns_limit_l_max       12
_diffrn_reflns_limit_l_min       -12
_diffrn_reflns_number            7973
_diffrn_reflns_theta_full        26.00
_diffrn_reflns_theta_max         28.32
_diffrn_reflns_theta_min         2.13
_exptl_absorpt_coefficient_mu    0.538
_exptl_absorpt_correction_T_max  0.9482
_exptl_absorpt_correction_T_min  0.7749
_exptl_absorpt_correction_type   multi-scan
_exptl_absorpt_process_details   'SADABS (Sheldrick, 2003)'
_exptl_crystal_colour            purple
_exptl_crystal_density_diffrn    1.318
_exptl_crystal_density_method    'not measured'
_exptl_crystal_description       rectangular
_exptl_crystal_F_000             726
_exptl_crystal_size_max          0.50
_exptl_crystal_size_mid          0.20
_exptl_crystal_size_min          0.10
_refine_diff_density_max         0.427
_refine_diff_density_min         -0.316
_refine_diff_density_rms         0.091
_refine_ls_abs_structure_details 'Flack H D (1983), Acta Cryst. A39, 876-881'
_refine_ls_abs_structure_Flack   0.89(3)
_refine_ls_extinction_coef       0.011(2)
_refine_ls_extinction_expression Fc^*^=kFc[1+0.001xFc^2^\l^3^/sin(2\q)]^-1/4^
_refine_ls_extinction_method     SHELXL
_refine_ls_goodness_of_fit_ref   1.063
_refine_ls_hydrogen_treatment    noref
_refine_ls_matrix_type           full
_refine_ls_number_parameters     120
_refine_ls_number_reflns         2002
_refine_ls_number_restraints     1
_refine_ls_restrained_S_all      1.062
_refine_ls_R_factor_all          0.0543
_refine_ls_R_factor_gt           0.0481
_refine_ls_shift/su_max          0.000
_refine_ls_shift/su_mean         0.000
_refine_ls_structure_factor_coef Fsqd
_refine_ls_weighting_details
'calc w=1/[\s^2^(Fo^2^)+(0.1106P)^2^+0.0000P] where P=(Fo^2^+2Fc^2^)/3'
_refine_ls_weighting_scheme      calc
_refine_ls_wR_factor_gt          0.1396
_refine_ls_wR_factor_ref         0.1487
_reflns_number_gt                1772
_reflns_number_total             2002
_reflns_threshold_expression     >2sigma(I)
_cod_data_source_file            ic5015835_si_002.cif
_cod_data_source_block           143KI4
_cod_depositor_comments
;
The following automatic conversions were performed:

'_symmetry_cell_setting' value 'Tetragonal' changed to 'tetragonal'
according to
/home/saulius/struct/COD-crude-data--automatic-downloads/rss-feeds/ACS/lib/dictionaries/cif_core.dic
dictionary named 'cif_core.dic' version 2.4.2 from 2011-04-26.

Automatic conversion script
Id: cif_fix_values 2827 2014-09-09 07:05:25Z andrius 

 Adding full bibliography for 4341385--4341388.cif.
;
_cod_original_sg_symbol_H-M      'I 4 '
_cod_database_code               4341386
loop_
_symmetry_equiv_pos_as_xyz
'x, y, z'
'-x, -y, z'
'-y, x, z'
'y, -x, z'
'x+1/2, y+1/2, z+1/2'
'-x+1/2, -y+1/2, z+1/2'
'-y+1/2, x+1/2, z+1/2'
'y+1/2, -x+1/2, z+1/2'
loop_
_atom_site_label
_atom_site_type_symbol
_atom_site_fract_x
_atom_site_fract_y
_atom_site_fract_z
_atom_site_U_iso_or_equiv
_atom_site_adp_type
_atom_site_occupancy
_atom_site_symmetry_multiplicity
_atom_site_calc_flag
_atom_site_refinement_flags
_atom_site_disorder_group
Fe1 Fe 0.0000 0.0000 0.0401(2) 0.0238(3) Uani 0.3673(15) 4 d SP 1
Cl1 Cl 0.0000 0.0000 0.2636(3) 0.0315(3) Uani 0.3673(15) 4 d SP 1
Fe2 Fe 0.0000 0.0000 -0.04117(9) 0.0238(3) Uani 0.6327(15) 4 d SP 2
Cl2 Cl 0.0000 0.0000 -0.26725(19) 0.0315(3) Uani 0.6327(15) 4 d SP 2
N1 N 0.14452(11) 0.03720(11) 0.0005(2) 0.0283(4) Uani 1 1 d . .
C1 C 0.22472(13) -0.02642(13) 0.0010(3) 0.0282(4) Uani 1 1 d . .
C2 C 0.31542(13) 0.02976(14) 0.0007(3) 0.0332(4) Uani 1 1 d . .
H2 H 0.3807 0.0035 0.0000 0.040 Uiso 1 1 calc R .
C3 C 0.29054(13) 0.12645(14) 0.0015(4) 0.0327(5) Uani 1 1 d . .
H3 H 0.3350 0.1810 0.0027 0.039 Uiso 1 1 calc R .
C4 C 0.18409(13) 0.13176(13) 0.0001(3) 0.0279(4) Uani 1 1 d . .
C5 C 0.12934(13) 0.21990(13) 0.0005(3) 0.0285(4) Uani 1 1 d . .
C6 C 0.18619(13) 0.31548(13) -0.0002(3) 0.0292(4) Uani 1 1 d . .
C7 C 0.2086(3) 0.3629(3) 0.1217(4) 0.0464(8) Uani 1 1 d . .
H7 H 0.1865 0.3358 0.2064 0.056 Uiso 1 1 calc R .
C8 C 0.2633(3) 0.4498(2) 0.1212(3) 0.0506(9) Uani 1 1 d . .
H8 H 0.2798 0.4809 0.2057 0.061 Uiso 1 1 calc R .
C9 C 0.29392(14) 0.49140(14) -0.0003(4) 0.0378(5) Uani 1 1 d . .
H9A H 0.3318 0.5507 -0.0003 0.045 Uiso 1 1 calc R .
C10 C 0.2692(3) 0.4464(2) -0.1214(3) 0.0504(9) Uani 1 1 d . .
H10A H 0.2884 0.4757 -0.2061 0.060 Uiso 1 1 calc R .
C11 C 0.2159(3) 0.3577(2) -0.1217(3) 0.0459(8) Uani 1 1 d . .
H11A H 0.2002 0.3265 -0.2064 0.055 Uiso 1 1 calc R .
loop_
_atom_site_aniso_label
_atom_site_aniso_U_11
_atom_site_aniso_U_22
_atom_site_aniso_U_33
_atom_site_aniso_U_23
_atom_site_aniso_U_13
_atom_site_aniso_U_12
Fe1 0.0215(3) 0.0215(3) 0.0284(5) 0.000 0.000 0.000
Cl1 0.0338(4) 0.0338(4) 0.0270(7) 0.000 0.000 0.000
Fe2 0.0215(3) 0.0215(3) 0.0284(5) 0.000 0.000 0.000
Cl2 0.0338(4) 0.0338(4) 0.0270(7) 0.000 0.000 0.000
N1 0.0240(7) 0.0250(7) 0.0360(10) 0.0003(10) 0.0006(9) -0.0005(5)
C1 0.0244(8) 0.0305(9) 0.0298(10) -0.0012(11) 0.0001(10) 0.0003(6)
C2 0.0235(8) 0.0354(9) 0.0406(12) -0.0007(12) -0.0005(11) -0.0017(7)
C3 0.0248(8) 0.0329(9) 0.0403(12) 0.0006(13) 0.0007(13) -0.0035(7)
C4 0.0271(8) 0.0265(8) 0.0303(10) 0.0010(10) -0.0002(11) -0.0031(6)
C5 0.0300(8) 0.0249(8) 0.0305(11) 0.0013(10) -0.0008(11) -0.0026(6)
C6 0.0274(8) 0.0242(8) 0.0359(11) -0.0030(11) 0.0000(11) -0.0011(6)
C7 0.059(2) 0.0440(17) 0.036(2) 0.0005(11) -0.0020(12) -0.0174(14)
C8 0.061(2) 0.0424(18) 0.048(2) -0.0081(13) -0.0110(13) -0.0177(15)
C9 0.0296(9) 0.0253(8) 0.0585(15) 0.0049(13) 0.0013(13) -0.0022(6)
C10 0.062(2) 0.0410(16) 0.048(3) 0.0104(12) 0.0080(13) -0.0153(14)
C11 0.0655(19) 0.0422(16) 0.030(2) -0.0023(10) 0.0019(12) -0.0199(14)
loop_
_atom_type_symbol
_atom_type_description
_atom_type_scat_dispersion_real
_atom_type_scat_dispersion_imag
_atom_type_scat_source
C C 0.0033 0.0016 'International Tables Vol C Tables 4.2.6.8 and 6.1.1.4'
H H 0.0000 0.0000 'International Tables Vol C Tables 4.2.6.8 and 6.1.1.4'
N N 0.0061 0.0033 'International Tables Vol C Tables 4.2.6.8 and 6.1.1.4'
Cl Cl 0.1484 0.1585 'International Tables Vol C Tables 4.2.6.8 and 6.1.1.4'
Fe Fe 0.3463 0.8444 'International Tables Vol C Tables 4.2.6.8 and 6.1.1.4'
loop_
_geom_angle_atom_site_label_1
_geom_angle_atom_site_label_2
_geom_angle_atom_site_label_3
_geom_angle
_geom_angle_site_symmetry_1
_geom_angle_site_symmetry_3
N1 Fe1 N1 158.3(2) 2 .
N1 Fe1 N1 87.98(4) 2 4
N1 Fe1 N1 87.98(4) . 4
N1 Fe1 N1 87.98(4) 2 3
N1 Fe1 N1 87.98(4) . 3
N1 Fe1 N1 158.3(2) 4 3
Fe2 Fe1 Cl1 180.0 . .
N1 Fe1 Cl1 100.83(10) 2 .
N1 Fe1 Cl1 100.83(10) . .
N1 Fe1 Cl1 100.83(10) 4 .
N1 Fe1 Cl1 100.83(10) 3 .
N1 Fe2 N1 157.27(16) . 2
N1 Fe2 N1 87.77(3) . 3
N1 Fe2 N1 87.77(3) 2 3
N1 Fe2 N1 87.77(3) . 4
N1 Fe2 N1 87.77(3) 2 4
N1 Fe2 N1 157.27(16) 3 4
Fe1 Fe2 Cl2 180.0 . .
N1 Fe2 Cl2 101.37(8) . .
N1 Fe2 Cl2 101.37(8) 2 .
N1 Fe2 Cl2 101.37(8) 3 .
N1 Fe2 Cl2 101.37(8) 4 .
C1 N1 C4 105.72(14) . .
C1 N1 Fe1 126.32(12) . .
C4 N1 Fe1 126.41(12) . .
C1 N1 Fe2 126.34(12) . .
C4 N1 Fe2 126.26(12) . .
N1 C1 C5 125.75(15) . 4
N1 C1 C2 109.80(15) . .
C5 C1 C2 124.46(16) 4 .
C3 C2 C1 107.35(15) . .
C3 C2 H2 126.3 . .
C1 C2 H2 126.3 . .
C2 C3 C4 107.28(15) . .
C2 C3 H3 126.4 . .
C4 C3 H3 126.4 . .
N1 C4 C5 125.45(16) . .
N1 C4 C3 109.85(15) . .
C5 C4 C3 124.70(16) . .
C1 C5 C4 124.52(17) 3 .
C1 C5 C6 118.06(15) 3 .
C4 C5 C6 117.41(16) . .
C11 C6 C7 118.87(19) . .
C11 C6 C5 120.7(2) . .
C7 C6 C5 120.4(3) . .
C6 C7 C8 120.4(3) . .
C6 C7 H7 119.8 . .
C8 C7 H7 119.8 . .
C9 C8 C7 120.7(3) . .
C9 C8 H8 119.7 . .
C7 C8 H8 119.7 . .
C10 C9 C8 119.14(19) . .
C10 C9 H9A 120.4 . .
C8 C9 H9A 120.4 . .
C9 C10 C11 120.6(3) . .
C9 C10 H10A 119.7 . .
C11 C10 H10A 119.7 . .
C6 C11 C10 120.3(3) . .
C6 C11 H11A 119.8 . .
C10 C11 H11A 119.8 . .
loop_
_geom_bond_atom_site_label_1
_geom_bond_atom_site_label_2
_geom_bond_distance
_geom_bond_site_symmetry_2
Fe1 Fe2 0.791(2) .
Fe1 N1 2.0517(17) 2
Fe1 N1 2.0517(17) .
Fe1 N1 2.0517(17) 4
Fe1 N1 2.0517(17) 3
Fe1 Cl1 2.175(5) .
Fe2 N1 2.0555(16) .
Fe2 N1 2.0555(16) 2
Fe2 N1 2.0555(16) 3
Fe2 N1 2.0555(16) 4
Fe2 Cl2 2.200(3) .
N1 C1 1.382(2) .
N1 C4 1.384(2) .
C1 C5 1.391(3) 4
C1 C2 1.441(2) .
C2 C3 1.348(3) .
C2 H2 0.9500 .
C3 C4 1.439(2) .
C3 H3 0.9500 .
C4 C5 1.401(2) .
C5 C1 1.391(3) 3
C5 C6 1.502(2) .
C6 C11 1.373(4) .
C6 C7 1.382(5) .
C7 C8 1.387(4) .
C7 H7 0.9500 .
C8 C9 1.373(5) .
C8 H8 0.9500 .
C9 C10 1.368(5) .
C9 H9A 0.9500 .
C10 C11 1.397(4) .
C10 H10A 0.9500 .
C11 H11A 0.9500 .
