#------------------------------------------------------------------------------
#$Date: 2017-05-05 00:33:21 +0300 (Fri, 05 May 2017) $
#$Revision: 196112 $
#$URL: file:///home/coder/svn-repositories/cod/cif/4/34/56/4345635.cif $
#------------------------------------------------------------------------------
#
# This file is available in the Crystallography Open Database (COD),
# http://www.crystallography.net/
#
# All data on this site have been placed in the public domain by the
# contributors.
#
data_4345635
loop_
_publ_author_name
'Gallagher, Audrey T.'
'Malliakas, Christos D.'
'Harris, T. David'
_publ_section_title
;
 CO Binding at a Four-Coordinate Cobaltous Porphyrin Site in a
 Metal-Organic Framework: Structural, EPR, and Gas Adsorption Analysis.
;
_journal_issue                   8
_journal_name_full               'Inorganic chemistry'
_journal_page_first              4655
_journal_page_last               4662
_journal_paper_doi               10.1021/acs.inorgchem.7b00292
_journal_volume                  56
_journal_year                    2017
_chemical_formula_sum            'C150 H72 Co3 N12 O70 Zr12'
_chemical_formula_weight         4433.7
_chemical_name_systematic        ' ?'
_space_group_IT_number           229
_symmetry_cell_setting           cubic
_symmetry_Int_Tables_number      229
_symmetry_space_group_name_Hall  '-I 4 2 3'
_symmetry_space_group_name_H-M   'I m -3 m'
_cell_angle_alpha                90
_cell_angle_beta                 90
_cell_angle_gamma                90
_cell_formula_units_Z            4
_cell_length_a                   38.399(6)
_cell_length_b                   38.399(6)
_cell_length_c                   38.399(6)
_cell_measurement_reflns_used    4168
_cell_measurement_temperature    8
_cell_measurement_theta_max      20.93
_cell_measurement_theta_min      1.3
_cell_volume                     56619(15)
_computing_cell_refinement       'SAINT V8.34A (Bruker, 2013)'
_computing_data_collection       'APEX2 V2014.11-0 (Bruker, 2014)'
_computing_data_reduction        'Bruker SAINT'
_diffrn_ambient_temperature      8
_diffrn_detector_area_resol_mean 8
_diffrn_measured_fraction_theta_full 0.98
_diffrn_measured_fraction_theta_max 0.98
_diffrn_measurement_device_type  'Bruker Kappa APEX CCD area detector'
_diffrn_measurement_method       '\w and \f scans'
_diffrn_radiation_probe          x-ray
_diffrn_radiation_source         'X-ray tube'
_diffrn_radiation_type           'Mo K\a'
_diffrn_radiation_wavelength     0.71073
_diffrn_reflns_av_R_equivalents  0
_diffrn_reflns_av_unetI/netI     0.1007
_diffrn_reflns_limit_h_max       21
_diffrn_reflns_limit_h_min       0
_diffrn_reflns_limit_k_max       38
_diffrn_reflns_limit_k_min       2
_diffrn_reflns_limit_l_max       26
_diffrn_reflns_limit_l_min       0
_diffrn_reflns_number            2819
_diffrn_reflns_theta_full        20.78
_diffrn_reflns_theta_max         20.93
_diffrn_reflns_theta_min         1.3
_diffrn_source                   'sealed tube'
_exptl_absorpt_coefficient_mu    0.325
_exptl_absorpt_correction_T_max  0.7524
_exptl_absorpt_correction_T_min  0.6110
_exptl_absorpt_correction_type   integration
_exptl_absorpt_process_details   SADABS
_exptl_crystal_colour            red
_exptl_crystal_density_diffrn    0.5201
_exptl_crystal_description       cube
_exptl_crystal_F_000             8708
_exptl_crystal_size_max          0.278
_exptl_crystal_size_mid          0.246
_exptl_crystal_size_min          0.225
_refine_diff_density_max         1.25
_refine_diff_density_min         -0.94
_refine_ls_extinction_method     none
_refine_ls_goodness_of_fit_gt    2.05
_refine_ls_goodness_of_fit_ref   1.68
_refine_ls_hydrogen_treatment    constr
_refine_ls_number_constraints    33
_refine_ls_number_parameters     102
_refine_ls_number_reflns         2590
_refine_ls_number_restraints     1
_refine_ls_R_factor_all          0.1480
_refine_ls_R_factor_gt           0.1084
_refine_ls_shift/su_max          0.0375
_refine_ls_shift/su_mean         0.0083
_refine_ls_structure_factor_coef Fsqd
_refine_ls_weighting_details     w=1/(\s^2^(I)+0.0004I^2^)
_refine_ls_weighting_scheme      sigma
_refine_ls_wR_factor_gt          0.1653
_refine_ls_wR_factor_ref         0.1730
_reflns_number_gt                1613
_reflns_number_total             2590
_reflns_threshold_expression     I>2\s(I)
_cod_data_source_file            ic7b00292_si_002.cif
_cod_data_source_block           PCN224CoCO_8K
_cod_depositor_comments
;
The following automatic conversions were performed:

'_diffrn_radiation_probe' value 'X-ray' changed to 'x-ray' according
to
/home/data/users/saulius/crontab/automatic-downloads/rss-feeds/ACS/lib/dictionaries/cif_core.dic
dictionary named 'cif_core.dic' version 2.4.2 from 2011-04-26.

Automatic conversion script
Id: cif_fix_values 4973 2017-02-22 13:04:09Z antanas 

 Adding full bibliography for 4345635--4345637.cif.
;
_cod_original_cell_volume        56618(14)
_cod_original_sg_symbol_Hall     '-I 4;2;3'
_cod_database_code               4345635
loop_
_space_group_symop_id
_space_group_symop_operation_xyz
1 x,y,z
2 -x,-y,z
3 -x,y,-z
4 x,-y,-z
5 z,x,y
6 z,-x,-y
7 -z,-x,y
8 -z,x,-y
9 y,z,x
10 -y,z,-x
11 y,-z,-x
12 -y,-z,x
13 y,x,-z
14 -y,-x,-z
15 y,-x,z
16 -y,x,z
17 x,z,-y
18 -x,z,y
19 -x,-z,-y
20 x,-z,y
21 z,y,-x
22 z,-y,x
23 -z,y,x
24 -z,-y,-x
25 -x,-y,-z
26 x,y,-z
27 x,-y,z
28 -x,y,z
29 -z,-x,-y
30 -z,x,y
31 z,x,-y
32 z,-x,y
33 -y,-z,-x
34 y,-z,x
35 -y,z,x
36 y,z,-x
37 -y,-x,z
38 y,x,z
39 -y,x,-z
40 y,-x,-z
41 -x,-z,y
42 x,-z,-y
43 x,z,y
44 -x,z,-y
45 -z,-y,x
46 -z,y,-x
47 z,-y,-x
48 z,y,x
49 x+1/2,y+1/2,z+1/2
50 -x+1/2,-y+1/2,z+1/2
51 -x+1/2,y+1/2,-z+1/2
52 x+1/2,-y+1/2,-z+1/2
53 z+1/2,x+1/2,y+1/2
54 z+1/2,-x+1/2,-y+1/2
55 -z+1/2,-x+1/2,y+1/2
56 -z+1/2,x+1/2,-y+1/2
57 y+1/2,z+1/2,x+1/2
58 -y+1/2,z+1/2,-x+1/2
59 y+1/2,-z+1/2,-x+1/2
60 -y+1/2,-z+1/2,x+1/2
61 y+1/2,x+1/2,-z+1/2
62 -y+1/2,-x+1/2,-z+1/2
63 y+1/2,-x+1/2,z+1/2
64 -y+1/2,x+1/2,z+1/2
65 x+1/2,z+1/2,-y+1/2
66 -x+1/2,z+1/2,y+1/2
67 -x+1/2,-z+1/2,-y+1/2
68 x+1/2,-z+1/2,y+1/2
69 z+1/2,y+1/2,-x+1/2
70 z+1/2,-y+1/2,x+1/2
71 -z+1/2,y+1/2,x+1/2
72 -z+1/2,-y+1/2,-x+1/2
73 -x+1/2,-y+1/2,-z+1/2
74 x+1/2,y+1/2,-z+1/2
75 x+1/2,-y+1/2,z+1/2
76 -x+1/2,y+1/2,z+1/2
77 -z+1/2,-x+1/2,-y+1/2
78 -z+1/2,x+1/2,y+1/2
79 z+1/2,x+1/2,-y+1/2
80 z+1/2,-x+1/2,y+1/2
81 -y+1/2,-z+1/2,-x+1/2
82 y+1/2,-z+1/2,x+1/2
83 -y+1/2,z+1/2,x+1/2
84 y+1/2,z+1/2,-x+1/2
85 -y+1/2,-x+1/2,z+1/2
86 y+1/2,x+1/2,z+1/2
87 -y+1/2,x+1/2,-z+1/2
88 y+1/2,-x+1/2,-z+1/2
89 -x+1/2,-z+1/2,y+1/2
90 x+1/2,-z+1/2,-y+1/2
91 x+1/2,z+1/2,y+1/2
92 -x+1/2,z+1/2,-y+1/2
93 -z+1/2,-y+1/2,x+1/2
94 -z+1/2,y+1/2,-x+1/2
95 z+1/2,-y+1/2,-x+1/2
96 z+1/2,y+1/2,x+1/2
loop_
_atom_site_label
_atom_site_type_symbol
_atom_site_fract_x
_atom_site_fract_y
_atom_site_fract_z
_atom_site_adp_type
_atom_site_U_iso_or_equiv
_atom_site_site_symmetry_multiplicity
_atom_site_occupancy
_atom_site_calc_flag
Zr1 Zr 0.30060(5) 0.30060(5) 0.23530(6) Uani 0.0472(6) 48 0.5169(19) d
Zr2 Zr 0.21608(6) 0.27942(6) 0.21608(6) Uani 0.0472(6) 48 0.4831(19) d
Co1 Co 0.5 0.25 0 Uani 0.0816(13) 12 1 d
N1 N 0.5 0.2485(2) 0.05189(18) Uani 0.084(3) 48 1 d
C1 C 0.48267(18) 0.2471(3) 0.10930(19) Uani 0.131(5) 96 1 d
C2 C 0.47096(18) 0.2491(2) 0.07182(17) Uani 0.097(4) 96 1 d
C3 C 0.43695(16) 0.25 0.06305(16) Uani 0.099(6) 48 1 d
C4 C 0.4085(3) 0.25 0.0915(3) Uani 0.084(7) 48 1 d
C5 C 0.3910(2) 0.2199(3) 0.0964(2) Uani 0.102(5) 96 1 d
C6 C 0.36452(19) 0.2222(3) 0.1230(2) Uani 0.090(5) 96 1 d
C7 C 0.3594(3) 0.25 0.1406(3) Uani 0.110(8) 48 1 d
C8 C 0.3268(7) 0.25 0.1732(7) Uani 0.168(11) 48 1 d
C9 C 0.5 0.2991(10) 0 Uani 0.27(3) 24 1 d
O1 O 0.3320(3) 0.2817(5) 0.1912(4) Uani 0.219(10) 96 1 d
O2 O 0.3230(8) 0.2750(8) 0.1824(6) Uani 0.170(7) 96 0.494(11) d
O2' O 0.2980(5) 0.3413(3) 0.2458(3) Uani 0.170(7) 96 0.506(11) d
O3 O 0.24863(13) 0.31921(18) 0.24863(13) Uani 0.116(2) 48 1 d
O4 O 0.28241(12) 0.28241(12) 0.28241(12) Uani 0.0205(13) 16 1 d
O5 O 0.5 0.3299(9) 0 Uani 0.41(3) 24 1 d
H1c1 H 0.467856 0.246051 0.129408 Uiso 0.157 96 1 d
H1c5 H 0.39565 0.199061 0.083418 Uiso 0.1228 96 1 d
H1c6 H 0.350298 0.202157 0.1276 Uiso 0.1083 96 1 d
loop_
_atom_site_aniso_label
_atom_site_aniso_type_symbol
_atom_site_aniso_U_11
_atom_site_aniso_U_22
_atom_site_aniso_U_33
_atom_site_aniso_U_12
_atom_site_aniso_U_13
_atom_site_aniso_U_23
Zr1 Zr 0.0443(9) 0.0443(9) 0.0529(12) 0.0373(9) 0.0420(8) 0.0420(8)
Zr2 Zr 0.0443(9) 0.0443(9) 0.0529(12) 0.0373(9) 0.0420(8) 0.0420(8)
Co1 Co 0.01112(19) 0.222(4) 0.01112(19) 0 0 0
N1 N 0.0143(6) 0.227(9) 0.0095(4) 0 0 -0.002(5)
C1 C 0.044(5) 0.321(13) 0.028(5) 0.009(5) 0.002(4) 0.013(6)
C2 C 0.0129(17) 0.251(10) 0.027(4) -0.004(6) -0.006(3) 0.005(5)
C3 C 0.009(4) 0.280(16) 0.009(4) -0.013(6) 0.004(5) -0.013(6)
C4 C 0.037(6) 0.178(18) 0.037(6) -0.001(6) -0.028(7) -0.001(6)
C5 C 0.058(7) 0.191(13) 0.058(6) 0.022(7) 0.006(6) -0.010(7)
C6 C 0.053(6) 0.183(11) 0.035(6) 0.036(6) 0.026(5) 0.022(6)
C7 C 0.054(7) 0.22(2) 0.054(7) 0.025(3) 0.031(8) 0.025425
C8 C 0.199(18) 0.11(2) 0.199(18) 0.030(11) -0.09(2) 0.030(11)
C9 C 0.073(18) 0.68(8) 0.056(16) 0 0 0
O1 O 0.096(7) 0.28(2) 0.28(2) 0.043(7) 0.0210(15) 0.201(16)
O2 O 0.330(17) 0.113(7) 0.067(7) 0.072(11) 0.124(7) 0.051(3)
O2' O 0.330(17) 0.113(7) 0.067(7) 0.072(11) 0.124(7) 0.051(3)
O3 O 0.168(5) 0.0105(3) 0.168(5) 0.0119(4) -0.032(6) 0.011949
O4 O 0.021(2) 0.021(2) 0.021(2) 0 0 0
O5 O 0.40(4) 0.35(4) 0.48(5) 0 0 0
loop_
_atom_type_symbol
_atom_type_scat_dispersion_real
_atom_type_scat_dispersion_imag
_atom_type_scat_source
C 0.0033 0.0016 'International Tables Vol C tables 4.2.6.8 and 6.1.1.1'
H 0.0000 0.0000 'International Tables Vol C tables 4.2.6.8 and 6.1.1.1'
Co 0.3494 0.9721 'International Tables Vol C tables 4.2.6.8 and 6.1.1.1'
N 0.0061 0.0033 'International Tables Vol C tables 4.2.6.8 and 6.1.1.1'
O 0.0106 0.0060 'International Tables Vol C tables 4.2.6.8 and 6.1.1.1'
Zr -2.9673 0.5597 'International Tables Vol C tables 4.2.6.8 and 6.1.1.1'
loop_
_geom_angle_atom_site_label_1
_geom_angle_atom_site_label_2
_geom_angle_atom_site_label_3
_geom_angle_site_symmetry_1
_geom_angle_site_symmetry_3
_geom_angle
Zr2 Zr1 O2' 67_555 . 132.4(7)
Zr2 Zr1 O2' 67_555 38_555 132.4(7)
Zr2 Zr1 O4 67_555 . 93.3(2)
O2' Zr1 O2' . 38_555 93.4(9)
O2' Zr1 O4 . . 95.0(5)
O2' Zr1 O4 38_555 . 95.0(5)
Zr1 Zr2 Zr2 67_555 62_555 132.2(2)
Zr1 Zr2 Zr2 67_555 67_555 132.2(2)
Zr1 Zr2 O2 67_555 67_555 92.2(8)
Zr1 Zr2 O2 67_555 81_555 92.2(8)
Zr2 Zr2 Zr2 62_555 67_555 82.20(10)
Zr2 Zr2 O2 62_555 67_555 80.9(9)
Zr2 Zr2 O2 62_555 81_555 130.3(7)
Zr2 Zr2 O2 67_555 67_555 130.3(7)
Zr2 Zr2 O2 67_555 81_555 80.9(9)
O2 Zr2 O2 67_555 81_555 75.5(11)
N1 Co1 N1 . 3_655 176.7(4)
N1 Co1 N1 . 70_554 90.048(11)
N1 Co1 N1 . 72_555 90.048(11)
N1 Co1 C9 . . 91.7(3)
N1 Co1 C9 . 70_554 88.3(3)
N1 Co1 N1 3_655 70_554 90.048(11)
N1 Co1 N1 3_655 72_555 90.048(11)
N1 Co1 C9 3_655 . 91.7(3)
N1 Co1 C9 3_655 70_554 88.3(3)
N1 Co1 N1 70_554 72_555 176.7(4)
N1 Co1 C9 70_554 . 88.3(3)
N1 Co1 C9 70_554 70_554 91.7(3)
N1 Co1 C9 72_555 . 88.3(3)
N1 Co1 C9 72_555 70_554 91.7(3)
C9 Co1 C9 . 70_554 180.0(5)
Co1 N1 C2 . . 124.4(4)
Co1 N1 C2 . 28_655 124.4(4)
C2 N1 C2 . 28_655 111.0(6)
C1 C1 C2 28_655 . 107.3(6)
C1 C1 H1c1 28_655 . 126.33
C2 C1 H1c1 . . 126.33
N1 C2 C1 . . 107.0(6)
N1 C2 C3 . . 131.1(6)
C1 C2 C3 . . 121.9(6)
C2 C3 C2 . 72_555 119.0(6)
C2 C3 C4 . . 120.5(6)
C2 C3 C4 72_555 . 120.5(6)
C3 C4 C5 . . 116.8(6)
C3 C4 C5 . 72_555 116.8(6)
C5 C4 C5 . 72_555 126.4(9)
C4 C5 C6 . . 113.4(9)
C4 C5 H1c5 . . 123.28
C6 C5 H1c5 . . 123.28
C5 C6 C7 . . 122.2(9)
C5 C6 H1c6 . . 118.89
C7 C6 H1c6 . . 118.89
C6 C7 C6 . 72_555 122.2(10)
O1 C8 O1 . 72_555 152(2)
O1 C8 O2 . . 18.9(17)
O1 C8 O2 . 72_555 141(3)
O1 C8 O2 72_555 . 141(3)
O1 C8 O2 72_555 72_555 18.9(17)
O2 C8 O2 . 72_555 140(3)
Co1 C9 O5 . . 180.0(5)
C8 O1 O2 . . 38(4)
Zr2 O2 C8 67_555 . 119(3)
Zr2 O2 O1 67_555 . 87(3)
C8 O2 O1 . . 124(5)
Zr1 O4 Zr1 . 5_555 118.7(2)
Zr1 O4 Zr1 . 9_555 118.7(2)
Zr1 O4 Zr1 5_555 9_555 118.7(2)
loop_
_geom_bond_atom_site_label_1
_geom_bond_atom_site_label_2
_geom_bond_site_symmetry_2
_geom_bond_distance
Zr1 Zr2 67_555 1.068(3)
Zr1 O2' . 1.619(13)
Zr1 O2' 38_555 1.619(13)
Zr1 O4 . 2.061(5)
Zr2 Zr2 62_555 2.616(3)
Zr2 Zr2 67_555 2.616(3)
Zr2 O2 67_555 2.12(3)
Zr2 O2 81_555 2.12(3)
Co1 N1 . 1.993(7)
Co1 N1 3_655 1.993(7)
Co1 N1 70_554 1.993(7)
Co1 N1 72_555 1.993(7)
Co1 C9 . 1.89(4)
Co1 C9 70_554 1.89(4)
N1 C2 . 1.353(8)
N1 C2 28_655 1.353(8)
C1 C1 28_655 1.331(10)
C1 C2 . 1.509(10)
C1 H1c1 . 0.96
C2 C3 . 1.349(9)
C3 C4 . 1.545(12)
C4 C5 . 1.350(12)
C4 C5 72_555 1.350(12)
C5 C6 . 1.443(12)
C5 H1c5 . 0.96
C6 C7 . 1.280(11)
C6 H1c6 . 0.96
C8 O1 . 1.41(2)
C8 O1 72_555 1.41(2)
C8 O2 . 1.03(3)
C8 O2 72_555 1.03(3)
C9 O5 . 1.18(5)
O1 O2 . 0.55(3)
loop_
_geom_hbond_atom_site_label_D
_geom_hbond_atom_site_label_H
_geom_hbond_atom_site_label_A
_geom_hbond_site_symmetry_A
_geom_hbond_distance_DH
_geom_hbond_distance_HA
_geom_hbond_distance_DA
_geom_hbond_angle_DHA
C6 H1c6 O1 72_555 0.96 2.31 2.755(17) 107.60
C6 H1c6 O2 72_555 0.96 2.44 2.75(3) 98.60
loop_
_refln_index_h
_refln_index_k
_refln_index_l
_refln_F_squared_calc
_refln_F_squared_meas
_refln_F_squared_sigma
_refln_observed_status
2 2 4 1160350. 1188020. 15751. o
0 4 4 295116. 368642. 28161. o
4 4 4 1016760. 1230740. 93520. o
0 3 5 8229. 7461. 1638. o
3 4 5 41521. 42720. 401. o
0 0 6 615531. 815383. 151265. o
3 3 6 7853. 7870. 361. o
0 6 6 286. 61998. 18833. o
0 3 7 1545. 24. 434. <
2 3 7 1384. 1372. 265. o
0 5 7 62882. 63875. 2786. o
1 6 7 11140. 10325. 415. o
0 7 7 360420. 301903. 16362. o
2 7 7 387621. 354948. 18107. o
0 0 8 630718. 800389. 105941. o
1 1 8 183513. 160651. 5741. o
3 3 8 2149. 650. 482. <
0 4 8 126698. 135043. 47527. o
2 4 8 345909. 399352. 17967. o
3 5 8 36387. 33550. 689. o
2 6 8 166820. 147967. 4809. o
1 7 8 33230. 29868. 1321. o
0 8 8 48324. 29844. 14525. o
8 8 8 457851. 585562. 29119. o
0 1 9 106485. 110133. 2656. o
2 3 9 1828. 1444. 434. o
0 7 9 21558. 25102. 1792. o
2 7 9 22524. 30614. 1673. o
0 9 9 435352. 395477. 23865. o
2 9 9 322091. 320290. 13585. o
4 9 9 183888. 200771. 6042. o
0 0 10 411920. 321494. 29578. o
1 1 10 102918. 90783. 2258. o
0 2 10 697011. 636874. 22024. o
2 2 10 16837. 24380. 5793. o
1 3 10 82410. 88087. 2426. o
3 3 10 19191. 16727. 1285. o
0 4 10 328861. 398702. 16106. o
2 4 10 156709. 185584. 6411. o
4 4 10 107501. 114369. 10160. o
1 5 10 3362. 1901. 603. o
3 5 10 53855. 52588. 1218. o
5 5 10 84601. 78532. 1876. o
4 6 10 9159. 6811. 1183. o
1 7 10 18606. 19471. 1369. o
0 8 10 101348. 127437. 6050. o
2 8 10 33455. 31528. 2654. o
4 8 10 5039. 3658. 556. o
8 8 10 50898. 55668. 1594. o
1 9 10 6558. 3923. 679. o
9 9 10 43873. 34802. 2161. o
0 10 10 55828. 78003. 8398. o
2 10 10 187500. 254803. 26970. o
4 10 10 27608. 29844. 1311. o
6 10 10 133552. 143924. 4364. o
8 10 10 64259. 65752. 2348. o
10 10 10 246756. 244454. 19069. o
0 1 11 15196. 15716. 501. o
1 2 11 16347. 17906. 614. o
0 3 11 132055. 139303. 2294. o
1 4 11 16133. 15211. 442. o
0 5 11 62758. 66643. 2500. o
4 5 11 568. 96. 385. <
1 6 11 1732. 2479. 360. o
5 6 11 3863. 2214. 412. o
0 7 11 77726. 69820. 4845. o
2 7 11 53582. 48809. 2362. o
4 7 11 5771. 8039. 910. o
6 7 11 1166. 722. 674. <
1 8 11 9512. 8881. 437. o
5 8 11 6869. 4862. 535. o
7 8 11 12070. 10638. 537. o
0 9 11 13184. 10132. 972. o
2 9 11 5283. 4140. 676. o
4 9 11 2674. 3129. 625. o
6 9 11 6132. 6739. 431. o
8 9 11 3759. 2744. 555. o
1 10 11 17459. 17112. 820. o
5 10 11 50581. 49699. 1309. o
7 10 11 33036. 30758. 633. o
9 10 11 51974. 48087. 1060. o
0 11 11 100986. 92973. 2653. o
2 11 11 70086. 64212. 3925. o
4 11 11 50327. 58147. 1889. o
6 11 11 84869. 87028. 3306. o
8 11 11 49772. 56727. 1798. o
10 11 11 8. 48. 1107. <
0 0 12 23081. 21757. 1186. o
1 1 12 66663. 59350. 1344. o
0 2 12 470758. 548715. 15235. o
1 3 12 66530. 66739. 1297. o
3 3 12 14900. 14080. 1110. o
0 4 12 3412. 4428. 720. o
1 5 12 313. 433. 433. <
3 5 12 56966. 53358. 2143. o
5 5 12 146242. 135259. 4519. o
1 7 12 5098. 4765. 578. o
3 7 12 22179. 21468. 919. o
7 7 12 3335. 1083. 700. <
0 8 12 71. 818. 674. <
4 8 12 2630. 1588. 530. o
6 8 12 6418. 8929. 544. o
8 8 12 16744. 14946. 1162. o
1 9 12 25. 72. 554. <
3 9 12 32570. 26980. 1053. o
9 9 12 1751. 1035. 939. <
4 10 12 296. 722. 313. o
6 10 12 13535. 12948. 581. o
8 10 12 11218. 11240. 674. o
10 10 12 32052. 32924. 1173. o
1 11 12 9362. 8496. 629. o
3 11 12 4105. 2046. 724. o
5 11 12 62777. 57353. 1433. o
7 11 12 27382. 26378. 732. o
9 11 12 41713. 38364. 929. o
11 11 12 7372. 6378. 1013. o
0 12 12 573710. 684359. 59028. o
2 12 12 150575. 181710. 10454. o
4 12 12 199880. 218774. 8247. o
6 12 12 67040. 68448. 2831. o
8 12 12 85117. 78725. 3315. o
10 12 12 8936. 6811. 656. o
12 12 12 6482. 650. 1663. <
0 1 13 40143. 37569. 1486. o
1 2 13 36829. 34465. 706. o
0 3 13 6460. 4212. 966. o
2 3 13 12366. 7942. 998. o
1 4 13 16485. 20409. 892. o
3 4 13 7496. 5006. 727. o
0 5 13 222170. 228882. 8980. o
2 5 13 169083. 173286. 4214. o
4 5 13 88194. 88256. 2286. o
3 6 13 835. 529. 481. <
5 6 13 16473. 15187. 658. o
0 7 13 22123. 27461. 1663. o
2 7 13 39491. 43731. 1435. o
4 7 13 29698. 25560. 1536. o
6 7 13 2536. 794. 507. <
3 8 13 848. 1179. 361. o
5 8 13 12039. 10253. 539. o
7 8 13 1420. 72. 386. <
0 9 13 3579. 2455. 891. o
2 9 13 6401. 5343. 461. o
4 9 13 10430. 7702. 802. o
6 9 13 5523. 4164. 485. o
8 9 13 5948. 4428. 485. o
1 10 13 8493. 9651. 1177. o
3 10 13 1155. 746. 626. <
5 10 13 421. 48. 505. <
7 10 13 984. 1974. 408. o
9 10 13 415. 168. 385. <
0 11 13 59941. 68183. 7080. o
2 11 13 37856. 44332. 2790. o
4 11 13 3671. 4236. 432. o
6 11 13 5971. 5271. 507. o
8 11 13 31067. 35403. 1046. o
10 11 13 10910. 14489. 876. o
1 12 13 6210. 6185. 866. o
3 12 13 12218. 13478. 1151. o
5 12 13 20287. 22960. 848. o
7 12 13 35864. 37160. 1023. o
9 12 13 7636. 8737. 549. o
11 12 13 985. 337. 650. <
0 13 13 209918. 266836. 22869. o
2 13 13 149547. 199038. 16170. o
6 13 13 21. 1974. 721. o
8 13 13 41372. 37954. 1658. o
10 13 13 54613. 53887. 2267. o
12 13 13 12739. 16222. 2522. o
0 0 14 103788. 182408. 26979. o
1 1 14 25495. 24717. 1040. o
2 2 14 6423. 6546. 770. o
1 3 14 61064. 58195. 1194. o
3 3 14 17858. 16197. 1018. o
1 5 14 10. 72. 529. <
3 5 14 34244. 29868. 1186. o
5 5 14 74773. 70734. 2249. o
6 6 14 260. 1925. 528. o
1 7 14 6600. 5584. 533. o
3 7 14 19771. 17160. 904. o
5 7 14 57284. 47991. 1804. o
7 7 14 20794. 17690. 1622. o
4 8 14 5876. 10758. 1096. o
6 8 14 13603. 15860. 831. o
8 8 14 4045. 3851. 770. o
1 9 14 118. 0. 457. <
3 9 14 13311. 8616. 1000. o
5 9 14 184. 1420. 481. o
7 9 14 16055. 15138. 871. o
9 9 14 216. 144. 1372. <
0 10 14 21555. 23033. 1510. o
2 10 14 119151. 124381. 4535. o
4 10 14 589. 554. 505. <
6 10 14 16581. 16727. 962. o
8 10 14 2527. 3394. 504. o
10 10 14 835. 24. 578. <
1 11 14 2156. 1901. 843. o
3 11 14 2097. 3995. 454. o
5 11 14 3978. 2744. 699. o
7 11 14 3440. 3779. 625. o
9 11 14 10045. 9049. 654. o
11 11 14 328. 385. 554. <
0 12 14 398887. 458606. 34286. o
2 12 14 379694. 424118. 23525. o
4 12 14 205860. 238798. 10154. o
6 12 14 113462. 130061. 4228. o
8 12 14 24666. 25175. 959. o
10 12 14 1133. 4356. 670. o
1 13 14 6696. 5897. 868. o
3 13 14 6333. 6811. 865. o
5 13 14 13662. 13959. 865. o
7 13 14 42992. 44212. 1289. o
9 13 14 12012. 12034. 794. o
11 13 14 5786. 4284. 677. o
13 13 14 15. 505. 1155. <
2 14 14 733088. 661158. 50083. o
4 14 14 290381. 271578. 12554. o
6 14 14 193393. 187630. 7548. o
8 14 14 7970. 6859. 917. o
14 14 14 67261. 108328. 8495. o
0 1 15 50. 48. 770. <
1 2 15 24. 24. 529. <
0 3 15 210437. 200049. 7417. o
2 3 15 215876. 208425. 6300. o
1 4 15 36. 24. 602. <
3 4 15 169219. 164333. 4406. o
0 5 15 38912. 44645. 2962. o
2 5 15 34318. 37088. 1547. o
4 5 15 43169. 42142. 1165. o
1 6 15 47. 217. 674. <
3 6 15 83861. 83683. 2601. o
5 6 15 17720. 16101. 1018. o
0 7 15 137411. 155861. 4259. o
2 7 15 158876. 179399. 4184. o
4 7 15 138562. 143274. 3512. o
6 7 15 72997. 71240. 2445. o
1 8 15 2770. 2744. 939. o
3 8 15 28490. 26787. 976. o
5 8 15 218. 48. 554. <
7 8 15 20271. 16438. 1029. o
0 9 15 15193. 14729. 965. o
2 9 15 3582. 3562. 505. o
4 9 15 1673. 1083. 410. o
6 9 15 8100. 7966. 746. o
8 9 15 4344. 3682. 483. o
1 10 15 5394. 6089. 552. o
3 10 15 12533. 10830. 753. o
5 10 15 1250. 2527. 649. o
7 10 15 10006. 9651. 723. o
9 10 15 5575. 5271. 771. o
0 11 15 262143. 330254. 21864. o
8 11 15 2835. 1083. 747. <
10 11 15 19131. 18291. 895. o
1 12 15 6544. 6956. 673. o
3 12 15 5447. 3514. 605. o
5 12 15 6952. 7894. 719. o
7 12 15 1410. 2262. 673. o
9 12 15 683. 746. 433. <
11 12 15 14628. 13791. 798. o
0 13 15 363162. 387944. 27973. o
2 13 15 260225. 287703. 10836. o
4 13 15 79168. 98316. 3627. o
8 13 15 22395. 18941. 701. o
10 13 15 59599. 56583. 1688. o
12 13 15 38737. 38412. 1446. o
1 14 15 6508. 6306. 819. o
3 14 15 103. 0. 746. <
5 14 15 21359. 21276. 867. o
7 14 15 6303. 6185. 578. o
9 14 15 8261. 6402. 679. o
11 14 15 12. 24. 578. <
13 14 15 2642. 3369. 914. o
2 15 15 101971. 117498. 7277. o
4 15 15 22189. 35548. 3020. o
6 15 15 3596. 698. 724. <
10 15 15 117167. 112804. 4172. o
12 15 15 90765. 88207. 3795. o
14 15 15 21266. 22431. 2018. o
1 1 16 8537. 7244. 822. o
1 3 16 45185. 46162. 1242. o
3 3 16 29380. 29266. 2094. o
1 5 16 446. 433. 698. <
3 5 16 23246. 23033. 1445. o
5 5 16 27954. 29338. 1654. o
6 6 16 225010. 264478. 14086. o
1 7 16 3987. 3177. 603. o
3 7 16 7910. 6980. 1037. o
5 7 16 8538. 7557. 701. o
7 7 16 6. 0. 1035. <
2 8 16 1023. 72. 482. <
4 8 16 45391. 36823. 3779. o
6 8 16 49449. 55066. 3200. o
8 8 16 2005. 1131. 963. <
1 9 16 884. 481. 457. <
3 9 16 5881. 4067. 653. o
5 9 16 5310. 6835. 718. o
7 9 16 1207. 2166. 697. o
9 9 16 1464. 1588. 1251. <
0 10 16 219280. 240916. 10194. o
2 10 16 88728. 101806. 4327. o
4 10 16 80632. 91264. 3319. o
6 10 16 19. 72. 650. <
8 10 16 3986. 4284. 625. o
10 10 16 22770. 29651. 2434. o
1 11 16 1038. 770. 554. <
3 11 16 5593. 6811. 3297. o
5 11 16 1517. 1540. 674. o
7 11 16 290. 120. 481. <
9 11 16 8221. 7990. 627. o
11 11 16 2024. 1781. 1589. <
0 12 16 475467. 463179. 32250. o
2 12 16 140400. 133671. 5293. o
4 12 16 207635. 204092. 5881. o
6 12 16 4994. 2936. 677. o
8 12 16 652. 72. 481. <
1 13 16 7962. 7244. 1132. o
3 13 16 254. 217. 578. <
5 13 16 57. 48. 794. <
7 13 16 7827. 8616. 720. o
9 13 16 4975. 5872. 551. o
11 13 16 7664. 5897. 750. o
13 13 16 3192. 1949. 2166. <
0 14 16 209071. 183250. 13719. o
2 14 16 190718. 158436. 6579. o
4 14 16 187731. 175332. 7088. o
6 14 16 22606. 19735. 1074. o
8 14 16 886. 842. 481. <
14 14 16 117897. 154128. 8823. o
1 15 16 3173. 2671. 1180. o
3 15 16 567. 481. 1131. <
5 15 16 12340. 12443. 866. o
7 15 16 8478. 8761. 721. o
9 15 16 19830. 18989. 824. o
11 15 16 8071. 6980. 773. o
13 15 16 6152. 4284. 965. o
15 15 16 421. 337. 1324. <
4 16 16 542112. 519208. 23459. o
6 16 16 78085. 74032. 4447. o
8 16 16 22491. 23682. 1391. o
10 16 16 21937. 23731. 1654. o
14 16 16 67206. 83274. 3837. o
16 16 16 20175. 24236. 3989. o
0 1 17 89563. 82311. 3204. o
1 2 17 79248. 72058. 2231. o
0 3 17 21066. 21974. 2164. o
2 3 17 22825. 22311. 1590. o
1 4 17 45821. 42840. 1515. o
3 4 17 14218. 16005. 1125. o
0 5 17 389872. 450471. 18963. o
2 5 17 313718. 346981. 9038. o
4 5 17 250299. 284646. 7244. o
1 6 17 32479. 34344. 1384. o
3 6 17 2686. 2936. 866. o
5 6 17 160704. 180386. 5567. o
0 7 17 1174. 2359. 1420. <
2 7 17 1237. 2888. 793. o
4 7 17 1855. 3562. 865. o
6 7 17 4440. 6811. 1176. o
1 8 17 9203. 8785. 747. o
3 8 17 5935. 6739. 889. o
5 8 17 41111. 47196. 1616. o
7 8 17 589. 674. 1011. <
4 9 17 16. 722. 505. <
6 9 17 6987. 8135. 960. o
8 9 17 7018. 7678. 913. o
1 10 17 2808. 2359. 626. o
3 10 17 23099. 25488. 1068. o
5 10 17 8390. 10253. 837. o
7 10 17 5117. 4284. 771. o
9 10 17 11526. 13333. 640. o
6 11 17 906. 1011. 890. <
8 11 17 3445. 3514. 553. o
10 11 17 17339. 19615. 1412. o
1 12 17 1678. 1901. 674. o
3 12 17 14602. 17280. 755. o
5 12 17 14489. 19398. 1159. o
7 12 17 46. 0. 554. <
9 12 17 23092. 23562. 815. o
11 12 17 28938. 27774. 1139. o
0 13 17 123858. 147076. 11138. o
2 13 17 94372. 113382. 4847. o
6 13 17 104. 0. 818. <
8 13 17 20303. 19278. 896. o
10 13 17 54615. 48135. 1666. o
12 13 17 63249. 57738. 2562. o
1 14 17 1598. 2671. 745. o
3 14 17 9494. 9627. 722. o
5 14 17 13297. 18364. 1233. o
7 14 17 2. 72. 674. <
9 14 17 12090. 13358. 692. o
11 14 17 6950. 6643. 891. o
13 14 17 22703. 20217. 1645. o
2 15 17 266286. 274514. 10703. o
4 15 17 131284. 143178. 4794. o
6 15 17 18262. 19759. 1294. o
8 15 17 3958. 2623. 580. o
10 15 17 39905. 39038. 1570. o
12 15 17 47517. 46378. 2029. o
14 15 17 17606. 17593. 1396. o
1 16 17 712. 1685. 1348. <
3 16 17 8988. 8520. 1204. o
5 16 17 1932. 3538. 841. o
7 16 17 6505. 6739. 673. o
9 16 17 428. 650. 529. <
11 16 17 4694. 2912. 1085. o
13 16 17 464. 289. 1035. <
15 16 17 136. 385. 1131. <
4 17 17 13103. 19446. 1497. o
6 17 17 2578. 2142. 987. o
8 17 17 46343. 44573. 1841. o
10 17 17 122419. 113069. 5397. o
12 17 17 123313. 117762. 5998. o
14 17 17 71279. 67846. 3340. o
16 17 17 18425. 11047. 2202. o
0 0 18 102453. 119279. 9985. o
1 1 18 4694. 3755. 820. o
0 2 18 53450. 59350. 2564. o
2 2 18 33616. 25247. 2100. o
1 3 18 20590. 20193. 1229. o
3 3 18 14815. 17280. 1606. o
0 4 18 195282. 244044. 13843. o
4 4 18 449106. 529798. 25157. o
1 5 18 23. 24. 770. <
3 5 18 8233. 9218. 1129. o
5 5 18 6202. 7918. 1369. o
0 6 18 1090. 2936. 1395. o
2 6 18 19777. 16703. 1359. o
4 6 18 43093. 48857. 2303. o
6 6 18 2383. 5175. 1442. o
1 7 18 42. 193. 842. <
3 7 18 1578. 1661. 698. o
5 7 18 6813. 6450. 1926. o
7 7 18 63118. 65151. 5722. o
0 8 18 3238. 3971. 1131. o
2 8 18 4028. 4477. 818. o
4 8 18 50526. 57738. 2656. o
6 8 18 21613. 18821. 2605. o
8 8 18 116497. 115933. 9677. o
1 9 18 283. 265. 794. <
3 9 18 1052. 794. 530. <
5 9 18 27735. 24140. 1747. o
7 9 18 23814. 19928. 1507. o
9 9 18 3017. 2671. 1492. <
0 10 18 112736. 119423. 5934. o
2 10 18 185599. 194514. 6476. o
4 10 18 0. 626. 529. <
6 10 18 10206. 11504. 1128. o
8 10 18 62200. 76174. 2720. o
10 10 18 44461. 54730. 3498. o
1 11 18 173. 241. 554. <
3 11 18 5834. 5367. 771. o
5 11 18 1789. 650. 939. <
7 11 18 2264. 3081. 793. o
9 11 18 11798. 11480. 699. o
11 11 18 21620. 18315. 1886. o
0 12 18 91014. 83707. 2687. o
2 12 18 76394. 76799. 2162. o
4 12 18 2. 722. 770. <
6 12 18 1632. 866. 891. <
8 12 18 60900. 70012. 2090. o
10 12 18 113752. 123394. 3991. o
12 12 18 178992. 186643. 10723. o
1 13 18 6641. 5319. 797. o
3 13 18 2703. 2671. 770. o
5 13 18 1007. 650. 891. <
7 13 18 1456. 1372. 698. <
9 13 18 7838. 7870. 746. o
11 13 18 24592. 21107. 1411. o
13 13 18 19640. 17593. 2988. o
0 14 18 218782. 219905. 18721. o
2 14 18 365619. 377788. 12782. o
4 14 18 73019. 68376. 3467. o
6 14 18 77701. 84068. 2913. o
8 14 18 11908. 12539. 864. o
10 14 18 33504. 39639. 1672. o
12 14 18 108387. 114032. 6231. o
14 14 18 62081. 72997. 4091. o
1 15 18 491. 987. 818. <
3 15 18 7503. 7870. 986. o
5 15 18 368. 1083. 963. <
7 15 18 211. 578. 722. <
9 15 18 12977. 13020. 770. o
11 15 18 13247. 13117. 1396. o
13 15 18 20749. 17208. 1480. o
15 15 18 13373. 11071. 2386. o
0 16 18 150693. 144622. 13447. o
2 16 18 131956. 133767. 6368. o
4 16 18 60568. 63442. 2144. o
8 16 18 15734. 13213. 1187. o
10 16 18 60558. 60193. 3251. o
12 16 18 103775. 107510. 4429. o
14 16 18 87606. 88616. 3555. o
16 16 18 89436. 71168. 4749. o
3 17 18 3050. 2984. 1107. o
5 17 18 1421. 1035. 843. <
7 17 18 7896. 9627. 983. o
9 17 18 8397. 9579. 1273. o
11 17 18 19632. 16558. 1430. o
13 17 18 14818. 13550. 1664. o
15 17 18 14325. 13959. 1277. o
17 17 18 124. 890. 1396. <
4 18 18 96478. 111914. 7814. o
6 18 18 149466. 179423. 7302. o
8 18 18 6756. 12443. 2786. o
10 18 18 4979. 4236. 2407. <
12 18 18 2232. 1396. 1613. <
14 18 18 469. 481. 1661. <
0 1 19 31. 168. 939. <
1 2 19 32. 24. 626. <
0 3 19 203591. 192636. 7037. o
2 3 19 189995. 194995. 4857. o
1 4 19 754. 1324. 842. <
3 4 19 104689. 112588. 2955. o
0 5 19 13967. 12082. 1833. o
2 5 19 6173. 4934. 1037. o
4 5 19 252. 193. 794. <
1 6 19 1998. 1131. 1228. <
3 6 19 24021. 27678. 1450. o
5 6 19 10847. 12082. 1104. o
0 7 19 50319. 47606. 5109. o
2 7 19 40360. 48857. 1846. o
6 7 19 3418. 7822. 1463. o
1 8 19 4401. 4308. 818. o
3 8 19 5220. 7076. 814. o
5 8 19 23666. 25415. 1774. o
7 8 19 5918. 11769. 2955. o
4 9 19 19669. 21757. 1895. o
6 9 19 13845. 8448. 1670. o
8 9 19 102. 890. 1203. <
1 10 19 5840. 7365. 718. o
3 10 19 168. 529. 578. <
5 10 19 33127. 40939. 2178. o
7 10 19 5055. 8279. 1150. o
9 10 19 2092. 3634. 696. o
0 11 19 44. 5487. 1223. o
2 11 19 125. 2912. 623. o
4 11 19 783. 265. 481. <
6 11 19 3457. 5632. 1683. o
8 11 19 25233. 33935. 1617. o
10 11 19 45323. 49362. 2288. o
1 12 19 7244. 8568. 621. o
3 12 19 25. 0. 770. <
5 12 19 22039. 24453. 1530. o
7 12 19 8739. 13261. 1167. o
9 12 19 3233. 3153. 722. o
11 12 19 47327. 42720. 2025. o
4 13 19 50226. 59302. 2152. o
6 13 19 9809. 9049. 1397. o
8 13 19 3124. 6643. 1030. o
10 13 19 18280. 18436. 1468. o
12 13 19 29763. 29290. 1855. o
1 14 19 2452. 2118. 843. o
3 14 19 1363. 3394. 744. o
5 14 19 2954. 2070. 963. o
7 14 19 23496. 26306. 1309. o
9 14 19 6426. 7966. 1803. o
11 14 19 24871. 21853. 1767. o
13 14 19 16759. 17016. 1588. o
0 15 19 39818. 48568. 3556. o
2 15 19 36885. 45223. 1900. o
4 15 19 13759. 12539. 1543. o
6 15 19 218. 794. 794. <
8 15 19 28995. 30108. 1220. o
10 15 19 61565. 62431. 5701. o
12 15 19 75906. 71023. 3016. o
14 15 19 53002. 48977. 2524. o
1 16 19 177. 96. 818. <
3 16 19 6942. 9314. 1223. o
5 16 19 3. 96. 1396. <
7 16 19 21991. 24693. 1213. o
9 16 19 3013. 3105. 1035. o
11 16 19 4648. 5006. 1468. o
13 16 19 409. 1829. 1251. <
15 16 19 15461. 12587. 1523. o
2 17 19 110179. 130350. 6028. o
4 17 19 64196. 72178. 2910. o
6 17 19 22051. 23394. 1438. o
8 17 19 588. 866. 1035. <
10 17 19 3945. 2238. 1517. <
12 17 19 9314. 5872. 1857. o
14 17 19 5383. 3923. 1493. o
16 17 19 478. 72. 1252. <
3 18 19 3966. 4741. 1780. o
5 18 19 314. 433. 963. <
7 18 19 3111. 2768. 1155. o
9 18 19 3300. 2840. 1396. o
11 18 19 1712. 2022. 1131. <
13 18 19 7717. 5367. 1255. o
15 18 19 6. 529. 1251. <
2 19 19 141. 7196. 3246. o
4 19 19 1140. 24. 1540. <
6 19 19 4564. 3899. 1757. o
8 19 19 11710. 8303. 1762. o
10 19 19 16167. 13935. 3613. o
12 19 19 30251. 23995. 2520. o
14 19 19 26122. 26426. 2598. o
16 19 19 15484. 14633. 2336. o
18 19 19 6858. 2840. 1711. <
0 0 20 32876. 52395. 6219. o
1 1 20 3844. 2022. 964. o
2 2 20 65168. 56366. 3102. o
1 3 20 5728. 5319. 867. o
3 3 20 47. 602. 1083. <
4 4 20 3769. 14248. 3095. o
1 5 20 1590. 2118. 842. o
3 5 20 4750. 6522. 960. o
5 5 20 24351. 24428. 1877. o
0 6 20 12049. 11336. 1782. o
2 6 20 48792. 42383. 1965. o
6 6 20 91359. 97907. 5554. o
1 7 20 1919. 1564. 963. <
3 7 20 23388. 24068. 1586. o
5 7 20 50815. 48977. 2225. o
7 7 20 91038. 87437. 4855. o
0 8 20 30443. 54489. 4727. o
6 8 20 43797. 42648. 1669. o
8 8 20 16551. 12298. 2942. o
1 9 20 4137. 3033. 675. o
3 9 20 21666. 20024. 1044. o
5 9 20 76108. 77907. 2730. o
7 9 20 46105. 43971. 2513. o
9 9 20 16764. 25897. 2213. o
0 10 20 25. 963. 842. <
2 10 20 6619. 4838. 821. o
4 10 20 9838. 8809. 845. o
6 10 20 103318. 111505. 3740. o
8 10 20 92473. 100482. 3967. o
10 10 20 189344. 176824. 9977. o
1 11 20 794. 626. 602. <
3 11 20 20142. 18676. 875. o
5 11 20 15525. 13261. 1378. o
7 11 20 5229. 8400. 1101. o
9 11 20 3385. 2166. 771. o
11 11 20 19747. 17088. 3013. o
0 12 20 171632. 184189. 7696. o
2 12 20 50246. 51119. 2088. o
4 12 20 49490. 50325. 2667. o
8 12 20 6362. 6041. 1059. o
10 12 20 106602. 96896. 3728. o
12 12 20 67434. 58460. 3794. o
1 13 20 6754. 6522. 699. o
3 13 20 3555. 2479. 699. o
5 13 20 1157. 1348. 1035. <
7 13 20 4587. 4741. 1035. o
9 13 20 10004. 7822. 1279. o
11 13 20 35175. 34104. 1763. o
13 13 20 33514. 38845. 2724. o
0 14 20 38756. 42383. 1832. o
2 14 20 28930. 30036. 1244. o
4 14 20 14071. 13382. 1013. o
6 14 20 10445. 12491. 1753. o
8 14 20 25516. 24766. 1808. o
10 14 20 108816. 98099. 4257. o
12 14 20 106015. 91818. 3710. o
14 14 20 136848. 114754. 6088. o
1 15 20 1. 48. 770. <
3 15 20 5320. 4452. 1325. o
5 15 20 559. 1227. 1131. <
7 15 20 2255. 3008. 1179. o
9 15 20 13914. 13550. 1301. o
11 15 20 22386. 22696. 1997. o
13 15 20 29940. 31288. 1847. o
15 15 20 21240. 21564. 2454. o
0 16 20 166553. 205609. 11353. o
2 16 20 77591. 94609. 4508. o
4 16 20 113135. 137474. 5183. o
6 16 20 2859. 7918. 1148. o
8 16 20 6080. 9314. 1318. o
10 16 20 8521. 5319. 1328. o
12 16 20 4913. 4862. 1468. o
16 16 20 295. 1300. 2383. <
1 17 20 805. 1227. 1155. <
3 17 20 652. 1781. 1155. <
5 17 20 2141. 794. 939. <
7 17 20 4723. 5295. 1082. o
9 17 20 5366. 5752. 1347. o
11 17 20 20419. 15066. 1627. o
13 17 20 16229. 16077. 1781. o
15 17 20 18995. 15235. 1503. o
17 17 20 2169. 1877. 1901. <
4 18 20 2230. 6209. 1102. o
6 18 20 2. 939. 1035. <
8 18 20 360. 48. 1348. <
10 18 20 3696. 5824. 1611. o
12 18 20 5639. 9410. 2066. o
14 18 20 18466. 16029. 1643. o
18 18 20 10150. 1805. 1955. <
3 19 20 845. 289. 1420. <
5 19 20 1306. 2768. 1419. <
7 19 20 1. 0. 1540. <
9 19 20 8137. 9001. 1659. o
11 19 20 9028. 10493. 2068. o
13 19 20 13260. 15596. 2499. o
15 19 20 2691. 5439. 1442. o
17 19 20 7266. 9964. 1657. o
19 19 20 1205. 987. 1974. <
2 20 20 97651. 126234. 11548. o
4 20 20 97345. 113286. 6403. o
6 20 20 25607. 30854. 4901. o
8 20 20 67584. 63827. 4611. o
10 20 20 21493. 15668. 3690. o
12 20 20 20550. 9410. 2614. o
14 20 20 206. 24. 3538. <
16 20 20 2018. 7413. 2138. o
18 20 20 14984. 9988. 2125. o
20 20 20 8700. 13382. 3606. o
0 1 21 18455. 16655. 1234. o
1 2 21 13375. 12467. 726. o
0 3 21 4118. 554. 1109. <
2 3 21 2193. 409. 819. <
1 4 21 2179. 1588. 843. <
3 4 21 2785. 2840. 890. o
0 5 21 39114. 39182. 2406. o
2 5 21 18385. 14994. 1144. o
4 5 21 312. 1227. 962. <
1 6 21 7. 24. 963. <
3 6 21 27218. 29314. 1554. o
5 6 21 12507. 10205. 1329. o
0 7 21 242. 7172. 1559. o
4 7 21 24080. 30205. 1436. o
6 7 21 46894. 50446. 2993. o
1 8 21 805. 1540. 770. <
3 8 21 35029. 40554. 1749. o
5 8 21 18118. 19037. 1561. o
7 8 21 29872. 35572. 2142. o
2 9 21 22220. 19735. 835. o
4 9 21 3379. 6594. 1224. o
6 9 21 6. 2094. 1179. <
8 9 21 4183. 8351. 2669. o
1 10 21 564. 1685. 673. o
3 10 21 26774. 31673. 1808. o
5 10 21 7918. 10469. 1440. o
7 10 21 10554. 12852. 1391. o
9 10 21 21394. 24501. 1843. o
4 11 21 11911. 10951. 1230. o
6 11 21 9435. 4501. 1162. o
8 11 21 3. 433. 1468. <
10 11 21 12805. 17786. 1623. o
1 12 21 1115. 1588. 818. <
3 12 21 22761. 26065. 1356. o
5 12 21 3406. 2503. 1204. o
7 12 21 6819. 5319. 1205. o
9 12 21 12759. 13069. 1829. o
11 12 21 12223. 13550. 1417. o
0 13 21 2347. 674. 1059. <
2 13 21 1822. 746. 747. <
4 13 21 2863. 698. 1156. <
6 13 21 7730. 9675. 1368. o
8 13 21 26357. 34874. 1764. o
10 13 21 54474. 57281. 2510. o
12 13 21 52349. 57136. 2328. o
1 14 21 11. 24. 890. <
3 14 21 6684. 5126. 1229. o
5 14 21 411. 1107. 1300. <
7 14 21 103. 0. 963. <
9 14 21 13943. 17353. 1724. o
11 14 21 5951. 6450. 1347. o
13 14 21 38017. 34946. 1845. o
4 15 21 9711. 14031. 2618. o
6 15 21 1812. 2238. 1059. o
8 15 21 570. 217. 1059. <
10 15 21 4933. 4693. 2407. <
12 15 21 4339. 5415. 1563. o
14 15 21 4220. 3057. 1325. o
1 16 21 2119. 2888. 1058. o
3 16 21 1387. 1781. 1131. <
5 16 21 14795. 15500. 1418. o
7 16 21 6308. 7870. 1177. o
9 16 21 24198. 23249. 1880. o
11 16 21 5176. 5511. 1540. o
13 16 21 16513. 14633. 1713. o
15 16 21 1127. 217. 1420. <
0 17 21 311. 529. 2046. <
2 17 21 772. 385. 1227. <
4 17 21 1106. 890. 1252. <
6 17 21 1588. 963. 1035. <
8 17 21 2996. 2551. 1420. <
10 17 21 7666. 6570. 1494. o
12 17 21 7000. 8857. 1682. o
14 17 21 8822. 9266. 1588. o
16 17 21 8005. 7148. 1541. o
1 18 21 2646. 1059. 2190. <
3 18 21 6691. 7196. 1443. o
5 18 21 21668. 18700. 1503. o
7 18 21 6485. 5897. 1541. o
9 18 21 11726. 11432. 1541. o
11 18 21 1675. 2431. 2816. <
13 18 21 3240. 2166. 1493. <
15 18 21 867. 1444. 1564. <
17 18 21 2934. 3321. 1420. o
4 19 21 30999. 40024. 2492. o
6 19 21 23970. 28857. 2319. o
8 19 21 22192. 25945. 2034. o
10 19 21 14382. 15836. 1729. o
12 19 21 2335. 1637. 1516. <
14 19 21 274. 313. 1661. <
16 19 21 2433. 2984. 1612. <
18 19 21 4405. 6763. 1345. o
1 20 21 1217. 1396. 2912. <
3 20 21 1217. 963. 1252. <
5 20 21 5234. 3177. 2215. <
7 20 21 23. 0. 2142. <
9 20 21 538. 217. 1588. <
11 20 21 1874. 3105. 1636. <
13 20 21 178. 3658. 1611. o
15 20 21 5040. 8712. 1608. o
17 20 21 42. 529. 1564. <
19 20 21 2008. 6137. 1706. o
2 21 21 11657. 3008. 2845. <
4 21 21 10532. 8664. 3034. o
6 21 21 4640. 3249. 3177. <
8 21 21 18. 24. 3105. <
10 21 21 439. 457. 3297. <
12 21 21 974. 2960. 3393. <
14 21 21 13161. 9723. 3829. o
16 21 21 23173. 19134. 3304. o
18 21 21 29567. 40794. 4016. o
20 21 21 24306. 39350. 4421. o
0 0 22 22. 24. 2166. <
1 1 22 4413. 2310. 988. o
0 2 22 1465. 24. 939. <
2 2 22 16266. 24477. 1705. o
1 3 22 71. 24. 794. <
3 3 22 20224. 21516. 1777. o
0 4 22 633. 337. 1396. <
2 4 22 376. 96. 915. <
4 4 22 2328. 96. 1974. <
1 5 22 6964. 9483. 957. o
3 5 22 42252. 46932. 1847. o
5 5 22 105054. 114489. 4340. o
6 6 22 1351. 9122. 2377. o
1 7 22 4560. 4212. 1107. o
3 7 22 52492. 51721. 2003. o
5 7 22 85717. 96246. 3143. o
7 7 22 69224. 87221. 4364. o
0 8 22 24458. 17762. 2829. o
2 8 22 17762. 13502. 1336. o
4 8 22 25967. 22792. 1625. o
6 8 22 39094. 40217. 1847. o
8 8 22 118215. 128857. 11522. o
1 9 22 6937. 5054. 750. o
3 9 22 38429. 33791. 2043. o
5 9 22 85445. 92997. 2972. o
7 9 22 26514. 32443. 1754. o
9 9 22 6188. 11191. 2908. o
4 10 22 513. 96. 1131. <
6 10 22 1652. 626. 1926. <
8 10 22 61276. 66523. 4335. o
10 10 22 27508. 15331. 2743. o
1 11 22 2696. 2671. 915. o
3 11 22 40846. 37786. 2157. o
5 11 22 42338. 39639. 2084. o
9 11 22 47. 457. 1637. <
11 11 22 238. 1637. 1757. <
0 12 22 16. 2190. 1492. <
2 12 22 882. 48. 1107. <
4 12 22 10940. 9820. 1158. o
6 12 22 18356. 24621. 1638. o
8 12 22 75553. 63755. 2984. o
1 13 22 4765. 6113. 961. o
3 13 22 4811. 4717. 1035. o
5 13 22 3204. 5872. 1297. o
7 13 22 3526. 2166. 1228. <
9 13 22 7998. 6763. 1326. o
11 13 22 11076. 14729. 1556. o
13 13 22 16056. 19254. 2521. o
0 14 22 7326. 6956. 2070. o
2 14 22 24844. 25295. 1900. o
4 14 22 1331. 361. 1324. <
6 14 22 3100. 2623. 1252. o
8 14 22 9484. 6667. 1136. o
10 14 22 3438. 265. 1349. <
14 14 22 361. 1227. 1853. <
1 15 22 264. 409. 794. <
3 15 22 75. 241. 1083. <
5 15 22 7618. 5415. 2096. o
7 15 22 13708. 9531. 1213. o
9 15 22 26444. 21276. 1990. o
11 15 22 18285. 17040. 1736. o
13 15 22 21035. 17064. 1672. o
15 15 22 12173. 12034. 2142. o
0 16 22 426. 48. 1853. <
2 16 22 618. 746. 1083. <
4 16 22 339. 24. 1227. <
6 16 22 2251. 1974. 1107. <
8 16 22 6568. 6185. 1878. o
10 16 22 2385. 1757. 1420. <
12 16 22 12974. 9675. 2243. o
14 16 22 1640. 96. 1709. <
16 16 22 4253. 2671. 1950. <
1 17 22 45. 217. 1227. <
3 17 22 3966. 5704. 1298. o
5 17 22 406. 578. 1131. <
7 17 22 10145. 8496. 1879. o
9 17 22 9420. 8712. 1686. o
11 17 22 13956. 12226. 1736. o
13 17 22 9279. 7365. 1639. o
15 17 22 8798. 9073. 1540. o
17 17 22 1308. 2022. 1949. <
4 18 22 5749. 14922. 1886. o
6 18 22 20021. 22166. 1895. o
8 18 22 2226. 1540. 1468. <
10 18 22 12246. 6378. 1549. o
12 18 22 6. 0. 1444. <
14 18 22 1962. 2455. 1516. <
16 18 22 7287. 5199. 1807. o
18 18 22 3590. 2479. 2046. <
1 19 22 426. 890. 2046. <
3 19 22 23. 481. 1637. <
5 19 22 2329. 3369. 3369. <
7 19 22 19. 217. 1444. <
9 19 22 4923. 7052. 1610. o
11 19 22 3860. 7124. 1561. o
13 19 22 5923. 4982. 1661. o
15 19 22 610. 1468. 1636. <
17 19 22 4888. 4573. 1565. o
19 19 22 12. 3634. 2069. <
0 20 22 2632. 144. 3105. <
2 20 22 4928. 1420. 2047. <
4 20 22 7154. 4838. 2601. <
6 20 22 4741. 9194. 2379. o
8 20 22 43. 1949. 2214. <
10 20 22 571. 241. 1516. <
12 20 22 217. 818. 1588. <
14 20 22 1545. 361. 2262. <
16 20 22 8433. 5800. 1808. o
18 20 22 35647. 39784. 2462. o
20 20 22 56332. 69050. 5083. o
1 21 22 160. 168. 3369. <
3 21 22 520. 794. 2335. <
5 21 22 25. 0. 2070. <
7 21 22 1365. 3442. 2406. <
9 21 22 338. 2503. 2262. <
11 21 22 4256. 14128. 2492. o
13 21 22 1134. 6859. 1873. o
15 21 22 2781. 6883. 1898. o
17 21 22 34. 24. 1637. <
19 21 22 63. 6980. 1655. o
2 22 22 20514. 22503. 4787. o
4 22 22 12607. 12828. 4188. o
6 22 22 40134. 32250. 5333. o
8 22 22 47185. 27028. 5640. o
10 22 22 96829. 89555. 8013. o
12 22 22 49356. 63851. 6027. o
14 22 22 48824. 65656. 5923. o
16 22 22 3421. 4332. 3369. <
18 22 22 1367. 5608. 2983. <
20 22 22 32868. 44380. 4884. o
0 1 23 219. 602. 1059. <
1 2 23 1051. 1131. 818. <
0 3 23 857. 0. 1203. <
2 3 23 204. 866. 866. <
1 4 23 5069. 6041. 985. o
3 4 23 12988. 14104. 1248. o
0 5 23 2631. 5608. 1972. o
4 5 23 44656. 54056. 2007. o
1 6 23 6209. 3971. 1062. o
3 6 23 28743. 32491. 1569. o
5 6 23 58440. 65560. 2258. o
0 7 23 21204. 22094. 2260. o
2 7 23 5479. 7581. 1514. o
4 7 23 2377. 1974. 1180. <
6 7 23 4727. 6282. 1418. o
1 8 23 9968. 9434. 1253. o
3 8 23 44835. 51071. 2250. o
5 8 23 83626. 90301. 4174. o
7 8 23 12925. 15524. 2017. o
0 9 23 407. 4380. 1056. o
2 9 23 4460. 9314. 1485. o
4 9 23 18117. 25824. 1705. o
6 9 23 11960. 16486. 1286. o
8 9 23 9251. 11023. 1875. o
1 10 23 9496. 10878. 1393. o
3 10 23 39270. 40963. 1988. o
5 10 23 72446. 79904. 3177. o
7 10 23 12550. 14104. 1464. o
9 10 23 3762. 4573. 1516. o
0 11 23 13001. 5175. 1862. o
2 11 23 9381. 4236. 1210. o
4 11 23 3076. 3225. 1372. o
6 11 23 5336. 5560. 1420. o
8 11 23 6293. 9122. 1802. o
10 11 23 12424. 17329. 1624. o
1 12 23 5820. 6354. 1275. o
3 12 23 10922. 12852. 1464. o
5 12 23 18095. 16823. 1424. o
7 12 23 43. 0. 1276. <
9 12 23 149. 24. 1252. <
11 12 23 27660. 27485. 1758. o
0 13 23 2165. 0. 1565. <
2 13 23 1005. 24. 987. <
4 13 23 194. 24. 987. <
6 13 23 1307. 890. 1589. <
8 13 23 746. 2190. 1155. <
10 13 23 546. 674. 1300. <
12 13 23 3001. 2551. 1252. o
1 14 23 1224. 770. 818. <
3 14 23 160. 0. 1131. <
5 14 23 540. 72. 1131. <
7 14 23 5261. 6017. 1347. o
9 14 23 2571. 3297. 1660. <
11 14 23 20124. 19350. 1711. o
13 14 23 1895. 1035. 1252. <
6 15 23 16708. 12106. 1479. o
8 15 23 10169. 10638. 1250. o
10 15 23 4248. 5656. 1611. o
12 15 23 3502. 5439. 1298. o
14 15 23 3357. 6474. 1344. o
1 16 23 63. 409. 1276. <
3 16 23 4970. 4091. 1180. o
5 16 23 2087. 2720. 1251. o
7 16 23 10477. 11865. 1393. o
9 16 23 4469. 6137. 1442. o
11 16 23 12220. 11264. 1638. o
13 16 23 12. 48. 1516. <
15 16 23 2437. 3706. 1395. o
0 17 23 2. 3995. 2719. <
2 17 23 208. 217. 1300. <
4 17 23 6. 1516. 1660. <
6 17 23 259. 1637. 1251. <
8 17 23 1029. 939. 1540. <
10 17 23 1090. 385. 1444. <
12 17 23 756. 337. 1468. <
14 17 23 16. 1179. 1516. <
16 17 23 2747. 4886. 1394. o
1 18 23 942. 385. 1300. <
3 18 23 18698. 16125. 2219. o
5 18 23 15671. 15933. 3634. o
7 18 23 20739. 19134. 1978. o
9 18 23 8004. 8207. 1540. o
11 18 23 14426. 12515. 1713. o
13 18 23 0. 529. 1637. <
15 18 23 521. 770. 1588. <
17 18 23 3518. 5680. 1346. o
0 19 23 13492. 14681. 4211. o
2 19 23 13338. 11552. 2000. o
4 19 23 7260. 7389. 2190. o
6 19 23 789. 2238. 2743. <
8 19 23 1074. 289. 2070. <
10 19 23 3865. 2912. 1613. <
12 19 23 817. 674. 1661. <
14 19 23 655. 2238. 2406. <
16 19 23 8830. 11528. 1728. o
18 19 23 16718. 19687. 1966. o
1 20 23 1255. 2190. 1636. <
3 20 23 17546. 13045. 2510. o
5 20 23 17858. 15644. 2723. o
7 20 23 20683. 20457. 2600. o
9 20 23 8812. 5536. 2289. o
11 20 23 8939. 3057. 2074. <
13 20 23 7. 1974. 1757. <
15 20 23 94. 96. 1877. <
17 20 23 1117. 6354. 1536. o
0 21 23 3339. 9146. 3727. o
2 21 23 4330. 6209. 3272. <
4 21 23 12614. 12852. 2792. o
6 21 23 35165. 32515. 6045. o
8 21 23 74815. 65199. 3801. o
10 21 23 91578. 87750. 4856. o
12 21 23 64068. 65295. 4448. o
14 21 23 20445. 22094. 2234. o
16 21 23 839. 1540. 1612. <
18 21 23 2107. 4356. 2069. o
20 21 23 5061. 14368. 1959. o
1 22 23 132. 144. 2286. <
3 22 23 2676. 1805. 2335. <
5 22 23 1570. 2551. 2431. <
7 22 23 3665. 3562. 2383. <
9 22 23 430. 1564. 2358. <
11 22 23 392. 4284. 4018. <
13 22 23 1370. 9122. 2498. o
15 22 23 55. 72. 2310. <
17 22 23 5. 1588. 1949. <
21 22 23 2010. 14537. 3504. o
2 23 23 54417. 32178. 5673. o
4 23 23 18464. 11432. 3833. o
6 23 23 97. 72. 2984. <
8 23 23 9162. 4765. 3540. <
10 23 23 22120. 22286. 4260. o
12 23 23 18171. 29892. 4942. o
14 23 23 2019. 5704. 3320. <
16 23 23 6365. 6450. 2888. o
18 23 23 19603. 22912. 4039. o
0 0 24 30061. 18243. 3127. o
1 1 24 5777. 3321. 1879. <
0 2 24 1359. 1588. 1059. <
2 2 24 5995. 5800. 2190. o
1 3 24 2109. 1781. 1131. <
3 3 24 38208. 38773. 2236. o
0 4 24 29537. 37040. 2791. o
2 4 24 12974. 18002. 1720. o
4 4 24 43060. 52106. 3504. o
1 5 24 10429. 12347. 1295. o
3 5 24 41638. 45608. 2314. o
5 5 24 56521. 65560. 3544. o
0 6 24 8381. 7918. 1926. o
2 6 24 6955. 3995. 1375. o
4 6 24 148. 96. 1516. <
6 6 24 18364. 17569. 3587. o
1 7 24 9775. 9266. 1493. o
3 7 24 62772. 59904. 2331. o
5 7 24 56052. 70036. 2604. o
7 7 24 66772. 79423. 5950. o
0 8 24 8209. 17377. 2320. o
4 8 24 12703. 17786. 1744. o
6 8 24 4806. 4814. 2094. o
8 8 24 216. 241. 3514. <
1 9 24 11509. 8327. 1402. o
3 9 24 44949. 42046. 2277. o
5 9 24 49111. 60289. 2360. o
7 9 24 31069. 34489. 2346. o
9 9 24 16220. 19639. 5966. o
0 10 24 1298. 48. 1661. <
2 10 24 1957. 1035. 1204. <
4 10 24 786. 1829. 1636. <
6 10 24 20122. 24164. 1622. o
8 10 24 16962. 21805. 1742. o
10 10 24 39000. 27798. 5193. o
1 11 24 2564. 2984. 1251. o
3 11 24 24834. 26113. 2837. o
5 11 24 10758. 15138. 1651. o
7 11 24 5819. 9675. 1196. o
9 11 24 244. 241. 1420. <
11 11 24 3. 1685. 1733. <
0 12 24 1705. 5632. 1803. o
2 12 24 1325. 481. 1155. <
4 12 24 776. 866. 1324. <
6 12 24 5445. 7750. 1176. o
8 12 24 425. 409. 1637. <
1 13 24 2388. 3514. 1299. o
3 13 24 1865. 2623. 1034. o
5 13 24 14. 1083. 1059. <
7 13 24 1752. 2118. 1275. <
9 13 24 842. 1011. 1396. <
11 13 24 958. 3682. 1274. o
13 13 24 86. 2142. 2695. <
0 14 24 29243. 25295. 2586. o
2 14 24 27393. 21107. 1731. o
4 14 24 13146. 12684. 1301. o
6 14 24 14259. 12828. 1640. o
8 14 24 4757. 2503. 1205. o
10 14 24 8954. 2744. 1522. <
12 14 24 362. 6956. 1462. o
14 14 24 212. 794. 1781. <
1 15 24 509. 505. 1252. <
3 15 24 237. 72. 1011. <
7 15 24 8668. 5487. 1232. o
9 15 24 7813. 3225. 1592. o
11 15 24 2366. 1492. 1420. <
13 15 24 477. 602. 1396. <
15 15 24 25. 0. 1901. <
0 16 24 1506. 481. 1757. <
2 16 24 8251. 7461. 1397. o
4 16 24 297. 241. 1444. <
6 16 24 2459. 1853. 1492. <
8 16 24 1395. 818. 1781. <
10 16 24 1. 217. 1637. <
12 16 24 9561. 15355. 1769. o
14 16 24 608. 770. 1324. <
16 16 24 49. 24. 1974. <
1 17 24 645. 265. 1300. <
3 17 24 11937. 10445. 1543. o
5 17 24 11347. 10181. 2023. o
7 17 24 20143. 14850. 1770. o
9 17 24 9841. 4091. 1834. o
11 17 24 5595. 2214. 2384. <
13 17 24 330. 337. 1564. <
15 17 24 144. 265. 1348. <
17 17 24 365. 265. 1829. <
0 18 24 23286. 22696. 3178. o
2 18 24 22045. 17401. 2177. o
4 18 24 12593. 15933. 2667. o
6 18 24 3562. 8063. 2259. o
8 18 24 22. 1829. 2190. <
10 18 24 564. 48. 1540. <
12 18 24 6470. 7581. 1756. o
14 18 24 358. 193. 1516. <
16 18 24 5565. 7172. 1683. o
18 18 24 11196. 11600. 3538. o
1 19 24 2565. 3345. 1660. o
3 19 24 5578. 6041. 3658. <
5 19 24 16499. 20000. 3147. o
7 19 24 7252. 8568. 2478. o
9 19 24 9920. 9627. 2190. o
11 19 24 2672. 2936. 1757. <
13 19 24 1129. 2503. 1564. <
15 19 24 30. 0. 1613. <
17 19 24 644. 578. 1564. <
19 19 24 95. 3562. 1972. <
0 20 24 989. 144. 1974. <
2 20 24 5058. 842. 2456. <
4 20 24 132. 385. 2238. <
6 20 24 413. 48. 2166. <
8 20 24 22616. 17401. 2945. o
10 20 24 22263. 18123. 3184. o
12 20 24 48632. 54441. 3830. o
14 20 24 12881. 16679. 1990. o
16 20 24 2122. 2359. 1612. <
18 20 24 8266. 12876. 1870. o
20 20 24 4156. 9290. 3390. o
1 21 24 251. 193. 2696. <
3 21 24 4310. 3706. 2431. <
5 21 24 4537. 4452. 4284. <
7 21 24 6269. 13430. 3990. o
9 21 24 1506. 3610. 3104. <
11 21 24 2347. 9073. 2522. o
13 21 24 193. 4332. 3056. <
15 21 24 933. 2190. 2118. <
17 21 24 10. 1348. 1540. <
19 21 24 127. 3634. 2622. <
21 21 24 894. 17088. 3741. o
0 22 24 63373. 49988. 5977. o
2 22 24 53797. 40120. 3679. o
4 22 24 25605. 26210. 3657. o
6 22 24 6371. 9699. 2596. o
8 22 24 232. 337. 2214. <
10 22 24 8151. 10710. 2524. o
12 22 24 14301. 27750. 3029. o
14 22 24 5251. 13165. 2373. o
16 22 24 1159. 1083. 2118. <
18 22 24 14150. 22912. 2678. o
20 22 24 24254. 37834. 2919. o
1 23 24 370. 361. 2383. <
3 23 24 321. 96. 2383. <
5 23 24 2003. 1252. 2214. <
7 23 24 690. 1468. 2142. <
9 23 24 1339. 12563. 2420. o
11 23 24 169. 10036. 2568. o
13 23 24 1570. 12948. 2298. o
15 23 24 276. 1227. 2647. <
17 23 24 33. 1276. 2022. <
19 23 24 472. 7846. 3029. o
0 24 24 773. 24. 3803. <
2 24 24 664. 0. 3418. <
4 24 24 14139. 7076. 4432. <
6 24 24 18745. 5439. 4268. <
8 24 24 45160. 41396. 4774. o
10 24 24 47855. 38219. 5771. o
12 24 24 65829. 83659. 6999. o
14 24 24 21896. 34224. 4551. o
16 24 24 2870. 5584. 3176. <
18 24 24 2606. 3899. 3249. <
0 1 25 176. 168. 1829. <
1 2 25 360. 217. 1131. <
0 3 25 29555. 33622. 2077. o
2 3 25 28233. 29483. 1848. o
1 4 25 1661. 2551. 1034. o
3 4 25 36877. 38195. 1701. o
0 5 25 3417. 6330. 2020. o
2 5 25 1445. 313. 1926. <
4 5 25 4. 1059. 1275. <
1 6 25 3876. 2142. 1204. <
3 6 25 63913. 62864. 2030. o
5 6 25 10098. 14465. 3510. o
0 7 25 23233. 21204. 2196. o
2 7 25 23228. 23129. 1589. o
6 7 25 40820. 55764. 3407. o
1 8 25 5845. 4116. 1205. o
3 8 25 78548. 71529. 2959. o
5 8 25 29433. 30445. 2114. o
7 8 25 52583. 61733. 3229. o
0 9 25 197. 0. 2070. <
2 9 25 170. 0. 1276. <
4 9 25 106. 2262. 1395. <
6 9 25 2648. 5656. 1658. o
8 9 25 4160. 6691. 2670. o
1 10 25 3596. 2623. 1252. o
3 10 25 59887. 49868. 2418. o
5 10 25 22748. 22672. 1878. o
7 10 25 35588. 37208. 2207. o
9 10 25 849. 963. 1492. <
0 11 25 10. 361. 1805. <
2 11 25 228. 0. 1203. <
4 11 25 1061. 120. 1252. <
6 11 25 78. 1035. 1348. <
8 11 25 1562. 3394. 1250. o
10 11 25 854. 433. 1324. <
1 12 25 893. 337. 1228. <
3 12 25 22226. 18412. 1768. o
5 12 25 1655. 144. 1155. <
7 12 25 5814. 4501. 1181. o
9 12 25 1035. 481. 1661. <
11 12 25 4. 120. 1300. <
0 13 25 34436. 23249. 2416. o
6 13 25 15032. 13406. 1256. o
8 13 25 3809. 4910. 1804. o
10 13 25 651. 2527. 1323. <
12 13 25 458. 2022. 1371. <
1 14 25 178. 361. 1252. <
3 14 25 2271. 2046. 1107. <
5 14 25 3781. 4477. 1155. o
7 14 25 580. 144. 1203. <
9 14 25 5995. 3129. 1566. <
11 14 25 55. 1348. 1372. <
13 14 25 192. 289. 1757. <
0 15 25 12112. 6041. 1956. o
2 15 25 10816. 5295. 1451. o
4 15 25 9414. 4404. 1210. o
6 15 25 3760. 2768. 1252. o
8 15 25 478. 602. 1420. <
10 15 25 343. 120. 1516. <
12 15 25 1241. 24. 2046. <
14 15 25 445. 48. 1372. <
1 16 25 2416. 3273. 1371. o
3 16 25 1415. 1155. 1372. <
5 16 25 14607. 13959. 1686. o
7 16 25 5377. 5199. 1492. o
9 16 25 9265. 9122. 1637. o
11 16 25 118. 1035. 1661. <
13 16 25 62. 24. 1540. <
15 16 25 10. 193. 1348. <
0 17 25 35544. 21733. 4067. o
2 17 25 33816. 30494. 1964. o
4 17 25 23200. 18989. 1842. o
6 17 25 6305. 5536. 3586. <
8 17 25 413. 722. 1709. <
10 17 25 384. 650. 1564. <
12 17 25 2194. 602. 1637. <
14 17 25 550. 72. 1516. <
16 17 25 837. 2503. 1419. <
1 18 25 4021. 1709. 1397. <
3 18 25 10426. 12034. 1634. o
5 18 25 32964. 34657. 3365. o
7 18 25 15834. 17184. 2669. o
9 18 25 14478. 15211. 2454. o
11 18 25 847. 1444. 1612. <
13 18 25 117. 217. 1516. <
15 18 25 22. 361. 1588. <
17 18 25 2973. 6041. 1393. o
0 19 25 22365. 22744. 2911. o
2 19 25 17112. 12010. 1839. o
4 19 25 6880. 5728. 6860. <
6 19 25 249. 217. 3610. <
8 19 25 11165. 12708. 2453. o
10 19 25 27982. 25512. 2966. o
12 19 25 28494. 22696. 2877. o
14 19 25 14550. 13839. 1758. o
16 19 25 1472. 626. 1540. <
18 19 25 897. 2960. 1612. <
1 20 25 4561. 4236. 1685. o
3 20 25 15663. 13791. 5224. o
5 20 25 44241. 39856. 5592. o
7 20 25 28570. 27341. 3060. o
9 20 25 23463. 18700. 2609. o
11 20 25 3593. 505. 2407. <
13 20 25 1814. 337. 2094. <
15 20 25 363. 385. 3201. <
17 20 25 2023. 6739. 1608. o
19 20 25 1617. 7581. 1704. o
0 21 25 58636. 51721. 5601. o
2 21 25 43100. 43586. 2958. o
4 21 25 15246. 19158. 3243. o
6 21 25 5. 193. 2383. <
8 21 25 13678. 12419. 2409. o
10 21 25 32726. 31865. 3324. o
12 21 25 30235. 31504. 3246. o
14 21 25 8969. 12323. 2378. o
16 21 25 6. 96. 1949. <
18 21 25 5886. 12106. 3991. o
1 22 25 2138. 770. 2455. <
3 22 25 6219. 4814. 2335. o
5 22 25 22053. 22094. 2792. o
7 22 25 17239. 13478. 2461. o
9 22 25 12765. 4380. 2461. <
11 22 25 1482. 2335. 2286. <
13 22 25 858. 626. 4188. <
15 22 25 301. 818. 2238. <
17 22 25 446. 2383. 2142. <
19 22 25 175. 5078. 4788. <
0 23 25 731. 217. 3057. <
2 23 25 9. 168. 1853. <
4 23 25 8062. 7341. 2431. o
6 23 25 37217. 26137. 2871. o
10 23 25 77431. 69002. 8155. o
12 23 25 61686. 75813. 4611. o
14 23 25 21639. 36583. 3113. o
16 23 25 206. 602. 1949. <
18 23 25 4442. 6161. 2839. o
1 24 25 91. 0. 1998. <
3 24 25 57. 0. 2238. <
5 24 25 2007. 3779. 2502. <
7 24 25 814. 241. 2190. <
9 24 25 696. 1059. 2142. <
13 24 25 1. 4789. 2381. o
15 24 25 135. 794. 2262. <
17 24 25 0. 1998. 2021. <
0 25 25 30672. 24766. 4342. o
2 25 25 17258. 11240. 4409. o
4 25 25 1423. 96. 3682. <
6 25 25 3480. 2335. 2961. <
8 25 25 11465. 12010. 3947. o
10 25 25 15372. 22455. 5071. o
14 25 25 1120. 11745. 3459. o
0 0 26 14972. 7605. 2847. o
1 1 26 2395. 2647. 1227. o
0 2 26 20824. 16005. 1985. o
2 2 26 77856. 75692. 3406. o
1 3 26 405. 674. 1107. <
3 3 26 10470. 16318. 2470. o
0 4 26 5504. 8375. 7003. <
2 4 26 4. 193. 1348. <
4 4 26 28894. 30975. 3389. o
1 5 26 3122. 4477. 1154. o
3 5 26 13446. 17208. 1965. o
5 5 26 33770. 30421. 3930. o
0 6 26 31537. 22551. 4082. o
2 6 26 66104. 58219. 3217. o
4 6 26 3658. 3008. 1589. <
6 6 26 67691. 55115. 7967. o
1 7 26 2929. 3658. 1468. o
3 7 26 21807. 23995. 1942. o
5 7 26 35459. 35812. 2020. o
7 7 26 50535. 49603. 7944. o
0 8 26 1679. 481. 1637. <
2 8 26 8731. 9098. 1347. o
4 8 26 2485. 4958. 1731. o
6 8 26 8866. 4789. 2073. o
8 8 26 184. 1901. 5415. <
1 9 26 3113. 2551. 1252. o
3 9 26 10203. 16703. 1645. o
5 9 26 21277. 23225. 1750. o
7 9 26 21434. 20048. 2073. o
9 9 26 13167. 9531. 2579. o
0 10 26 242. 554. 1781. <
2 10 26 9465. 10349. 1659. o
4 10 26 3121. 4477. 1612. o
6 10 26 6809. 4260. 1591. o
8 10 26 372. 1998. 1660. <
10 10 26 2741. 7100. 1994. o
1 11 26 7. 48. 1276. <
3 11 26 1143. 3153. 1371. o
5 11 26 819. 1781. 1444. <
7 11 26 1653. 2142. 1444. <
9 11 26 464. 890. 1300. <
11 11 26 1226. 0. 1950. <
0 12 26 13205. 11360. 2481. o
2 12 26 4964. 2960. 1301. o
4 12 26 21449. 22046. 1875. o
6 12 26 89. 193. 1203. <
8 12 26 1750. 457. 1420. <
10 12 26 1404. 6185. 1633. o
12 12 26 5605. 14055. 4206. o
1 13 26 12. 217. 1324. <
3 13 26 1394. 0. 1059. <
5 13 26 869. 144. 1492. <
7 13 26 834. 193. 1179. <
9 13 26 239. 24. 1420. <
11 13 26 3005. 1805. 1517. <
13 13 26 12357. 7028. 2196. o
0 14 26 15358. 14440. 2120. o
2 14 26 1397. 96. 1300. <
4 14 26 15751. 12900. 1403. o
6 14 26 764. 2720. 1178. o
8 14 26 51. 337. 1420. <
10 14 26 10028. 20770. 2192. o
14 14 26 18498. 24982. 2415. o
1 15 26 1364. 2166. 1396. <
3 15 26 3541. 1805. 1421. <
5 15 26 9795. 6306. 1545. o
7 15 26 3044. 1588. 1469. <
9 15 26 98. 72. 1613. <
11 15 26 3891. 3562. 1733. o
13 15 26 12636. 7894. 1476. o
0 16 26 74419. 61950. 4597. o
2 16 26 47568. 41998. 2505. o
4 16 26 42578. 41131. 2509. o
6 16 26 7513. 5945. 2047. o
8 16 26 1336. 1877. 1877. <
10 16 26 6754. 9459. 1850. o
12 16 26 11595. 12611. 1948. o
14 16 26 6563. 7124. 1491. o
16 16 26 1113. 1107. 3586. <
1 17 26 2067. 2599. 1540. <
3 17 26 20984. 22311. 1849. o
5 17 26 18851. 22984. 2566. o
7 17 26 22492. 19471. 2894. o
9 17 26 5638. 3827. 2335. <
11 17 26 1. 722. 2094. <
13 17 26 5371. 4789. 1637. o
15 17 26 6029. 578. 1807. <
17 17 26 6707. 2984. 2384. <
0 18 26 90927. 83659. 5422. o
2 18 26 47665. 45391. 2706. o
4 18 26 53105. 50951. 5204. o
6 18 26 2074. 2623. 2840. <
8 18 26 44. 24. 2262. <
10 18 26 25563. 27966. 3075. o
12 18 26 29600. 29988. 3826. o
14 18 26 22700. 22599. 2239. o
16 18 26 2335. 1059. 1613. <
18 18 26 4348. 3057. 1950. <
1 19 26 4952. 5728. 1636. o
3 19 26 20142. 20313. 2430. o
5 19 26 37419. 41059. 3286. o
7 19 26 28022. 24308. 3569. o
9 19 26 17944. 14031. 5442. o
11 19 26 1259. 96. 2262. <
13 19 26 55. 626. 2816. <
15 19 26 1641. 1059. 2022. <
17 19 26 609. 385. 1516. <
19 19 26 1528. 9073. 2739. o
0 20 26 87844. 76631. 7301. o
2 20 26 65711. 68929. 3715. o
4 20 26 45106. 50253. 3374. o
6 20 26 5475. 12708. 2592. o
8 20 26 1052. 313. 2094. <
10 20 26 16699. 14585. 2651. o
12 20 26 25903. 30421. 2804. o
14 20 26 12253. 12780. 2430. o
16 20 26 1487. 1877. 2166. <
18 20 26 334. 2431. 1949. <
20 20 26 3133. 5608. 3056. <
1 21 26 1187. 529. 1925. <
3 21 26 12517. 10301. 1905. o
5 21 26 16779. 16727. 3081. o
7 21 26 20485. 30277. 8488. o
9 21 26 6165. 6209. 2479. o
11 21 26 1645. 3418. 2454. <
13 21 26 2. 120. 2335. <
15 21 26 130. 818. 2190. <
17 21 26 310. 2407. 1997. <
19 21 26 14. 3129. 2238. <
0 22 26 16340. 11938. 3903. o
2 22 26 4962. 3706. 2046. <
4 22 26 3521. 5247. 2936. <
6 22 26 2908. 2022. 4332. <
8 22 26 7476. 602. 2649. <
10 22 26 29898. 34248. 3503. o
12 22 26 22351. 26282. 3820. o
14 22 26 14232. 19615. 2855. o
16 22 26 292. 915. 2166. <
18 22 26 304. 96. 1974. <
1 23 26 878. 433. 1853. <
3 23 26 3293. 1300. 2022. <
5 23 26 8331. 10349. 2525. o
7 23 26 7576. 9170. 2502. o
11 23 26 705. 6089. 2428. o
13 23 26 1740. 8303. 2209. o
15 23 26 1059. 3466. 2117. <
0 24 26 19076. 19086. 3947. o
2 24 26 10943. 12852. 2476. o
4 24 26 3318. 5969. 4957. <
6 24 26 58. 217. 2214. <
8 24 26 1914. 2840. 2382. <
10 24 26 5729. 6594. 3273. o
12 24 26 6830. 11360. 3631. o
14 24 26 1279. 3562. 2526. <
1 25 26 79. 24. 1757. <
3 25 26 1589. 674. 2214. <
5 25 26 952. 1107. 2455. <
7 25 26 2982. 12010. 2446. o
9 25 26 1512. 10060. 2665. o
11 25 26 1092. 14633. 5529. o
13 25 26 507. 9242. 2352. o
0 26 26 2836. 1757. 3177. <
2 26 26 8169. 6161. 2889. o
4 26 26 6921. 1540. 3395. <
6 26 26 18834. 22792. 4134. o
8 26 26 12718. 6089. 4576. <
10 26 26 13224. 10397. 4382. o
0 1 27 7739. 10181. 1512. o
1 2 27 6699. 7413. 1082. o
0 3 27 6322. 3658. 1711. o
2 3 27 8284. 8544. 1395. o
1 4 27 7547. 10493. 1318. o
3 4 27 3220. 4308. 1564. o
0 5 27 44587. 40193. 2785. o
2 5 27 37818. 44934. 1686. o
4 5 27 38450. 41805. 1833. o
1 6 27 9508. 7509. 1639. o
3 6 27 519. 650. 1564. <
5 6 27 67273. 72636. 2584. o
0 7 27 1177. 1781. 1612. <
2 7 27 189. 818. 1709. <
4 7 27 612. 2792. 1226. o
6 7 27 7030. 13863. 3050. o
1 8 27 9314. 8520. 1373. o
3 8 27 2219. 1492. 1950. <
5 8 27 66019. 64838. 2200. o
7 8 27 7370. 9868. 1657. o
0 9 27 5705. 5271. 1974. o
2 9 27 2619. 3249. 1299. o
4 9 27 1674. 4212. 1370. o
6 9 27 6922. 10734. 1389. o
8 9 27 5597. 7437. 1683. o
1 10 27 5721. 4717. 1301. o
3 10 27 350. 433. 1709. <
5 10 27 34450. 28857. 2020. o
7 10 27 1144. 361. 1492. <
9 10 27 1945. 1949. 1613. <
0 11 27 212. 72. 1925. <
2 11 27 1275. 385. 1276. <
4 11 27 1734. 1637. 1348. <
6 11 27 41. 313. 1372. <
8 11 27 650. 963. 1516. <
10 11 27 619. 578. 1252. <
1 12 27 3719. 4428. 1323. o
3 12 27 107. 409. 1300. <
5 12 27 13811. 10638. 1571. o
7 12 27 3. 72. 1203. <
9 12 27 2902. 5848. 1393. o
11 12 27 3137. 4260. 1347. o
0 13 27 226. 433. 2070. <
2 13 27 574. 72. 1324. <
4 13 27 1557. 939. 1179. <
6 13 27 377. 578. 1179. <
8 13 27 63. 168. 1372. <
10 13 27 1347. 794. 1540. <
12 13 27 4667. 2551. 1517. <
1 14 27 705. 1083. 1420. <
3 14 27 4747. 5223. 1492. o
5 14 27 390. 120. 1324. <
7 14 27 4426. 5872. 1394. o
9 14 27 685. 1829. 1372. <
11 14 27 4368. 5030. 1901. o
13 14 27 5257. 2840. 1903. <
0 15 27 36788. 41950. 3256. o
2 15 27 32718. 27846. 2208. o
4 15 27 25831. 23297. 2054. o
6 15 27 14492. 18869. 2036. o
8 15 27 3978. 10253. 1459. o
10 15 27 25. 481. 1661. <
12 15 27 2680. 193. 1637. <
14 15 27 2728. 96. 1757. <
1 16 27 267. 770. 1540. <
3 16 27 22403. 21468. 2072. o
5 16 27 9319. 8063. 2095. o
7 16 27 23823. 24453. 2140. o
9 16 27 2133. 1661. 2118. <
11 16 27 603. 1613. 1612. <
13 16 27 2971. 2647. 1685. <
15 16 27 1155. 602. 1468. <
0 17 27 41408. 43586. 3603. o
2 17 27 35294. 38845. 2658. o
4 17 27 21420. 20000. 2434. o
6 17 27 6185. 4789. 1758. o
8 17 27 132. 24. 3538. <
10 17 27 8783. 4886. 2506. <
12 17 27 20118. 15379. 2464. o
14 17 27 17756. 10830. 1795. o
16 17 27 9478. 7629. 1759. o
1 18 27 1126. 626. 1564. <
3 18 27 33748. 32299. 3013. o
5 18 27 26124. 23682. 2557. o
7 18 27 37407. 31938. 3480. o
9 18 27 6877. 4188. 2408. <
11 18 27 354. 481. 2190. <
13 18 27 613. 1805. 2695. <
15 18 27 442. 2166. 1877. <
17 18 27 3497. 3249. 1829. <
0 19 27 60938. 68689. 4228. o
2 19 27 46166. 41781. 3480. o
4 19 27 23673. 25439. 2571. o
6 19 27 4503. 5439. 5054. <
8 19 27 1873. 2455. 2262. <
10 19 27 16902. 18267. 2669. o
12 19 27 19797. 14850. 3424. o
14 19 27 12784. 9771. 2290. o
16 19 27 5182. 5680. 2069. o
18 19 27 249. 48. 1661. <
1 20 27 1103. 2046. 1877. <
3 20 27 25602. 20722. 2467. o
5 20 27 24808. 21228. 2272. o
7 20 27 33131. 33045. 3105. o
9 20 27 8294. 8327. 2431. o
11 20 27 962. 963. 2359. <
13 20 27 7. 48. 2070. <
15 20 27 2. 265. 2046. <
17 20 27 1238. 0. 2094. <
19 20 27 141. 3225. 2936. <
0 21 27 29333. 21252. 4392. o
2 21 27 18748. 15740. 2701. o
4 21 27 5222. 5969. 1756. o
6 21 27 48. 48. 2118. <
8 21 27 11147. 15090. 4690. o
10 21 27 27667. 32130. 3069. o
12 21 27 22640. 24116. 5534. o
14 21 27 8712. 9098. 2623. o
16 21 27 1901. 6787. 3151. o
1 22 27 685. 337. 2359. <
3 22 27 15534. 11456. 2244. o
5 22 27 19316. 15355. 3038. o
7 22 27 30795. 30470. 2817. o
9 22 27 11970. 6811. 2556. o
11 22 27 4003. 842. 2311. <
13 22 27 1678. 409. 2287. <
15 22 27 1516. 2262. 2286. <
0 23 27 31614. 35668. 4854. o
2 23 27 19782. 21805. 2715. o
4 23 27 3269. 6330. 3705. <
6 23 27 730. 650. 3057. <
8 23 27 10451. 12395. 2862. o
10 23 27 19743. 31769. 4384. o
12 23 27 13981. 26595. 2910. o
14 23 27 3549. 10686. 4762. o
1 24 27 23. 24. 1901. <
3 24 27 4103. 2383. 1830. <
5 24 27 4944. 3369. 2576. <
7 24 27 9902. 6330. 2602. o
9 24 27 4217. 409. 2407. <
11 24 27 2105. 361. 2359. <
13 24 27 1002. 289. 2286. <
0 25 27 1623. 3706. 3754. <
2 25 27 26. 120. 1949. <
4 25 27 3346. 4284. 2382. <
6 25 27 11152. 9964. 2504. o
8 25 27 17730. 20048. 2812. o
10 25 27 18476. 27437. 3086. o
1 26 27 69. 144. 2022. <
3 26 27 74. 602. 2647. <
5 26 27 18. 3249. 2574. <
7 26 27 97. 1227. 2431. <
9 26 27 9. 5126. 4427. <
0 0 28 95336. 113526. 7585. o
1 1 28 251. 1901. 1420. <
0 2 28 2210. 24. 1420. <
2 2 28 12920. 19350. 2781. o
1 3 28 383. 963. 1107. <
3 3 28 274. 1372. 1733. <
0 4 28 80305. 70879. 5330. o
2 4 28 10443. 3803. 1427. o
4 4 28 106132. 99110. 5929. o
1 5 28 4. 24. 1252. <
3 5 28 1767. 1637. 1203. <
5 5 28 20634. 24116. 2712. o
0 6 28 9320. 4428. 1881. o
2 6 28 2077. 6498. 1802. o
4 6 28 18766. 11528. 1868. o
6 6 28 19. 289. 3057. <
1 7 28 146. 72. 1252. <
3 7 28 1312. 1179. 1300. <
5 7 28 13874. 13045. 1494. o
7 7 28 14988. 12828. 2482. o
0 8 28 37834. 30518. 2815. o
2 8 28 2793. 1107. 1324. <
6 8 28 2709. 193. 1469. <
8 8 28 15328. 11865. 4455. o
1 9 28 170. 48. 1709. <
3 9 28 182. 48. 1348. <
5 9 28 3280. 1805. 1445. <
7 9 28 3086. 722. 1613. <
9 9 28 2321. 746. 2263. <
0 10 28 9303. 10445. 2189. o
2 10 28 41. 24. 1324. <
4 10 28 16762. 16727. 1877. o
6 10 28 108. 289. 1516. <
8 10 28 8630. 7485. 1975. o
10 10 28 16912. 27004. 3689. o
1 11 28 1278. 409. 1300. <
3 11 28 1225. 72. 1276. <
5 11 28 72. 1300. 1372. <
7 11 28 896. 1227. 2671. <
9 11 28 2172. 168. 1444. <
11 11 28 13722. 7437. 2006. o
0 12 28 2903. 4645. 2237. o
2 12 28 3124. 2647. 1444. <
4 12 28 4293. 5391. 1636. o
6 12 28 1582. 2142. 1420. <
8 12 28 5457. 9507. 1728. o
10 12 28 12723. 17954. 2010. o
12 12 28 18489. 23995. 2949. o
1 13 28 871. 144. 1420. <
3 13 28 7289. 4717. 1591. o
5 13 28 2341. 433. 1468. <
7 13 28 481. 168. 1276. <
9 13 28 2456. 1396. 1372. <
13 13 28 36562. 14176. 7598. <
0 14 28 31252. 28953. 3759. o
2 14 28 53869. 46426. 2613. o
4 14 28 14906. 13526. 2361. o
6 14 28 18629. 18027. 2167. o
8 14 28 59. 1131. 1516. <
10 14 28 8646. 11119. 1729. o
12 14 28 14922. 19110. 1867. o
14 14 28 14923. 15836. 2502. o
1 15 28 2626. 2912. 1564. <
3 15 28 12016. 14537. 1872. o
5 15 28 17786. 17593. 1950. o
7 15 28 4958. 3947. 2215. <
9 15 28 105. 866. 1661. <
11 15 28 12548. 8664. 3324. o
15 15 28 43882. 28761. 6207. o
0 16 28 47040. 41252. 3533. o
2 16 28 74664. 64477. 2857. o
4 16 28 15562. 13959. 2289. o
6 16 28 15533. 11841. 2484. o
8 16 28 5551. 9868. 1896. o
10 16 28 31412. 38340. 3713. o
12 16 28 44233. 42864. 3422. o
14 16 28 34175. 33815. 3106. o
16 16 28 57706. 53502. 3459. o
1 17 28 2172. 2696. 1564. <
3 17 28 23109. 33213. 2860. o
5 17 28 24481. 34994. 2760. o
7 17 28 17812. 16558. 2529. o
9 17 28 1282. 48. 2888. <
11 17 28 3002. 6282. 2309. o
13 17 28 18023. 16246. 2939. o
15 17 28 23888. 15981. 2041. o
17 17 28 19616. 18099. 2434. o
0 18 28 114727. 107871. 6745. o
2 18 28 124136. 108232. 5669. o
4 18 28 56033. 53959. 3907. o
6 18 28 23754. 24332. 2333. o
8 18 28 615. 674. 2431. <
10 18 28 20892. 22984. 2860. o
12 18 28 26818. 24188. 3375. o
14 18 28 23125. 27630. 4011. o
16 18 28 26323. 18628. 3047. o
18 18 28 11616. 11745. 3682. o
1 19 28 3110. 3490. 1829. <
3 19 28 18688. 25175. 2657. o
5 19 28 36046. 46715. 2650. o
7 19 28 21425. 20602. 2721. o
9 19 28 7631. 7076. 2648. o
11 19 28 3. 963. 2118. <
13 19 28 2624. 1757. 2070. <
15 19 28 8752. 9603. 2285. o
17 19 28 4912. 3081. 2191. <
0 20 28 65883. 64573. 7199. o
2 20 28 84242. 78219. 3932. o
4 20 28 31295. 30349. 2891. o
6 20 28 15077. 18219. 3413. o
8 20 28 2236. 3225. 3104. <
10 20 28 12544. 9001. 2603. o
12 20 28 20247. 22286. 2860. o
14 20 28 12933. 14922. 3199. o
16 20 28 16147. 16246. 2623. o
1 21 28 1092. 313. 2311. <
3 21 28 16468. 17425. 2477. o
5 21 28 30488. 30830. 2430. o
7 21 28 28252. 35451. 3399. o
9 21 28 10125. 6883. 2770. o
11 21 28 4755. 6546. 4115. <
13 21 28 430. 481. 2720. <
15 21 28 11. 168. 2984. <
0 22 28 38452. 51553. 6255. o
2 22 28 39047. 45560. 8246. o
4 22 28 14593. 20337. 2274. o
6 22 28 4541. 5800. 3682. <
8 22 28 819. 385. 2383. <
10 22 28 7549. 9410. 2646. o
12 22 28 6121. 4693. 2384. <
14 22 28 4590. 5800. 2213. o
1 23 28 605. 193. 2431. <
3 23 28 5118. 3899. 2191. <
5 23 28 14746. 18893. 3388. o
7 23 28 11495. 10662. 2913. o
11 23 28 3329. 7605. 3536. o
13 23 28 2769. 7605. 2452. o
0 24 28 133. 120. 3201. <
2 24 28 848. 529. 1925. <
4 24 28 716. 2214. 2719. <
6 24 28 351. 193. 2359. <
8 24 28 3887. 4356. 2744. <
10 24 28 3027. 0. 2503. <
1 25 28 69. 120. 3129. <
3 25 28 2485. 1709. 2888. <
5 25 28 4239. 2503. 2672. <
7 25 28 6337. 14561. 3217. o
9 25 28 4633. 8496. 3391. o
0 1 29 15716. 17497. 1801. o
1 2 29 12643. 14850. 1342. o
0 3 29 4812. 9170. 1969. o
2 3 29 7695. 8664. 1346. o
1 4 29 7133. 5848. 1470. o
3 4 29 14062. 12828. 1519. o
0 5 29 5490. 7317. 2815. o
2 5 29 1270. 265. 1300. <
4 5 29 176. 193. 1396. <
1 6 29 5237. 7990. 1537. o
3 6 29 12778. 10999. 1496. o
5 6 29 136. 0. 1444. <
0 7 29 1757. 4789. 1972. o
2 7 29 5394. 8881. 1632. o
4 7 29 13773. 19591. 1741. o
6 7 29 8034. 9771. 1754. o
1 8 29 3908. 4958. 1443. o
3 8 29 7980. 4212. 1448. o
5 8 29 55. 1492. 1444. <
7 8 29 3543. 2503. 1613. <
0 9 29 689. 3297. 1997. <
2 9 29 2833. 6402. 1513. o
4 9 29 8110. 13694. 2810. o
6 9 29 4070. 3442. 1709. o
8 9 29 1064. 265. 1564. <
1 10 29 3068. 3177. 1444. o
3 10 29 4974. 3081. 1421. o
5 10 29 380. 241. 1420. <
7 10 29 3169. 4308. 1925. o
9 10 29 2290. 1661. 1757. <
0 11 29 1570. 3249. 1949. <
2 11 29 2189. 2744. 1396. <
4 11 29 3021. 1757. 1445. <
6 11 29 256. 0. 1877. <
8 11 29 74. 626. 1901. <
10 11 29 223. 0. 1324. <
1 12 29 2989. 1637. 1469. <
3 12 29 968. 1276. 1468. <
5 12 29 3138. 3827. 1588. o
7 12 29 1280. 2383. 1564. <
9 12 29 3684. 4236. 2431. <
11 12 29 2746. 1949. 1300. <
0 13 29 3753. 6570. 2260. o
2 13 29 2785. 4814. 1491. o
4 13 29 1739. 3875. 2502. <
6 13 29 3281. 7413. 1608. o
8 13 29 2040. 6498. 1609. o
10 13 29 59. 409. 1492. <
12 13 29 3300. 1348. 1349. <
1 14 29 4773. 3153. 1662. <
3 14 29 996. 770. 1516. <
5 14 29 14154. 18700. 1915. o
7 14 29 457. 168. 2864. <
9 14 29 1144. 1588. 1709. <
11 14 29 3789. 4091. 1396. o
13 14 29 6815. 6883. 1637. o
0 15 29 2520. 8953. 2161. o
2 15 29 2077. 4789. 1538. o
4 15 29 768. 457. 1516. <
6 15 29 225. 794. 1998. <
8 15 29 712. 24. 1661. <
10 15 29 9742. 5487. 2146. o
12 15 29 24978. 14874. 2475. o
14 15 29 31975. 27076. 3045. o
1 16 29 7350. 7894. 1612. o
3 16 29 10066. 13983. 1967. o
5 16 29 34516. 34489. 2888. o
7 16 29 8207. 7581. 2191. o
9 16 29 571. 1059. 1637. <
11 16 29 887. 1781. 1949. <
13 16 29 5560. 9122. 2404. o
15 16 29 26455. 28279. 2522. o
0 17 29 46330. 54296. 3677. o
2 17 29 44306. 56799. 3121. o
4 17 29 29606. 28833. 2674. o
6 17 29 12547. 9820. 2050. o
8 17 29 978. 1829. 2551. <
10 17 29 2376. 96. 1685. <
12 17 29 12209. 8111. 2988. o
14 17 29 18560. 19013. 2935. o
16 17 29 14943. 17256. 5317. o
1 18 29 6887. 4452. 1903. o
3 18 29 15896. 19062. 3702. o
5 18 29 41639. 37232. 2928. o
7 18 29 14134. 10156. 2796. o
9 18 29 2757. 2888. 1709. <
11 18 29 5. 842. 2551. <
13 18 29 2950. 5897. 4211. <
15 18 29 18866. 23899. 3915. o
17 18 29 9293. 12563. 6208. o
0 19 29 30362. 35740. 4755. o
2 19 29 28670. 31288. 2760. o
4 19 29 18741. 17377. 2337. o
6 19 29 5026. 2623. 1638. <
8 19 29 149. 650. 1661. <
10 19 29 6037. 5872. 2359. o
12 19 29 11341. 6787. 2435. o
14 19 29 14446. 17666. 2546. o
16 19 29 11069. 13261. 4355. o
1 20 29 4796. 4308. 2600. <
3 20 29 11957. 11480. 3081. o
5 20 29 30991. 24043. 2355. o
7 20 29 13412. 12034. 1952. o
9 20 29 4861. 5872. 2334. o
11 20 29 673. 1733. 3610. <
13 20 29 207. 1083. 3369. <
15 20 29 6812. 11962. 2401. o
0 21 29 35481. 31023. 5518. o
2 21 29 32859. 36847. 3382. o
4 21 29 19976. 23658. 2108. o
6 21 29 4550. 2551. 1710. <
8 21 29 132. 1179. 3225. <
10 21 29 2835. 4501. 2213. o
12 21 29 3959. 3995. 2671. <
14 21 29 3694. 5848. 2406. o
1 22 29 2216. 1396. 2407. <
3 22 29 4902. 3249. 2239. <
5 22 29 15518. 12852. 2123. o
7 22 29 9109. 10421. 2911. o
9 22 29 5270. 5343. 4477. <
11 22 29 2254. 2623. 2455. <
0 23 29 11201. 7172. 4358. <
2 23 29 10345. 9627. 2215. o
4 23 29 4300. 4645. 2527. <
6 23 29 62. 626. 2286. <
8 23 29 1432. 4284. 2454. <
10 23 29 2753. 5993. 3152. <
1 24 29 804. 457. 3081. <
3 24 29 1886. 0. 3201. <
5 24 29 7736. 3827. 3371. <
7 24 29 6855. 2551. 3732. <
4 25 29 98. 48. 5343. <
0 0 30 18025. 17088. 4646. o
1 1 30 343. 6835. 1776. o
0 2 30 1375. 7605. 2234. o
2 2 30 65386. 58340. 3165. o
1 3 30 1. 1300. 1348. <
3 3 30 450. 1492. 2118. <
0 4 30 5818. 15812. 2925. o
4 4 30 1014. 1107. 2262. <
1 5 30 1. 0. 1372. <
3 5 30 96. 1059. 1324. <
5 5 30 1023. 554. 1853. <
0 6 30 239. 313. 1974. <
2 6 30 32891. 32876. 2190. o
4 6 30 6910. 3995. 1375. o
6 6 30 20446. 27726. 2459. o
1 7 30 61. 385. 1324. <
3 7 30 2. 385. 1348. <
5 7 30 6. 2166. 1540. <
7 7 30 14. 457. 2022. <
0 8 30 783. 4212. 2068. o
2 8 30 25367. 24910. 1879. o
4 8 30 5592. 3827. 1445. o
6 8 30 13214. 10253. 1738. o
8 8 30 12081. 10566. 2385. o
1 9 30 13. 361. 1492. <
3 9 30 289. 24. 1372. <
5 9 30 196. 987. 1468. <
7 9 30 1. 409. 1540. <
9 9 30 2416. 4525. 2310. <
0 10 30 56. 72. 1998. <
2 10 30 14288. 14994. 1707. o
4 10 30 503. 529. 1444. <
6 10 30 2841. 2551. 1829. <
8 10 30 2155. 1396. 1685. <
10 10 30 1058. 7629. 3005. o
1 11 30 613. 361. 1468. <
3 11 30 1251. 24. 1829. <
5 11 30 1360. 481. 1516. <
7 11 30 3. 0. 1757. <
9 11 30 4835. 3273. 1710. <
11 11 30 22434. 18147. 2224. o
0 12 30 10489. 8279. 2241. o
2 12 30 110. 1276. 1492. <
4 12 30 4580. 5391. 1684. o
6 12 30 47. 0. 1564. <
8 12 30 843. 650. 1564. <
10 12 30 1365. 3899. 1611. o
12 12 30 8023. 15740. 2492. o
1 13 30 957. 505. 1516. <
3 13 30 7773. 9194. 2309. o
5 13 30 7866. 7557. 1733. o
7 13 30 2418. 2310. 2214. <
9 13 30 2852. 1685. 1902. <
13 13 30 40065. 21588. 6999. o
0 14 30 21900. 17353. 2752. o
2 14 30 2644. 2383. 1564. <
4 14 30 9370. 9410. 1637. o
6 14 30 393. 1949. 1925. <
8 14 30 7698. 9049. 2237. o
10 14 30 19650. 23273. 3098. o
12 14 30 40166. 46835. 2422. o
14 14 30 95024. 85127. 4219. o
1 15 30 2678. 4765. 1611. o
3 15 30 14008. 20337. 2200. o
5 15 30 24424. 34176. 2617. o
7 15 30 8789. 8448. 2070. o
9 15 30 19. 168. 1613. <
11 15 30 12386. 7172. 2460. o
13 15 30 35039. 27966. 2430. o
15 15 30 46628. 44525. 3617. o
0 16 30 140261. 117522. 7918. o
2 16 30 87544. 91288. 4867. o
4 16 30 74703. 74224. 3829. o
6 16 30 19555. 18797. 2529. o
8 16 30 48. 0. 1661. <
10 16 30 6381. 7317. 1804. o
12 16 30 22255. 22720. 2430. o
14 16 30 57416. 47269. 3576. o
16 16 30 41174. 41372. 5896. o
1 17 30 1881. 3177. 1925. <
3 17 30 15840. 23514. 2389. o
5 17 30 17855. 25391. 2485. o
7 17 30 10340. 11384. 1900. o
9 17 30 69. 217. 1637. <
11 17 30 6522. 7894. 1707. o
13 17 30 25727. 30542. 5649. o
15 17 30 32604. 28881. 3138. o
0 18 30 88953. 78460. 7683. o
2 18 30 49028. 49290. 3031. o
4 18 30 46586. 40891. 3173. o
6 18 30 4541. 3394. 1709. <
8 18 30 1350. 1011. 2286. <
10 18 30 14336. 14128. 2527. o
12 18 30 26938. 25488. 3060. o
14 18 30 57128. 54657. 3644. o
16 18 30 33528. 23779. 4013. o
1 19 30 1961. 4164. 2502. <
3 19 30 9664. 15066. 2206. o
5 19 30 15956. 24501. 2944. o
7 19 30 7609. 9603. 2646. o
9 19 30 1577. 2744. 1805. <
11 19 30 941. 3201. 2141. <
13 19 30 6444. 9194. 2621. o
15 19 30 12525. 17690. 3170. o
0 20 30 101940. 96968. 8079. o
2 20 30 73959. 81805. 7439. o
4 20 30 57206. 47918. 4553. o
6 20 30 14366. 16414. 3343. o
8 20 30 204. 0. 2166. <
10 20 30 1444. 0. 2166. <
12 20 30 8389. 13646. 3413. o
1 21 30 831. 1227. 2407. <
3 21 30 8657. 13526. 3196. o
5 21 30 13250. 13454. 2094. o
7 21 30 11615. 21179. 3935. o
9 21 30 5118. 4212. 2696. <
11 21 30 2909. 6835. 3368. o
0 22 30 33688. 41276. 7740. o
2 22 30 18160. 16895. 5296. o
4 22 30 16026. 13020. 3084. o
6 22 30 2174. 794. 3033. <
8 22 30 2. 1516. 2431. <
10 22 30 1879. 1131. 3321. <
3 23 30 4824. 2647. 3635. <
5 23 30 10063. 6619. 3829. <
7 23 30 10150. 4380. 3469. <
2 24 30 95. 96. 5608. <
0 1 31 5000. 5295. 2479. o
1 2 31 5683. 5199. 1541. o
0 3 31 10041. 9073. 2263. o
2 3 31 5883. 9290. 1439. o
1 4 31 6521. 7605. 1563. o
3 4 31 2353. 6185. 1561. o
0 5 31 1104. 1877. 2238. <
2 5 31 13. 193. 1468. <
4 5 31 726. 0. 1516. <
1 6 31 4227. 1348. 1421. <
3 6 31 3344. 7774. 1656. o
5 6 31 65. 2599. 1612. <
0 7 31 166. 1227. 1949. <
2 7 31 2194. 2310. 1540. <
4 7 31 5761. 2599. 1638. <
6 7 31 922. 289. 1685. <
1 8 31 3213. 1853. 1421. <
3 8 31 3327. 5656. 1490. o
5 8 31 244. 1901. 1829. <
7 8 31 278. 385. 1637. <
0 9 31 645. 3394. 2021. <
2 9 31 2379. 5054. 1442. o
4 9 31 2993. 3225. 1492. o
6 9 31 30. 602. 1829. <
8 9 31 878. 842. 2238. <
1 10 31 2198. 915. 1468. <
3 10 31 3420. 3875. 1516. o
5 10 31 356. 48. 1516. <
7 10 31 287. 0. 3273. <
9 10 31 194. 72. 1685. <
0 11 31 1566. 6835. 2042. o
2 11 31 2700. 4019. 2190. <
4 11 31 2334. 505. 1613. <
6 11 31 25. 890. 1877. <
8 11 31 373. 1661. 1949. <
10 11 31 6. 457. 1998. <
1 12 31 628. 529. 1468. <
3 12 31 9317. 8568. 1638. o
5 12 31 4581. 4404. 1589. o
7 12 31 849. 2696. 1973. <
9 12 31 832. 337. 1950. <
11 12 31 288. 0. 1998. <
0 13 31 7125. 10903. 2282. o
2 13 31 7857. 10229. 1657. o
4 13 31 5953. 4380. 1614. o
6 13 31 1685. 1396. 1998. <
8 13 31 2045. 529. 2335. <
10 13 31 7235. 2383. 1712. <
12 13 31 14324. 9579. 1909. o
1 14 31 2. 48. 1588. <
3 14 31 18112. 16582. 1977. o
5 14 31 12984. 17353. 2254. o
7 14 31 5072. 7196. 2068. o
9 14 31 1703. 313. 1685. <
11 14 31 959. 2214. 1853. <
13 14 31 23397. 24260. 2115. o
0 15 31 13133. 26330. 2886. o
2 15 31 12567. 19350. 2031. o
4 15 31 10796. 10854. 2334. o
6 15 31 9078. 12948. 2161. o
8 15 31 3339. 8327. 2716. o
10 15 31 35. 1011. 1636. <
12 15 31 5035. 2310. 2023. <
14 15 31 14128. 15957. 3295. o
1 16 31 116. 1468. 1564. <
3 16 31 17273. 19446. 2836. o
5 16 31 11020. 9940. 2095. o
7 16 31 3139. 4212. 3610. <
9 16 31 242. 241. 1829. <
11 16 31 3575. 6931. 2236. o
13 16 31 31373. 34489. 4639. o
15 16 31 22115. 27894. 5793. o
0 17 31 545. 3682. 2647. <
2 17 31 894. 3345. 1997. <
4 17 31 637. 554. 2070. <
6 17 31 53. 72. 1974. <
8 17 31 757. 48. 1877. <
10 17 31 5152. 746. 2552. <
12 17 31 16026. 13309. 2075. o
14 17 31 26412. 28327. 5485. o
1 18 31 220. 1107. 2455. <
3 18 31 14756. 18027. 2256. o
5 18 31 9569. 13742. 2401. o
7 18 31 3114. 4284. 1732. o
9 18 31 355. 1829. 1733. <
11 18 31 1730. 1203. 1757. <
13 18 31 21367. 24814. 3966. o
0 19 31 35056. 43731. 5639. o
2 19 31 34947. 38219. 4759. o
4 19 31 26979. 22936. 2585. o
6 19 31 13564. 11240. 2001. o
8 19 31 4030. 3899. 1757. o
10 19 31 167. 915. 2647. <
12 19 31 1629. 1492. 3273. <
1 20 31 270. 481. 4308. <
3 20 31 10721. 9723. 2793. o
5 20 31 8064. 8977. 2045. o
7 20 31 4603. 5536. 4982. <
9 20 31 2426. 5824. 3633. <
11 20 31 20. 0. 2527. <
4 21 31 10666. 7966. 3419. o
6 21 31 3630. 2359. 3225. <
8 21 31 447. 265. 2431. <
3 22 31 3942. 529. 3827. <
5 22 31 3076. 1203. 3249. <
0 0 32 66091. 86884. 4819. o
0 2 32 5590. 7581. 2694. o
2 2 32 3183. 6233. 2622. o
1 3 32 606. 987. 2647. <
3 3 32 2084. 2335. 2431. <
0 4 32 25236. 18508. 3332. o
2 4 32 824. 1372. 1612. <
4 4 32 16093. 24236. 2460. o
1 5 32 264. 24. 1492. <
5 5 32 2122. 5993. 2429. o
0 6 32 20755. 28664. 2869. o
2 6 32 775. 3706. 1491. o
4 6 32 11899. 7268. 2147. o
6 6 32 15344. 22527. 2826. o
1 7 32 426. 24. 1516. <
3 7 32 206. 361. 1540. <
7 7 32 314. 409. 3971. <
2 8 32 668. 361. 1516. <
4 8 32 1393. 3658. 1587. o
6 8 32 939. 915. 1925. <
8 8 32 3201. 698. 2840. <
1 9 32 646. 3105. 1419. o
3 9 32 113. 24. 1468. <
5 9 32 1889. 5150. 1779. o
7 9 32 0. 554. 1829. <
9 9 32 3625. 6643. 2477. o
0 10 32 5724. 3730. 2119. <
2 10 32 297. 193. 1468. <
4 10 32 1254. 626. 1492. <
6 10 32 694. 48. 2407. <
8 10 32 3076. 1829. 1926. <
10 10 32 579. 241. 2672. <
1 11 32 45. 722. 1444. <
3 11 32 1306. 1107. 2022. <
5 11 32 8681. 12876. 1774. o
7 11 32 2135. 3995. 1973. o
9 11 32 1175. 120. 2214. <
11 11 32 5835. 6980. 4211. <
0 12 32 3786. 4549. 2936. <
2 12 32 1082. 2431. 1492. <
4 12 32 1172. 2022. 1757. <
6 12 32 1877. 939. 1926. <
8 12 32 38. 1227. 1853. <
10 12 32 3045. 4693. 2478. <
12 12 32 32777. 49603. 6661. o
1 13 32 469. 433. 1468. <
5 13 32 16003. 18436. 2330. o
7 13 32 7074. 8279. 2093. o
9 13 32 176. 48. 2599. <
11 13 32 7189. 5199. 2360. o
13 13 32 18951. 22792. 5604. o
0 14 32 37128. 50253. 3638. o
2 14 32 64117. 65704. 3072. o
4 14 32 28924. 41540. 7516. o
6 14 32 10043. 12587. 2283. o
8 14 32 6992. 5247. 2336. o
10 14 32 81. 433. 1877. <
12 14 32 23116. 27365. 3047. o
14 14 32 21498. 23851. 7435. o
1 15 32 924. 3418. 1563. o
3 15 32 5359. 10012. 2089. o
5 15 32 12843. 22648. 2337. o
7 15 32 3661. 3345. 2022. <
9 15 32 418. 120. 1805. <
11 15 32 10104. 8231. 2793. o
13 15 32 26865. 31095. 2659. o
15 15 32 39226. 52467. 5989. o
0 16 32 9837. 6570. 2626. o
2 16 32 23397. 22335. 2337. o
4 16 32 3108. 3225. 1901. <
6 16 32 4. 337. 1974. <
8 16 32 2472. 4886. 1876. o
10 16 32 17632. 18821. 2501. o
12 16 32 60742. 52034. 3645. o
14 16 32 48016. 37762. 5005. o
1 17 32 760. 1276. 1925. <
3 17 32 5000. 12371. 2060. o
5 17 32 5940. 12587. 2278. o
7 17 32 3358. 9434. 2281. o
9 17 32 47. 48. 1805. <
11 17 32 6163. 7461. 2117. o
13 17 32 19276. 29507. 3227. o
0 18 32 85126. 84838. 8497. o
2 18 32 99477. 85199. 4742. o
4 18 32 48805. 51697. 3358. o
6 18 32 15143. 11841. 2748. o
8 18 32 3690. 4886. 2310. o
10 18 32 1382. 3273. 2406. <
1 19 32 831. 2455. 5800. <
5 19 32 3284. 9266. 3535. o
7 19 32 1848. 2840. 3129. <
9 19 32 407. 1588. 2503. <
6 20 32 2254. 1781. 3009. <
8 20 32 17. 120. 2310. <
5 21 32 545. 24. 3634. <
0 1 33 6845. 12539. 2521. o
1 2 33 7786. 15668. 1790. o
0 3 33 1309. 1155. 4019. <
2 3 33 359. 1203. 1998. <
1 4 33 7464. 11216. 1848. o
3 4 33 22. 4958. 1971. o
0 5 33 114. 578. 2888. <
2 5 33 909. 2647. 1636. <
1 6 33 4944. 11600. 1626. o
3 6 33 539. 794. 1661. <
5 6 33 332. 5728. 1561. o
0 7 33 346. 1877. 2455. <
2 7 33 220. 1613. 1444. <
4 7 33 3582. 11456. 2012. o
6 7 33 1492. 5223. 1706. o
1 8 33 3892. 5969. 1490. o
3 8 33 463. 409. 1540. <
5 8 33 284. 4789. 1827. o
7 8 33 2659. 4814. 1611. o
0 9 33 10857. 10397. 2215. o
2 9 33 4905. 1613. 1614. <
4 9 33 213. 1637. 2190. <
6 9 33 608. 1179. 2118. <
8 9 33 16. 1492. 1733. <
1 10 33 4940. 8568. 1584. o
3 10 33 322. 2960. 1515. <
5 10 33 5179. 10373. 2016. o
7 10 33 13192. 15451. 2234. o
9 10 33 3069. 6546. 1778. o
2 11 33 11972. 19302. 2078. o
4 11 33 2591. 2214. 1613. <
6 11 33 2670. 3321. 1901. <
8 11 33 1553. 939. 1998. <
10 11 33 22. 48. 1974. <
1 12 33 5547. 6691. 1611. o
3 12 33 2175. 4958. 1683. o
5 12 33 10768. 18099. 3626. o
7 12 33 19284. 19519. 2599. o
9 12 33 4680. 5536. 2117. o
11 12 33 869. 1564. 2455. <
0 13 33 230. 3755. 3489. <
2 13 33 1264. 433. 1637. <
4 13 33 6024. 4164. 2143. <
6 13 33 4521. 1925. 2143. <
8 13 33 3120. 4958. 2285. o
10 13 33 2576. 4862. 1756. o
12 13 33 24. 0. 2792. <
1 14 33 4695. 5054. 1564. o
3 14 33 1915. 2744. 3466. <
5 14 33 7705. 16799. 2199. o
7 14 33 10936. 10397. 2143. o
9 14 33 716. 578. 2455. <
11 14 33 7235. 7076. 2166. o
13 14 33 5265. 5656. 3080. <
0 15 33 17910. 21926. 2832. o
2 15 33 14089. 22720. 2969. o
4 15 33 6166. 14152. 2252. o
6 15 33 5246. 6209. 2165. o
8 15 33 5339. 1637. 2095. <
10 15 33 6411. 2310. 2096. <
12 15 33 13902. 9049. 2629. o
1 16 33 3367. 6715. 1995. o
3 16 33 1182. 4645. 2092. o
5 16 33 4168. 7557. 2139. o
7 16 33 4432. 7581. 2838. o
9 16 33 47. 48. 2022. <
11 16 33 12869. 13815. 2839. o
0 17 33 10847. 11456. 5030. o
2 17 33 10410. 9820. 2889. o
4 17 33 11917. 9795. 5320. <
6 17 33 8829. 6931. 3828. <
8 17 33 4435. 8881. 2789. o
10 17 33 857. 3755. 2550. <
3 18 33 304. 2286. 3658. <
5 18 33 1260. 3634. 3465. <
7 18 33 1192. 3057. 2912. <
6 19 33 599. 1131. 6980. <
1 1 34 124. 11986. 3386. o
0 2 34 4245. 7533. 2958. o
1 3 34 13. 6017. 1802. o
3 3 34 175. 168. 2383. <
0 4 34 4454. 3466. 2913. <
2 4 34 4780. 5800. 3225. <
4 4 34 934. 4958. 2550. <
1 5 34 22. 1131. 1564. <
3 5 34 249. 4838. 1899. o
5 5 34 2524. 5872. 5150. <
0 6 34 690. 0. 2455. <
4 6 34 242. 698. 1901. <
6 6 34 94. 1637. 2358. <
1 7 34 0. 3658. 1515. o
3 7 34 12. 866. 1540. <
5 7 34 785. 385. 1781. <
7 7 34 505. 602. 2503. <
0 8 34 473. 529. 2070. <
2 8 34 6306. 4814. 1710. o
4 8 34 314. 1901. 1901. <
6 8 34 686. 5487. 2091. o
8 8 34 1127. 1564. 2383. <
1 9 34 69. 0. 1492. <
3 9 34 1184. 6546. 1632. o
5 9 34 608. 2696. 2166. <
7 9 34 856. 8014. 2089. o
9 9 34 2431. 1998. 3803. <
0 10 34 2094. 1637. 2094. <
4 10 34 1538. 1516. 1588. <
6 10 34 3240. 2286. 1998. <
8 10 34 2928. 4597. 2237. o
10 10 34 868. 939. 4621. <
1 11 34 699. 6763. 1584. o
3 11 34 4052. 7317. 1633. o
5 11 34 4122. 10734. 4112. o
7 11 34 3845. 12684. 2155. o
9 11 34 3067. 6715. 2380. o
11 11 34 56. 1107. 3899. <
0 12 34 31313. 21348. 3461. o
2 12 34 8278. 7678. 1902. o
4 12 34 23396. 17160. 2444. o
6 12 34 21672. 21300. 2817. o
8 12 34 13300. 13935. 2502. o
10 12 34 3374. 2527. 2287. <
12 12 34 1924. 48. 3682. <
1 13 34 529. 1227. 1564. <
5 13 34 4541. 5439. 2478. o
7 13 34 3628. 10493. 2425. o
9 13 34 997. 1252. 2623. <
11 13 34 1074. 939. 3033. <
0 14 34 881. 4982. 2285. o
2 14 34 2896. 4934. 2478. <
4 14 34 3. 2431. 2310. <
6 14 34 465. 842. 2575. <
8 14 34 3224. 1444. 4020. <
10 14 34 14887. 16246. 3392. o
1 15 34 297. 3971. 2478. <
3 15 34 2159. 6137. 2429. o
5 15 34 2773. 9892. 2714. o
7 15 34 1242. 2575. 4091. <
9 15 34 90. 890. 3418. <
2 16 34 35310. 31552. 5181. o
4 16 34 36495. 31047. 5568. o
6 16 34 19272. 23346. 4929. o
8 16 34 2724. 72. 2600. <
3 17 34 356. 4669. 3079. <
5 17 34 113. 722. 3466. <
1 2 35 4045. 6522. 2381. o
0 3 35 6724. 9916. 2741. o
2 3 35 8765. 13574. 2183. o
1 4 35 3595. 7629. 1753. o
3 4 35 8930. 16558. 2153. o
0 5 35 1591. 2792. 2358. <
2 5 35 357. 457. 1901. <
4 5 35 74. 3514. 2261. <
1 6 35 3307. 2407. 1685. <
3 6 35 5518. 15211. 3795. o
5 6 35 49. 5560. 2766. o
0 7 35 327. 5608. 2429. o
2 7 35 86. 6209. 1584. o
4 7 35 542. 10181. 2617. o
1 8 35 2369. 2840. 1805. <
5 8 35 503. 7629. 2089. o
7 8 35 4275. 13382. 2614. o
0 9 35 5494. 4164. 2311. <
2 9 35 1884. 4789. 1587. o
4 9 35 187. 915. 2022. <
6 9 35 31. 2479. 2117. <
8 9 35 2771. 2912. 3225. <
1 10 35 1198. 722. 1589. <
5 10 35 4178. 11047. 2231. o
7 10 35 11673. 22335. 2676. o
9 10 35 6113. 6450. 2671. o
0 11 35 603. 5776. 2356. o
2 11 35 10. 3033. 1708. <
4 11 35 891. 48. 1781. <
6 11 35 2382. 3827. 2503. <
8 11 35 6600. 5102. 2624. <
10 11 35 7779. 5102. 2745. <
1 12 35 800. 1300. 1685. <
3 12 35 8479. 17449. 1834. o
5 12 35 4964. 8712. 4138. o
7 12 35 11636. 15451. 2907. o
9 12 35 4271. 4477. 2792. <
11 12 35 2398. 1613. 4693. <
0 13 35 32856. 50470. 3820. o
4 13 35 13950. 21853. 3067. o
6 13 35 7263. 7461. 2695. o
8 13 35 2659. 3394. 3225. <
1 14 35 826. 1588. 3032. <
3 14 35 4458. 10205. 3197. o
5 14 35 1894. 8544. 3703. o
7 14 35 4396. 7148. 4259. <
2 15 35 4367. 1540. 3226. <
4 15 35 6451. 529. 3659. <
6 15 35 7759. 4236. 4141. <
3 16 35 1327. 6956. 3271. o
1 1 36 0. 13622. 3456. o
0 2 36 5264. 2503. 3851. <
2 2 36 7388. 265. 5031. <
1 3 36 39. 2696. 2093. <
3 3 36 339. 1468. 3514. <
2 4 36 1098. 1131. 2166. <
4 4 36 20546. 42190. 4383. o
1 5 36 19. 24. 1637. <
3 5 36 1578. 554. 1950. <
5 5 36 9864. 15836. 3821. o
0 6 36 1449. 7076. 2644. o
2 6 36 9722. 7292. 2481. o
4 6 36 16. 3345. 1804. <
6 6 36 15725. 19711. 4858. o
1 7 36 278. 698. 1661. <
3 7 36 128. 241. 2840. <
5 7 36 3239. 1203. 4068. <
7 7 36 229. 6209. 3945. <
2 8 36 1938. 1348. 2022. <
4 8 36 673. 722. 2094. <
6 8 36 10200. 24525. 2838. o
8 8 36 5898. 5367. 3923. <
1 9 36 769. 241. 1540. <
3 9 36 1110. 7052. 1776. o
5 9 36 73. 3730. 4091. <
7 9 36 2667. 9531. 2739. o
9 9 36 7879. 10277. 4692. o
0 10 36 35. 168. 2286. <
2 10 36 12602. 7220. 1956. o
4 10 36 2915. 7629. 2572. o
6 10 36 26849. 37377. 4165. o
1 11 36 1119. 3971. 2117. <
3 11 36 2048. 3730. 2141. <
5 11 36 1136. 13526. 2732. o
7 11 36 4975. 9410. 2716. o
0 12 36 8922. 20337. 4827. o
2 12 36 67. 2431. 2286. <
4 12 36 1435. 3105. 4115. <
6 12 36 3769. 9170. 3655. o
1 13 36 479. 168. 2383. <
3 13 36 1355. 12684. 3458. o
5 13 36 735. 5536. 3705. <
1 2 37 5641. 8111. 3175. o
0 3 37 2572. 5030. 4091. <
2 3 37 5262. 3225. 2480. <
1 4 37 3996. 3875. 2214. <
3 4 37 5776. 5223. 2864. <
0 5 37 10894. 23562. 3229. o
2 5 37 4620. 12804. 3580. o
4 5 37 1886. 6931. 2452. o
1 6 37 4470. 9386. 1920. o
3 6 37 1556. 963. 2359. <
5 6 37 8816. 14946. 2615. o
0 7 37 704. 529. 2359. <
2 7 37 3682. 457. 2046. <
4 7 37 5636. 2479. 2817. <
6 7 37 22. 361. 2383. <
1 8 37 4176. 8809. 2885. o
3 8 37 207. 1035. 2671. <
7 8 37 1505. 7918. 2788. o
0 9 37 1609. 3201. 3634. <
2 9 37 71. 1324. 2431. <
4 9 37 17. 24. 3658. <
6 9 37 4997. 7437. 3151. o
1 10 37 3124. 8207. 2258. o
3 10 37 150. 650. 3129. <
0 11 37 5145. 10518. 3438. o
1 3 38 593. 120. 2431. <
3 3 38 2601. 14802. 3576. o
0 4 38 8735. 3538. 5898. <
2 4 38 121. 168. 2599. <
4 4 38 18722. 13574. 6862. <
1 5 38 567. 1011. 3105. <
3 5 38 1743. 2070. 2527. <
0 6 38 1345. 3851. 3345. <
2 6 38 15442. 26282. 5138. o
loop_
_smtbx_masks_void_nr
_smtbx_masks_void_average_x
_smtbx_masks_void_average_y
_smtbx_masks_void_average_z
_smtbx_masks_void_volume
_smtbx_masks_void_count_electrons
1 -0.897 -0.972 -0.848 44993.8 3179.1
