#------------------------------------------------------------------------------
#$Date: 2016-02-16 22:30:59 +0200 (Tue, 16 Feb 2016) $
#$Revision: 176467 $
#$URL: svn://www.crystallography.net/cod/cif/4/50/51/4505131.cif $
#------------------------------------------------------------------------------
#
# This file is available in the Crystallography Open Database (COD),
# http://www.crystallography.net/
#
# All data on this site have been placed in the public domain by the
# contributors.
#
data_4505131
loop_
_publ_author_name
'Litvinov, Aleksey L.'
'Konarev, Dmitri V.'
'Kovalevsky, Andrey Yu.'
'Neretin, Ivan S.'
'Coppens, Philip'
'Lyubovskaya, Rimma N.'
_publ_section_title
;
 [60]Fullerene Complexes with Supramolecular Zinc Tetraphenylporphyrin
 Assemblies:&#x2009; Synthesis, Crystal Structures, and Optical Properties
;
_journal_issue                   5
_journal_name_full               'Crystal Growth &amp; Design'
_journal_page_first              1807
_journal_paper_doi               10.1021/cg050095m
_journal_volume                  5
_journal_year                    2005
_chemical_formula_sum            'C190.5 H98.02 N10.66 Zn2'
_chemical_formula_weight         2666.80
_chemical_melting_point          ?
_chemical_name_common            '[Zn(II)TPP]2Prz*C60'
_chemical_name_systematic
; 
 bis-(tetraphenylporphirinate Zn(II))pyrazine fullerene molecular complex 
;
_space_group_IT_number           2
_symmetry_cell_setting           triclinic
_symmetry_space_group_name_Hall  '-P 1'
_symmetry_space_group_name_H-M   'P -1'
_atom_sites_solution_hydrogens   geom
_atom_sites_solution_primary     direct
_atom_sites_solution_secondary   difmap
_audit_creation_method           SHELXL-97
_cell_angle_alpha                85.67
_cell_angle_beta                 84.58
_cell_angle_gamma                88.38
_cell_formula_units_Z            2
_cell_length_a                   13.3658(2)
_cell_length_b                   19.5386(3)
_cell_length_c                   24.7121(4)
_cell_measurement_reflns_used    876
_cell_measurement_temperature    90(1)
_cell_measurement_theta_max      25
_cell_measurement_theta_min      4
_cell_volume                     6404.90(17)
_computing_cell_refinement       'Bruker SMART'
_computing_data_collection       'Bruker SMART'
_computing_data_reduction        'Bruker SHELXTL'
_computing_molecular_graphics    'Bruker SHELXTL'
_computing_publication_material  'Bruker SHELXTL'
_computing_structure_refinement  'SHELXL-97 (Sheldrick, 1997)'
_computing_structure_solution    'SHELXS-97 (Sheldrick, 1990)'
_diffrn_ambient_temperature      90(1)
_diffrn_measured_fraction_theta_full 0.918
_diffrn_measured_fraction_theta_max 0.918
_diffrn_measurement_device_type  'CCD area detector'
_diffrn_measurement_method       'phi and omega scans'
_diffrn_radiation_monochromator  graphite
_diffrn_radiation_source         'rotating anode'
_diffrn_radiation_type           MoK\a
_diffrn_radiation_wavelength     0.71073
_diffrn_reflns_av_R_equivalents  0.0428
_diffrn_reflns_av_sigmaI/netI    0.0402
_diffrn_reflns_limit_h_max       17
_diffrn_reflns_limit_h_min       -17
_diffrn_reflns_limit_k_max       27
_diffrn_reflns_limit_k_min       -26
_diffrn_reflns_limit_l_max       34
_diffrn_reflns_limit_l_min       -34
_diffrn_reflns_number            115208
_diffrn_reflns_theta_full        29.68
_diffrn_reflns_theta_max         29.68
_diffrn_reflns_theta_min         2.19
_exptl_absorpt_coefficient_mu    0.443
_exptl_absorpt_correction_T_max  0.9571
_exptl_absorpt_correction_T_min  0.8786
_exptl_absorpt_correction_type   none
_exptl_crystal_colour            black
_exptl_crystal_density_diffrn    1.383
_exptl_crystal_density_method    'not measured'
_exptl_crystal_description       prizm
_exptl_crystal_F_000             2751
_exptl_crystal_size_max          0.30
_exptl_crystal_size_mid          0.20
_exptl_crystal_size_min          0.10
_refine_diff_density_max         1.513
_refine_diff_density_min         -0.992
_refine_diff_density_rms         0.096
_refine_ls_extinction_method     none
_refine_ls_goodness_of_fit_ref   1.049
_refine_ls_hydrogen_treatment    'riding model'
_refine_ls_matrix_type           fullcycle
_refine_ls_number_parameters     1821
_refine_ls_number_reflns         33340
_refine_ls_number_restraints     42
_refine_ls_restrained_S_all      1.054
_refine_ls_R_factor_all          0.0774
_refine_ls_R_factor_gt           0.0624
_refine_ls_shift/su_max          0.007
_refine_ls_shift/su_mean         0.001
_refine_ls_structure_factor_coef Fsqd
_refine_ls_weighting_details
'calc w=1/[\s^2^(Fo^2^)+(0.0978P)^2^+7.6655P] where P=(Fo^2^+2Fc^2^)/3'
_refine_ls_weighting_scheme      calc
_refine_ls_wR_factor_gt          0.1724
_refine_ls_wR_factor_ref         0.1827
_reflns_number_gt                26069
_reflns_number_total             33340
_reflns_threshold_expression     >2sigma(I)
_cod_data_source_file            cg050095msi20050315_045306.cif
_cod_data_source_block           znpyraz
_cod_depositor_comments
;
The following automatic conversions were performed:

'_chemical_melting_point' value 'not measured' was changed to '?' -
the value is undefined or not given.

'_symmetry_cell_setting' value
'Triclinic' changed to 'triclinic' according to
/home/saulius/struct/CIF-dictionaries/cif_core.dic dictionary named
'cif_core.dic' version 2.4.1 from 2010-06-29.

Automatic conversion script
Id: cif_fix_values 1715 2011-07-08 13:25:40Z adriana 
;
_cod_original_cell_volume        6405.00(17)
_cod_original_sg_symbol_H-M      P-1
_cod_original_formula_sum        'C190.50 H98.02 N10.66 Zn2'
_cod_database_code               4505131
loop_
_symmetry_equiv_pos_as_xyz
'x, y, z'
'-x, -y, -z'
loop_
_atom_site_label
_atom_site_type_symbol
_atom_site_fract_x
_atom_site_fract_y
_atom_site_fract_z
_atom_site_U_iso_or_equiv
_atom_site_adp_type
_atom_site_occupancy
_atom_site_symmetry_multiplicity
_atom_site_calc_flag
_atom_site_refinement_flags
_atom_site_disorder_assembly
_atom_site_disorder_group
Zn1 Zn 0.549047(19) 0.435863(13) 0.721305(10) 0.01622(6) Uani 1 1 d . . .
Zn2 Zn 0.556917(18) 0.791820(12) 0.756075(10) 0.01369(6) Uani 1 1 d . . .
N1 N 0.39566(14) 0.42985(10) 0.74239(8) 0.0183(4) Uani 1 1 d . . .
N2 N 0.56884(14) 0.44450(10) 0.80281(8) 0.0181(4) Uani 1 1 d . . .
N3 N 0.70200(14) 0.41907(10) 0.70629(8) 0.0180(4) Uani 1 1 d . . .
N4 N 0.52894(15) 0.39966(10) 0.64768(8) 0.0180(4) Uani 1 1 d . . .
N5 N 0.55252(15) 0.54915(10) 0.71082(8) 0.0186(4) Uani 1 1 d . . .
N6 N 0.55637(14) 0.68595(10) 0.73407(8) 0.0168(4) Uani 1 1 d . . .
N7 N 0.40355(14) 0.80105(9) 0.77650(7) 0.0154(3) Uani 1 1 d . . .
N8 N 0.57619(14) 0.77267(10) 0.83771(8) 0.0165(4) Uani 1 1 d . . .
N9 N 0.70920(14) 0.80764(10) 0.74044(7) 0.0159(3) Uani 1 1 d . . .
N10 N 0.53655(14) 0.83723(9) 0.67980(7) 0.0151(3) Uani 1 1 d . . .
C1 C 0.32443(17) 0.41270(12) 0.70941(10) 0.0196(4) Uani 1 1 d . . .
C2 C 0.22646(18) 0.41232(13) 0.73956(10) 0.0236(5) Uani 1 1 d . . .
H2A H 0.1646 0.4021 0.7262 0.028 Uiso 1 1 calc R . .
C3 C 0.23955(18) 0.42947(13) 0.79080(10) 0.0234(5) Uani 1 1 d . . .
H3A H 0.1885 0.4338 0.8199 0.028 Uiso 1 1 calc R . .
C4 C 0.34573(17) 0.43975(12) 0.79248(10) 0.0193(4) Uani 1 1 d . . .
C5 C 0.39067(17) 0.45483(12) 0.83928(10) 0.0199(4) Uani 1 1 d . . .
C6 C 0.49459(18) 0.45807(12) 0.84308(10) 0.0199(4) Uani 1 1 d . . .
C7 C 0.5397(2) 0.47612(14) 0.89098(11) 0.0271(5) Uani 1 1 d . . .
H7A H 0.5050 0.4880 0.9244 0.033 Uiso 1 1 calc R . .
C8 C 0.64041(19) 0.47288(14) 0.87906(10) 0.0257(5) Uani 1 1 d . . .
H8A H 0.6900 0.4823 0.9025 0.031 Uiso 1 1 calc R . .
C9 C 0.65846(17) 0.45237(12) 0.82376(9) 0.0192(4) Uani 1 1 d . . .
C10 C 0.75396(17) 0.44179(12) 0.79635(10) 0.0195(4) Uani 1 1 d . . .
C11 C 0.77307(17) 0.42328(12) 0.74230(10) 0.0193(4) Uani 1 1 d . . .
C12 C 0.87064(19) 0.40407(14) 0.71713(10) 0.0250(5) Uani 1 1 d . . .
H12B H 0.9324 0.4027 0.7334 0.030 Uiso 1 1 calc R . .
C13 C 0.85731(19) 0.38825(14) 0.66575(11) 0.0260(5) Uani 1 1 d . . .
H13B H 0.9079 0.3736 0.6392 0.031 Uiso 1 1 calc R . .
C14 C 0.75152(17) 0.39789(12) 0.65911(9) 0.0194(4) Uani 1 1 d . . .
C15 C 0.70669(18) 0.38481(12) 0.61211(9) 0.0194(4) Uani 1 1 d . . .
C16 C 0.60287(18) 0.38550(12) 0.60723(9) 0.0196(4) Uani 1 1 d . . .
C17 C 0.55782(19) 0.36951(13) 0.55900(10) 0.0231(5) Uani 1 1 d . . .
H17B H 0.5924 0.3594 0.5251 0.028 Uiso 1 1 calc R . .
C18 C 0.45682(19) 0.37172(13) 0.57134(10) 0.0236(5) Uani 1 1 d . . .
H18B H 0.4072 0.3629 0.5478 0.028 Uiso 1 1 calc R . .
C19 C 0.43882(18) 0.39008(12) 0.62696(10) 0.0201(4) Uani 1 1 d . . .
C20 C 0.34326(18) 0.39539(12) 0.65521(10) 0.0202(4) Uani 1 1 d . . .
C21 C 0.32361(18) 0.46556(13) 0.89018(10) 0.0238(5) Uani 1 1 d . . .
C22 C 0.3184(3) 0.41518(17) 0.93300(12) 0.0397(7) Uani 1 1 d . . .
H22A H 0.3554 0.3733 0.9294 0.048 Uiso 1 1 calc R . .
C23 C 0.2589(3) 0.4256(2) 0.98142(13) 0.0471(8) Uani 1 1 d . . .
H23B H 0.2557 0.3907 1.0105 0.057 Uiso 1 1 calc R . .
C24 C 0.2051(2) 0.48600(19) 0.98722(12) 0.0399(7) Uani 1 1 d . . .
H24B H 0.1650 0.4931 1.0202 0.048 Uiso 1 1 calc R . .
C25 C 0.2096(2) 0.53611(17) 0.94488(13) 0.0359(7) Uani 1 1 d . . .
H25B H 0.1723 0.5779 0.9488 0.043 Uiso 1 1 calc R . .
C26 C 0.26842(19) 0.52618(14) 0.89623(12) 0.0286(5) Uani 1 1 d . . .
H26B H 0.2707 0.5610 0.8672 0.034 Uiso 1 1 calc R . .
C27 C 0.84261(18) 0.44812(13) 0.82814(10) 0.0212(5) Uani 1 1 d . . .
C28 C 0.9129(2) 0.49928(14) 0.81361(12) 0.0284(5) Uani 1 1 d . . .
H28D H 0.9057 0.5303 0.7826 0.034 Uiso 1 1 calc R . .
C29 C 0.9937(2) 0.50481(15) 0.84458(13) 0.0331(6) Uani 1 1 d . . .
H29A H 1.0416 0.5396 0.8345 0.040 Uiso 1 1 calc R . .
C30 C 1.0049(2) 0.46017(16) 0.88974(12) 0.0324(6) Uani 1 1 d . . .
H30B H 1.0598 0.4646 0.9109 0.039 Uiso 1 1 calc R . .
C31 C 0.93573(19) 0.40892(15) 0.90413(11) 0.0287(5) Uani 1 1 d . . .
H31B H 0.9433 0.3781 0.9352 0.034 Uiso 1 1 calc R . .
C32 C 0.85541(18) 0.40245(14) 0.87329(10) 0.0238(5) Uani 1 1 d . . .
H32B H 0.8089 0.3667 0.8830 0.029 Uiso 1 1 calc R . .
C33 C 0.77444(18) 0.36592(13) 0.56346(10) 0.0216(5) Uani 1 1 d . . .
C34 C 0.7836(2) 0.29839(14) 0.54927(11) 0.0295(5) Uani 1 1 d . . .
H34B H 0.7479 0.2635 0.5714 0.035 Uiso 1 1 calc R . .
C35 C 0.8443(2) 0.28105(15) 0.50305(12) 0.0334(6) Uani 1 1 d . . .
H35D H 0.8493 0.2347 0.4937 0.040 Uiso 1 1 calc R . .
C36 C 0.8974(2) 0.33119(16) 0.47091(11) 0.0305(6) Uani 1 1 d . . .
H36A H 0.9387 0.3196 0.4394 0.037 Uiso 1 1 calc R . .
C37 C 0.8898(2) 0.39839(16) 0.48507(12) 0.0340(6) Uani 1 1 d . . .
H37B H 0.9264 0.4330 0.4631 0.041 Uiso 1 1 calc R . .
C38 C 0.8291(2) 0.41598(14) 0.53108(11) 0.0292(5) Uani 1 1 d . . .
H38B H 0.8250 0.4623 0.5405 0.035 Uiso 1 1 calc R . .
C39 C 0.25591(18) 0.37603(13) 0.62598(10) 0.0229(5) Uani 1 1 d . . .
C40 C 0.2307(3) 0.30830(17) 0.62654(16) 0.0478(9) Uani 1 1 d . . .
H40B H 0.2669 0.2744 0.6468 0.057 Uiso 1 1 calc R . .
C41 C 0.1525(3) 0.28863(19) 0.59775(17) 0.0524(9) Uani 1 1 d . . .
H41B H 0.1367 0.2415 0.5982 0.063 Uiso 1 1 calc R . .
C42 C 0.0989(2) 0.33656(17) 0.56904(12) 0.0353(6) Uani 1 1 d . . .
H42D H 0.0446 0.3233 0.5502 0.042 Uiso 1 1 calc R . .
C43 C 0.1239(3) 0.40330(19) 0.56767(16) 0.0490(9) Uani 1 1 d . . .
H43A H 0.0877 0.4368 0.5470 0.059 Uiso 1 1 calc R . .
C44 C 0.2019(3) 0.42375(16) 0.59603(15) 0.0431(8) Uani 1 1 d . . .
H44A H 0.2179 0.4709 0.5947 0.052 Uiso 1 1 calc R . .
C45 C 0.46876(19) 0.58544(13) 0.72180(13) 0.0295(6) Uani 1 1 d . . .
H45A H 0.4058 0.5641 0.7217 0.035 Uiso 1 1 calc R . .
C46 C 0.47065(19) 0.65348(13) 0.73344(13) 0.0287(6) Uani 1 1 d . . .
H46A H 0.4089 0.6776 0.7412 0.034 Uiso 1 1 calc R . .
C47 C 0.64044(19) 0.65022(13) 0.72167(12) 0.0277(5) Uani 1 1 d . . .
H47A H 0.7034 0.6719 0.7209 0.033 Uiso 1 1 calc R . .
C48 C 0.63837(19) 0.58199(13) 0.70980(12) 0.0275(5) Uani 1 1 d . . .
H48A H 0.6999 0.5582 0.7007 0.033 Uiso 1 1 calc R . .
C49 C 0.33183(16) 0.81884(11) 0.74147(9) 0.0166(4) Uani 1 1 d . . .
C50 C 0.23306(18) 0.81544(13) 0.77059(10) 0.0218(5) Uani 1 1 d . . .
H50A H 0.1708 0.8254 0.7558 0.026 Uiso 1 1 calc R . .
C51 C 0.24624(18) 0.79519(13) 0.82325(10) 0.0219(5) Uani 1 1 d . . .
H51A H 0.1948 0.7874 0.8522 0.026 Uiso 1 1 calc R . .
C52 C 0.35375(16) 0.78768(11) 0.82699(9) 0.0168(4) Uani 1 1 d . . .
C53 C 0.39874(16) 0.77118(11) 0.87552(9) 0.0167(4) Uani 1 1 d . . .
C54 C 0.50266(17) 0.76538(12) 0.88006(9) 0.0172(4) Uani 1 1 d . . .
C55 C 0.54797(18) 0.75314(13) 0.93105(9) 0.0224(5) Uani 1 1 d . . .
H55A H 0.5135 0.7469 0.9664 0.027 Uiso 1 1 calc R . .
C56 C 0.64895(19) 0.75227(14) 0.91850(10) 0.0236(5) Uani 1 1 d . . .
H56A H 0.6988 0.7448 0.9434 0.028 Uiso 1 1 calc R . .
C57 C 0.66650(17) 0.76486(12) 0.85992(9) 0.0181(4) Uani 1 1 d . . .
C58 C 0.76166(17) 0.77290(12) 0.83170(9) 0.0176(4) Uani 1 1 d . . .
C59 C 0.78067(16) 0.79621(12) 0.77651(9) 0.0171(4) Uani 1 1 d . . .
C60 C 0.87845(18) 0.81340(14) 0.74984(10) 0.0234(5) Uani 1 1 d . . .
H60A H 0.9405 0.8099 0.7658 0.028 Uiso 1 1 calc R . .
C61 C 0.86492(18) 0.83556(13) 0.69731(10) 0.0232(5) Uani 1 1 d . . .
H61A H 0.9156 0.8507 0.6698 0.028 Uiso 1 1 calc R . .
C62 C 0.75909(17) 0.83159(11) 0.69160(9) 0.0173(4) Uani 1 1 d . . .
C63 C 0.71407(17) 0.85078(11) 0.64353(9) 0.0175(4) Uani 1 1 d . . .
C64 C 0.61032(17) 0.85365(11) 0.63859(9) 0.0169(4) Uani 1 1 d . . .
C65 C 0.56491(18) 0.87564(12) 0.58907(9) 0.0205(4) Uani 1 1 d . . .
H65A H 0.5993 0.8891 0.5547 0.025 Uiso 1 1 calc R . .
C66 C 0.46424(18) 0.87332(12) 0.60111(9) 0.0201(4) Uani 1 1 d . . .
H66A H 0.4145 0.8851 0.5768 0.024 Uiso 1 1 calc R . .
C67 C 0.44646(17) 0.84960(11) 0.65799(9) 0.0164(4) Uani 1 1 d . . .
C68 C 0.35083(17) 0.84076(11) 0.68613(9) 0.0171(4) Uani 1 1 d . . .
C69 C 0.32977(17) 0.76165(12) 0.92685(9) 0.0187(4) Uani 1 1 d . . .
C70 C 0.32427(19) 0.69833(13) 0.95697(10) 0.0227(5) Uani 1 1 d . . .
H70A H 0.3661 0.6610 0.9455 0.027 Uiso 1 1 calc R . .
C71 C 0.2579(2) 0.68936(14) 1.00375(10) 0.0265(5) Uani 1 1 d . . .
H71A H 0.2553 0.6462 1.0242 0.032 Uiso 1 1 calc R . .
C72 C 0.19553(19) 0.74311(14) 1.02070(10) 0.0260(5) Uani 1 1 d . . .
H72A H 0.1491 0.7366 1.0521 0.031 Uiso 1 1 calc R . .
C73 C 0.20163(18) 0.80648(14) 0.99123(10) 0.0236(5) Uani 1 1 d . . .
H73A H 0.1598 0.8437 1.0029 0.028 Uiso 1 1 calc R . .
C74 C 0.26850(18) 0.81581(13) 0.94486(9) 0.0213(5) Uani 1 1 d . . .
H74A H 0.2725 0.8595 0.9252 0.026 Uiso 1 1 calc R . .
C75 C 0.85093(17) 0.75531(13) 0.86280(9) 0.0198(4) Uani 1 1 d . . .
C76 C 0.8741(2) 0.68659(15) 0.87701(12) 0.0308(6) Uani 1 1 d . . .
H76A H 0.8326 0.6515 0.8675 0.037 Uiso 1 1 calc R . .
C77 C 0.9579(2) 0.66919(17) 0.90501(13) 0.0371(7) Uani 1 1 d . . .
H77A H 0.9730 0.6223 0.9148 0.044 Uiso 1 1 calc R . .
C78 C 1.0193(2) 0.71991(16) 0.91872(11) 0.0328(6) Uani 1 1 d . . .
H78A H 1.0770 0.7079 0.9373 0.039 Uiso 1 1 calc R . .
C79 C 0.9965(2) 0.78747(16) 0.90531(12) 0.0327(6) Uani 1 1 d . . .
H79A H 1.0382 0.8223 0.9151 0.039 Uiso 1 1 calc R . .
C80 C 0.9125(2) 0.80563(14) 0.87742(11) 0.0273(5) Uani 1 1 d . . .
H80A H 0.8974 0.8527 0.8684 0.033 Uiso 1 1 calc R . .
C81 C 0.78202(17) 0.87202(13) 0.59351(9) 0.0200(4) Uani 1 1 d . . .
C82 C 0.78892(19) 0.94076(14) 0.57448(10) 0.0250(5) Uani 1 1 d . . .
H82A H 0.7511 0.9747 0.5937 0.030 Uiso 1 1 calc R . .
C83 C 0.8505(2) 0.96036(15) 0.52770(11) 0.0287(5) Uani 1 1 d . . .
H83A H 0.8548 1.0075 0.5152 0.034 Uiso 1 1 calc R . .
C84 C 0.90542(19) 0.91137(16) 0.49928(10) 0.0284(6) Uani 1 1 d . . .
H84A H 0.9470 0.9247 0.4671 0.034 Uiso 1 1 calc R . .
C85 C 0.8996(2) 0.84286(16) 0.51781(10) 0.0293(6) Uani 1 1 d . . .
H85A H 0.9376 0.8091 0.4985 0.035 Uiso 1 1 calc R . .
C86 C 0.83819(19) 0.82329(14) 0.56471(10) 0.0245(5) Uani 1 1 d . . .
H86A H 0.8345 0.7762 0.5772 0.029 Uiso 1 1 calc R . .
C87 C 0.26200(17) 0.86067(12) 0.65539(9) 0.0187(4) Uani 1 1 d . . .
C88 C 0.19560(18) 0.81176(14) 0.64270(10) 0.0239(5) Uani 1 1 d . . .
H88A H 0.2062 0.7647 0.6538 0.029 Uiso 1 1 calc R . .
C89 C 0.11371(19) 0.83188(16) 0.61380(11) 0.0288(6) Uani 1 1 d . . .
H89A H 0.0687 0.7984 0.6052 0.035 Uiso 1 1 calc R . .
C90 C 0.0975(2) 0.90033(16) 0.59754(11) 0.0307(6) Uani 1 1 d . . .
H90A H 0.0417 0.9137 0.5778 0.037 Uiso 1 1 calc R . .
C91 C 0.1627(2) 0.94907(15) 0.61016(11) 0.0295(6) Uani 1 1 d . . .
H91A H 0.1516 0.9961 0.5991 0.035 Uiso 1 1 calc R . .
C92 C 0.24480(19) 0.92933(13) 0.63916(10) 0.0241(5) Uani 1 1 d . . .
H92A H 0.2893 0.9631 0.6479 0.029 Uiso 1 1 calc R . .
C93 C 0.6431(4) 0.7501(3) 0.1668(2) 0.0720(14) Uani 1 1 d . . .
C94 C 0.3864(6) 1.0573(2) 0.1952(3) 0.117(3) Uani 1 1 d D . .
C95 C 0.4158(8) 1.0560(2) 0.1398(3) 0.141(4) Uani 1 1 d . . .
C96 C 0.4863(6) 0.9697(3) 0.05547(18) 0.157(5) Uani 1 1 d D . .
C97 C 0.3449(7) 1.0191(3) 0.1142(2) 0.133(4) Uani 1 1 d D . .
C98 C 0.3406(3) 0.72851(19) 0.21134(18) 0.0562(10) Uani 1 1 d . . .
C99 C 0.4771(3) 0.72013(17) 0.13768(15) 0.0564(11) Uani 1 1 d D . .
C100 C 0.5869(3) 0.7949(2) 0.07974(14) 0.0563(10) Uani 1 1 d D . .
C101 C 0.4981(4) 0.7641(2) 0.08739(16) 0.0632(12) Uani 1 1 d . . .
C102 C 0.4219(5) 0.8689(2) 0.33018(13) 0.0694(14) Uani 1 1 d . . .
C103 C 0.3395(3) 0.9055(2) 0.31641(14) 0.0639(12) Uani 1 1 d D . .
C104 C 0.5453(3) 0.71272(19) 0.1757(2) 0.0663(12) Uani 1 1 d D . .
C105 C 0.3720(4) 0.7285(2) 0.15420(18) 0.0594(11) Uani 1 1 d . . .
C106 C 0.4129(3) 0.72060(17) 0.24845(16) 0.0597(11) Uani 1 1 d D . .
C107 C 0.2595(3) 0.8189(3) 0.1344(2) 0.0709(14) Uani 1 1 d . . .
C108 C 0.5922(4) 0.8653(2) 0.05666(15) 0.0676(14) Uani 1 1 d . . .
C109 C 0.2669(3) 0.8690(3) 0.28942(17) 0.0724(14) Uani 1 1 d D . .
C110 C 0.2874(3) 0.8003(2) 0.27987(18) 0.0657(12) Uani 1 1 d D . .
C111 C 0.4111(4) 0.7976(2) 0.07437(15) 0.0613(11) Uani 1 1 d D . .
C112 C 0.3807(4) 0.7655(2) 0.29327(16) 0.0823(17) Uani 1 1 d D . .
C113 C 0.2659(3) 0.7752(3) 0.2298(2) 0.0684(13) Uani 1 1 d . . .
C114 C 0.6803(4) 0.9501(3) 0.2408(2) 0.094(2) Uani 1 1 d D . .
C115 C 0.6743(3) 0.8796(3) 0.2651(2) 0.113(3) Uani 1 1 d D . .
C116 C 0.2257(4) 0.9156(3) 0.2505(2) 0.0850(17) Uani 1 1 d . . .
C117 C 0.5055(6) 0.9016(2) 0.04409(14) 0.089(2) Uani 1 1 d . . .
C118 C 0.5129(3) 0.7133(2) 0.2312(2) 0.0741(14) Uani 1 1 d D . .
C119 C 0.5591(4) 1.0430(2) 0.2179(2) 0.136(4) Uani 1 1 d D . .
C120 C 0.5550(5) 0.7909(4) 0.30050(18) 0.103(3) Uani 1 1 d . . .
C121 C 0.3412(3) 0.9727(2) 0.29456(17) 0.0796(16) Uani 1 1 d D . .
C122 C 0.2604(4) 0.8906(3) 0.1082(2) 0.093(2) Uani 1 1 d D . .
C123 C 0.5953(6) 1.0422(2) 0.1627(2) 0.106(3) Uani 1 1 d . . .
C124 C 0.3296(4) 0.7745(3) 0.1164(2) 0.0802(16) Uani 1 1 d . . .
C125 C 0.4525(4) 1.05104(19) 0.2347(2) 0.089(2) Uani 1 1 d D . .
C126 C 0.5862(5) 0.7484(3) 0.2582(3) 0.0886(18) Uani 1 1 d . . .
C127 C 0.6635(4) 0.7692(3) 0.2193(2) 0.0778(16) Uani 1 1 d . . .
C128 C 0.6003(4) 0.9958(3) 0.2583(2) 0.158(4) Uani 1 1 d D . .
C129 C 0.6602(3) 0.7881(3) 0.12020(19) 0.0789(15) Uani 1 1 d D . .
C130 C 0.5223(4) 0.9729(3) 0.30012(17) 0.0840(19) Uani 1 1 d D . .
C131 C 0.4103(4) 0.8645(3) 0.05317(16) 0.093(2) Uani 1 1 d D . .
C132 C 0.2230(3) 0.8223(3) 0.1905(2) 0.0725(14) Uani 1 1 d . . .
C133 C 0.3783(6) 0.9778(3) 0.07319(17) 0.101(2) Uani 1 1 d D . .
C134 C 0.7082(3) 0.8318(3) 0.2243(3) 0.0843(18) Uani 1 1 d D . .
C135 C 0.5522(5) 1.0065(2) 0.08072(16) 0.115(3) Uani 1 1 d D . .
C136 C 0.6725(5) 0.9934(3) 0.1443(2) 0.100(2) Uani 1 1 d . . .
C137 C 0.2699(4) 0.9796(3) 0.25311(19) 0.0918(19) Uani 1 1 d D . .
C138 C 0.5193(7) 1.0502(2) 0.1243(2) 0.111(3) Uani 1 1 d D . .
C139 C 0.7162(4) 0.9449(4) 0.1848(2) 0.095(2) Uani 1 1 d . . .
C140 C 0.5203(5) 0.9025(4) 0.32216(18) 0.103(3) Uani 1 1 d D . .
C141 C 0.3352(5) 0.9146(3) 0.0701(2) 0.108(3) Uani 1 1 d D . .
C142 C 0.4495(6) 0.7998(3) 0.31776(17) 0.128(3) Uani 1 1 d D . .
C143 C 0.4298(4) 1.0068(2) 0.2856(2) 0.091(2) Uani 1 1 d D . .
C144 C 0.5994(4) 0.8551(3) 0.30328(18) 0.123(3) Uani 1 1 d D . .
C145 C 0.2039(3) 0.8924(4) 0.2005(2) 0.0860(18) Uani 1 1 d . . .
C146 C 0.6443(4) 0.9689(3) 0.0926(2) 0.102(2) Uani 1 1 d D . .
C147 C 0.2281(4) 0.9376(3) 0.1513(3) 0.092(2) Uani 1 1 d . . .
C148 C 0.7329(3) 0.8759(4) 0.1741(3) 0.096(2) Uani 1 1 d . . .
C149 C 0.6699(4) 0.9005(3) 0.0841(2) 0.0886(19) Uani 1 1 d . . .
C150 C 0.2896(5) 1.0203(3) 0.2059(2) 0.100(2) Uani 1 1 d D . .
C151 C 0.7089(3) 0.8530(3) 0.1219(3) 0.093(2) Uani 1 1 d . . .
C152 C 0.2698(6) 0.9988(4) 0.1549(2) 0.114(3) Uani 1 1 d . . .
N1S N 0.2526(3) 0.8787(3) 0.4695(3) 0.0524(18) Uani 0.44 1 d PD . .
N2S N 0.7592(9) 0.3761(9) 0.2261(5) 0.082(7) Uani 0.22 1 d PD . .
C1S C 0.45052(11) 0.87576(9) 0.46096(8) 0.0388(7) Uani 1 1 d G . .
C2S C 0.50206(15) 0.93701(7) 0.45261(8) 0.0340(6) Uani 1 1 d G . .
H2SA H 0.4660 0.9796 0.4530 0.041 Uiso 1 1 calc R . .
C3S C 0.60632(15) 0.93594(9) 0.44365(8) 0.0499(9) Uani 1 1 d G . .
H3SA H 0.6415 0.9778 0.4379 0.060 Uiso 1 1 calc R . .
C4S C 0.65904(11) 0.87361(12) 0.44304(9) 0.0429(7) Uani 1 1 d G . .
H4SA H 0.7303 0.8729 0.4369 0.051 Uiso 1 1 calc R . .
C5S C 0.60750(15) 0.81235(9) 0.45139(9) 0.0484(8) Uani 1 1 d G . .
H5SA H 0.6435 0.7698 0.4510 0.058 Uiso 1 1 calc R . .
C6S C 0.50324(15) 0.81343(8) 0.46035(9) 0.0342(6) Uani 1 1 d G . .
H6SA H 0.4680 0.7716 0.4661 0.041 Uiso 1 1 calc R . .
C7S C 0.3415(3) 0.87673(17) 0.46997(13) 0.0428(8) Uani 1 1 d D . .
H7SA H 0.3170 0.9234 0.4693 0.064 Uiso 0.56 1 d PR . .
H7SB H 0.3144 0.8539 0.4417 0.064 Uiso 0.56 1 d PR . .
H7SC H 0.3211 0.8535 0.5047 0.064 Uiso 0.56 1 d PR . .
C8S C 0.99057(19) 0.95517(14) 0.29302(10) 0.0626(12) Uani 1 1 d G . .
C9S C 1.04547(18) 0.96320(12) 0.33709(11) 0.0597(11) Uani 1 1 d G . .
H9SA H 1.0658 1.0076 0.3442 0.072 Uiso 1 1 calc R . .
C10S C 1.07058(17) 0.90629(16) 0.37072(9) 0.0582(11) Uani 1 1 d G . .
H10A H 1.1081 0.9118 0.4008 0.070 Uiso 1 1 calc R . .
C11S C 1.0408(2) 0.84135(13) 0.36029(11) 0.0719(13) Uani 1 1 d G . .
H11A H 1.0580 0.8025 0.3833 0.086 Uiso 1 1 calc R . .
C12S C 0.9859(2) 0.83332(13) 0.31622(13) 0.0830(17) Uani 1 1 d G . .
H12A H 0.9656 0.7889 0.3091 0.100 Uiso 1 1 calc R . .
C13S C 0.9608(2) 0.89023(17) 0.28259(10) 0.0687(13) Uani 1 1 d G . .
H13A H 0.9233 0.8847 0.2525 0.082 Uiso 1 1 calc R . .
C14S C 0.9671(4) 1.0166(3) 0.2566(2) 0.0811(15) Uani 1 1 d . . .
H14A H 0.9367 1.0528 0.2786 0.122 Uiso 1 1 calc R . .
H14B H 0.9200 1.0042 0.2311 0.122 Uiso 1 1 calc R . .
H14C H 1.0292 1.0333 0.2362 0.122 Uiso 1 1 calc R . .
C15S C 1.05543(19) 0.25293(14) 0.85575(10) 0.0574(10) Uani 1 1 d G . .
C16S C 1.10734(18) 0.28342(11) 0.89343(11) 0.0502(9) Uani 1 1 d G . .
H16A H 1.1357 0.3273 0.8845 0.060 Uiso 1 1 calc R . .
C17S C 1.1178(2) 0.24966(16) 0.94420(10) 0.0827(18) Uani 1 1 d G . .
H17A H 1.1532 0.2705 0.9700 0.099 Uiso 1 1 calc R . .
C18S C 1.0763(3) 0.18541(16) 0.95731(12) 0.109(3) Uani 1 1 d G . .
H18A H 1.0834 0.1623 0.9920 0.131 Uiso 1 1 calc R . .
C19S C 1.0244(2) 0.15492(11) 0.91963(17) 0.101(2) Uani 1 1 d G . .
H19A H 0.9960 0.1110 0.9286 0.122 Uiso 1 1 calc R . .
C20S C 1.01395(19) 0.18868(14) 0.86885(15) 0.0744(15) Uani 1 1 d G . .
H20A H 0.9785 0.1678 0.8431 0.089 Uiso 1 1 calc R . .
C21S C 1.0452(3) 0.2886(3) 0.8022(2) 0.0765(14) Uani 1 1 d . . .
H21A H 1.0381 0.3381 0.8059 0.115 Uiso 1 1 calc R . .
H21B H 0.9857 0.2722 0.7872 0.115 Uiso 1 1 calc R . .
H21C H 1.1051 0.2792 0.7776 0.115 Uiso 1 1 calc R . .
C22S C 0.91023(15) 0.38372(12) 0.29003(11) 0.0528(9) Uani 1 1 d G . .
C23S C 0.98593(18) 0.33355(11) 0.29172(12) 0.0581(10) Uani 1 1 d G . .
H23A H 0.9815 0.2932 0.2730 0.070 Uiso 1 1 calc R . .
C24S C 1.06809(16) 0.34242(13) 0.32083(12) 0.0621(11) Uani 1 1 d G . .
H24A H 1.1198 0.3081 0.3220 0.075 Uiso 1 1 calc R . .
C25S C 1.07455(17) 0.40146(14) 0.34826(10) 0.0593(11) Uani 1 1 d G . .
H25A H 1.1307 0.4075 0.3682 0.071 Uiso 1 1 calc R . .
C26S C 0.9989(2) 0.45163(11) 0.34657(10) 0.0624(11) Uani 1 1 d G . .
H26A H 1.0033 0.4920 0.3653 0.075 Uiso 1 1 calc R . .
C27S C 0.91669(18) 0.44276(11) 0.31746(11) 0.0563(10) Uani 1 1 d G . .
H27A H 0.8650 0.4770 0.3163 0.068 Uiso 1 1 calc R . .
C28S C 0.8220(3) 0.3748(2) 0.2582(2) 0.0686(13) Uani 1 1 d D . .
H28A H 0.7773 0.4139 0.2615 0.103 Uiso 0.78 1 d PR . .
H28B H 0.8445 0.3708 0.2205 0.103 Uiso 0.78 1 d PR . .
H28C H 0.7873 0.3341 0.2725 0.103 Uiso 0.78 1 d PR . .
C29S C 0.4697(3) 0.63026(18) 0.5865(3) 0.083(3) Uiso 0.50 1 d PGD A 1
C30S C 0.5241(5) 0.69005(17) 0.5850(3) 0.077(4) Uani 0.50 1 d PG A 1
H30A H 0.4907 0.7321 0.5933 0.092 Uiso 0.50 1 calc PR A 1
C31S C 0.6274(5) 0.6884(3) 0.5714(3) 0.079(3) Uani 0.50 1 d PG A 1
H31A H 0.6646 0.7292 0.5703 0.095 Uiso 0.50 1 calc PR A 1
C32S C 0.6763(3) 0.6269(4) 0.5592(3) 0.061(4) Uani 0.50 1 d PG A 1
H32A H 0.7469 0.6257 0.5499 0.073 Uiso 0.50 1 calc PR A 1
C33S C 0.6218(4) 0.5671(3) 0.5608(2) 0.234(17) Uani 0.50 1 d PG A 1
H33A H 0.6552 0.5251 0.5525 0.281 Uiso 0.50 1 calc PR A 1
C34S C 0.5185(4) 0.56877(15) 0.57439(19) 0.042(3) Uani 0.50 1 d PG A 1
H34A H 0.4813 0.5279 0.5754 0.050 Uiso 0.50 1 calc PR A 1
C35S C 0.3635(4) 0.6185(6) 0.6012(5) 0.087(4) Uiso 0.50 1 d PD A 1
H35A H 0.3239 0.6570 0.5860 0.131 Uiso 0.50 1 calc PR A 1
H35B H 0.3502 0.6145 0.6410 0.131 Uiso 0.50 1 calc PR A 1
H35C H 0.3447 0.5759 0.5865 0.131 Uiso 0.50 1 calc PR A 1
C36S C 0.56043(19) 0.62339(17) 0.57566(16) 0.0262(10) Uani 0.50 1 d PGD B 2
C37S C 0.5098(2) 0.68548(13) 0.58361(15) 0.0188(13) Uani 0.50 1 d PGU B 2
H37A H 0.5466 0.7263 0.5841 0.023 Uiso 0.50 1 calc PR B 2
C38S C 0.4054(2) 0.68787(15) 0.59080(16) 0.0293(11) Uani 0.50 1 d PG B 2
H38A H 0.3709 0.7303 0.5962 0.035 Uiso 0.50 1 calc PR B 2
C39S C 0.35160(19) 0.6282(2) 0.59002(16) 0.043(2) Uani 0.50 1 d PG B 2
H39A H 0.2802 0.6298 0.5949 0.051 Uiso 0.50 1 calc PR B 2
C40S C 0.4022(3) 0.56608(15) 0.58206(18) 0.0368(13) Uani 0.50 1 d PG B 2
H40A H 0.3654 0.5253 0.5815 0.044 Uiso 0.50 1 calc PR B 2
C41S C 0.5066(3) 0.56369(13) 0.57488(19) 0.064(4) Uiso 0.50 1 d PGD B 2
H41A H 0.5412 0.5212 0.5694 0.077 Uiso 0.50 1 calc PR B 2
C42S C 0.6698(3) 0.6265(6) 0.5700(5) 0.079(5) Uiso 0.50 1 d PD B 2
H42A H 0.6921 0.6497 0.6004 0.118 Uiso 0.50 1 calc PR B 2
H42B H 0.6921 0.6521 0.5355 0.118 Uiso 0.50 1 calc PR B 2
H42C H 0.6987 0.5799 0.5702 0.118 Uiso 0.50 1 calc PR B 2
C43S C 1.0622(18) -0.0320(13) 0.8934(6) 0.081(6) Uiso 0.25 1 d PD C 1
C44S C 1.0297(7) -0.0201(7) 0.9495(5) 0.092(4) Uiso 0.50 1 d PD . 1
C45S C 0.9250(7) -0.0208(6) 0.9569(4) 0.071(3) Uiso 0.50 1 d PD D 1
C46S C 0.8980(7) 0.0005(4) 1.0088(4) 0.0561(19) Uiso 0.50 1 d PD . 1
C47S C 0.9235(5) -0.0017(4) 0.9824(3) 0.0424(15) Uiso 0.50 1 d PD . 2
C48S C 0.8945(9) 0.0215(6) 1.0334(4) 0.035(2) Uiso 0.25 1 d PD . 2
C49S C 0.9620(11) -0.0288(13) 0.9341(6) 0.091(7) Uiso 0.25 1 d PD E 2
C50S C 1.0642(10) -0.0299(8) 0.9173(5) 0.099(4) Uiso 0.50 1 d PD . 2
C51S C 1.0269(5) -0.0045(6) 0.9691(4) 0.032(3) Uiso 0.25 1 d PD . 2
loop_
_atom_site_aniso_label
_atom_site_aniso_U_11
_atom_site_aniso_U_22
_atom_site_aniso_U_33
_atom_site_aniso_U_23
_atom_site_aniso_U_13
_atom_site_aniso_U_12
Zn1 0.01677(13) 0.01398(12) 0.01755(13) -0.00152(9) 0.00052(9) -0.00005(9)
Zn2 0.01415(12) 0.01388(12) 0.01304(12) -0.00046(8) -0.00161(9) -0.00032(9)
N1 0.0171(9) 0.0170(9) 0.0206(9) -0.0018(7) 0.0001(7) 0.0001(7)
N2 0.0181(9) 0.0160(9) 0.0197(9) -0.0014(7) 0.0009(7) -0.0007(7)
N3 0.0186(9) 0.0169(9) 0.0180(9) -0.0017(7) 0.0012(7) 0.0000(7)
N4 0.0188(9) 0.0169(9) 0.0180(9) -0.0013(7) 0.0000(7) 0.0001(7)
N5 0.0221(10) 0.0158(9) 0.0177(9) -0.0009(7) -0.0016(7) -0.0005(7)
N6 0.0184(9) 0.0164(9) 0.0156(9) 0.0002(7) -0.0024(7) -0.0001(7)
N7 0.0153(8) 0.0153(9) 0.0154(8) -0.0008(7) -0.0015(7) -0.0001(7)
N8 0.0150(9) 0.0187(9) 0.0158(9) -0.0008(7) -0.0020(7) -0.0008(7)
N9 0.0157(9) 0.0167(9) 0.0148(8) -0.0005(7) -0.0004(7) 0.0000(7)
N10 0.0160(9) 0.0156(9) 0.0137(8) -0.0007(6) -0.0011(7) 0.0000(7)
C1 0.0181(10) 0.0170(10) 0.0234(11) 0.0000(8) -0.0017(9) 0.0011(8)
C2 0.0173(11) 0.0256(12) 0.0279(12) -0.0021(9) -0.0018(9) 0.0005(9)
C3 0.0182(11) 0.0248(12) 0.0264(12) -0.0029(9) 0.0013(9) 0.0015(9)
C4 0.0180(11) 0.0163(10) 0.0231(11) -0.0032(8) 0.0015(8) 0.0020(8)
C5 0.0192(11) 0.0179(11) 0.0220(11) -0.0037(8) 0.0025(9) 0.0009(8)
C6 0.0222(11) 0.0179(10) 0.0194(11) -0.0035(8) 0.0011(9) 0.0008(8)
C7 0.0254(12) 0.0339(14) 0.0231(12) -0.0107(10) -0.0005(10) 0.0012(10)
C8 0.0227(12) 0.0325(13) 0.0229(12) -0.0101(10) -0.0014(9) 0.0007(10)
C9 0.0207(11) 0.0175(10) 0.0194(11) -0.0020(8) -0.0008(8) -0.0016(8)
C10 0.0187(11) 0.0184(11) 0.0210(11) -0.0003(8) -0.0005(8) -0.0024(8)
C11 0.0177(10) 0.0179(10) 0.0216(11) -0.0004(8) 0.0009(8) -0.0017(8)
C12 0.0185(11) 0.0312(13) 0.0249(12) -0.0040(10) 0.0013(9) -0.0011(9)
C13 0.0193(11) 0.0317(13) 0.0264(12) -0.0059(10) 0.0032(9) 0.0011(9)
C14 0.0193(11) 0.0174(10) 0.0206(11) -0.0001(8) 0.0025(8) -0.0003(8)
C15 0.0219(11) 0.0164(10) 0.0190(10) -0.0009(8) 0.0030(8) 0.0002(8)
C16 0.0228(11) 0.0164(10) 0.0188(11) -0.0005(8) 0.0014(8) -0.0004(8)
C17 0.0260(12) 0.0246(12) 0.0188(11) -0.0026(9) -0.0009(9) 0.0002(9)
C18 0.0257(12) 0.0255(12) 0.0200(11) -0.0032(9) -0.0031(9) -0.0001(9)
C19 0.0218(11) 0.0186(11) 0.0197(11) -0.0003(8) -0.0017(9) 0.0003(8)
C20 0.0213(11) 0.0184(11) 0.0209(11) -0.0002(8) -0.0035(9) 0.0003(8)
C21 0.0194(11) 0.0287(13) 0.0238(12) -0.0095(9) 0.0023(9) -0.0011(9)
C22 0.0470(18) 0.0384(16) 0.0302(15) -0.0029(12) 0.0126(13) 0.0081(13)
C23 0.053(2) 0.057(2) 0.0283(15) -0.0027(14) 0.0128(14) 0.0030(16)
C24 0.0269(14) 0.065(2) 0.0298(14) -0.0250(14) 0.0056(11) -0.0026(13)
C25 0.0195(12) 0.0449(17) 0.0466(17) -0.0280(14) -0.0008(11) 0.0015(11)
C26 0.0214(12) 0.0305(14) 0.0351(14) -0.0132(11) -0.0002(10) 0.0001(10)
C27 0.0183(11) 0.0243(12) 0.0215(11) -0.0066(9) 0.0004(9) -0.0014(9)
C28 0.0241(12) 0.0287(13) 0.0321(14) -0.0029(10) 0.0008(10) -0.0047(10)
C29 0.0230(13) 0.0359(15) 0.0415(16) -0.0114(12) 0.0013(11) -0.0097(11)
C30 0.0201(12) 0.0470(17) 0.0324(14) -0.0181(12) -0.0026(10) -0.0022(11)
C31 0.0220(12) 0.0428(15) 0.0216(12) -0.0060(11) -0.0024(9) 0.0017(11)
C32 0.0184(11) 0.0317(13) 0.0212(11) -0.0042(9) 0.0006(9) -0.0026(9)
C33 0.0198(11) 0.0270(12) 0.0175(10) -0.0026(9) 0.0015(8) 0.0010(9)
C34 0.0326(14) 0.0267(13) 0.0277(13) -0.0047(10) 0.0076(11) -0.0011(10)
C35 0.0354(15) 0.0316(14) 0.0324(14) -0.0110(11) 0.0067(11) 0.0038(11)
C36 0.0250(13) 0.0455(16) 0.0206(12) -0.0068(11) 0.0026(10) 0.0030(11)
C37 0.0325(14) 0.0388(16) 0.0278(14) 0.0007(11) 0.0095(11) -0.0022(12)
C38 0.0317(14) 0.0276(13) 0.0266(13) -0.0022(10) 0.0063(10) -0.0025(10)
C39 0.0205(11) 0.0274(12) 0.0211(11) -0.0031(9) -0.0022(9) 0.0003(9)
C40 0.053(2) 0.0317(16) 0.064(2) 0.0078(15) -0.0366(18) -0.0089(14)
C41 0.053(2) 0.0374(18) 0.071(3) 0.0022(16) -0.0323(19) -0.0126(15)
C42 0.0249(13) 0.0486(18) 0.0347(15) -0.0116(13) -0.0091(11) 0.0005(12)
C43 0.0431(19) 0.047(2) 0.061(2) -0.0007(16) -0.0317(17) 0.0066(15)
C44 0.0421(17) 0.0293(15) 0.062(2) 0.0005(14) -0.0277(16) 0.0005(12)
C45 0.0187(12) 0.0174(11) 0.0532(17) -0.0051(11) -0.0064(11) -0.0005(9)
C46 0.0177(11) 0.0183(12) 0.0506(17) -0.0064(11) -0.0028(11) 0.0023(9)
C47 0.0167(11) 0.0188(11) 0.0471(16) -0.0056(10) 0.0031(10) -0.0030(9)
C48 0.0187(11) 0.0177(11) 0.0445(15) -0.0047(10) 0.0068(10) 0.0001(9)
C49 0.0157(10) 0.0177(10) 0.0165(10) -0.0019(8) -0.0020(8) -0.0002(8)
C50 0.0159(10) 0.0303(13) 0.0195(11) -0.0016(9) -0.0029(8) -0.0006(9)
C51 0.0174(11) 0.0292(12) 0.0188(11) -0.0002(9) -0.0007(8) -0.0015(9)
C52 0.0156(10) 0.0176(10) 0.0171(10) -0.0007(8) -0.0008(8) -0.0010(8)
C53 0.0168(10) 0.0183(10) 0.0145(10) -0.0003(8) 0.0004(8) -0.0016(8)
C54 0.0183(10) 0.0196(10) 0.0138(10) -0.0005(8) -0.0023(8) -0.0016(8)
C55 0.0220(11) 0.0309(13) 0.0145(10) -0.0001(9) -0.0031(8) -0.0017(9)
C56 0.0220(11) 0.0335(13) 0.0153(10) 0.0010(9) -0.0042(9) -0.0010(9)
C57 0.0182(10) 0.0200(11) 0.0163(10) 0.0006(8) -0.0034(8) -0.0013(8)
C58 0.0159(10) 0.0195(11) 0.0179(10) -0.0010(8) -0.0041(8) 0.0000(8)
C59 0.0150(10) 0.0190(10) 0.0174(10) -0.0026(8) -0.0017(8) 0.0004(8)
C60 0.0158(10) 0.0324(13) 0.0215(11) 0.0003(9) -0.0012(9) -0.0007(9)
C61 0.0168(11) 0.0311(13) 0.0207(11) 0.0011(9) 0.0012(9) -0.0012(9)
C62 0.0169(10) 0.0178(10) 0.0167(10) -0.0009(8) 0.0008(8) -0.0002(8)
C63 0.0184(10) 0.0181(10) 0.0152(10) -0.0007(8) 0.0018(8) 0.0006(8)
C64 0.0195(10) 0.0168(10) 0.0139(10) -0.0008(8) -0.0001(8) 0.0011(8)
C65 0.0227(11) 0.0242(11) 0.0139(10) 0.0009(8) -0.0012(8) 0.0005(9)
C66 0.0220(11) 0.0247(11) 0.0135(10) 0.0000(8) -0.0037(8) 0.0014(9)
C67 0.0195(10) 0.0157(10) 0.0143(10) -0.0015(7) -0.0035(8) -0.0001(8)
C68 0.0181(10) 0.0170(10) 0.0167(10) -0.0012(8) -0.0048(8) 0.0007(8)
C69 0.0160(10) 0.0261(12) 0.0142(10) -0.0002(8) -0.0021(8) -0.0035(8)
C70 0.0245(12) 0.0251(12) 0.0183(11) -0.0012(9) -0.0004(9) -0.0023(9)
C71 0.0315(13) 0.0294(13) 0.0179(11) 0.0027(9) 0.0008(10) -0.0078(10)
C72 0.0228(12) 0.0380(14) 0.0170(11) -0.0027(10) 0.0015(9) -0.0085(10)
C73 0.0173(11) 0.0347(13) 0.0195(11) -0.0062(9) -0.0018(9) 0.0000(9)
C74 0.0193(11) 0.0268(12) 0.0178(11) -0.0006(9) -0.0022(8) -0.0015(9)
C75 0.0161(10) 0.0276(12) 0.0162(10) -0.0011(8) -0.0040(8) 0.0008(9)
C76 0.0306(14) 0.0305(14) 0.0332(14) -0.0025(11) -0.0136(11) 0.0019(11)
C77 0.0369(16) 0.0379(16) 0.0386(16) -0.0032(12) -0.0185(13) 0.0111(12)
C78 0.0226(12) 0.0500(17) 0.0272(13) -0.0039(12) -0.0110(10) 0.0071(11)
C79 0.0225(13) 0.0458(17) 0.0319(14) -0.0051(12) -0.0098(11) -0.0050(11)
C80 0.0237(12) 0.0317(14) 0.0276(13) -0.0016(10) -0.0075(10) -0.0027(10)
C81 0.0176(10) 0.0270(12) 0.0149(10) 0.0009(8) -0.0010(8) 0.0005(9)
C82 0.0244(12) 0.0276(13) 0.0216(11) 0.0011(9) 0.0039(9) -0.0003(9)
C83 0.0249(12) 0.0356(14) 0.0238(12) 0.0082(10) 0.0006(10) -0.0035(10)
C84 0.0181(11) 0.0510(17) 0.0150(11) 0.0034(10) -0.0001(9) -0.0026(11)
C85 0.0222(12) 0.0449(16) 0.0201(12) -0.0059(11) 0.0018(9) 0.0067(11)
C86 0.0218(11) 0.0292(13) 0.0217(11) -0.0023(9) 0.0009(9) 0.0034(9)
C87 0.0164(10) 0.0261(12) 0.0139(10) -0.0014(8) -0.0037(8) 0.0003(8)
C88 0.0205(11) 0.0293(13) 0.0227(11) -0.0050(9) -0.0034(9) -0.0015(9)
C89 0.0187(11) 0.0453(16) 0.0244(12) -0.0114(11) -0.0048(9) -0.0040(10)
C90 0.0206(12) 0.0519(17) 0.0199(12) -0.0010(11) -0.0068(9) 0.0045(11)
C91 0.0255(13) 0.0355(14) 0.0267(13) 0.0059(11) -0.0066(10) 0.0045(10)
C92 0.0214(11) 0.0273(12) 0.0240(12) 0.0009(9) -0.0065(9) 0.0013(9)
C93 0.065(3) 0.071(3) 0.083(3) -0.028(3) -0.020(2) 0.044(2)
C94 0.185(8) 0.024(2) 0.141(7) -0.026(3) -0.001(6) 0.028(3)
C95 0.293(12) 0.022(2) 0.091(5) 0.020(3) 0.030(6) 0.052(4)
C96 0.359(14) 0.066(4) 0.031(2) 0.024(2) 0.034(5) 0.028(6)
C97 0.242(11) 0.047(3) 0.116(6) 0.011(4) -0.082(7) 0.060(5)
C98 0.062(2) 0.0380(19) 0.067(3) -0.0032(17) 0.013(2) -0.0267(17)
C99 0.086(3) 0.0235(15) 0.057(2) -0.0166(15) 0.019(2) -0.0100(16)
C100 0.070(3) 0.060(2) 0.0387(19) -0.0269(17) 0.0095(18) 0.011(2)
C101 0.108(4) 0.044(2) 0.0380(19) -0.0220(16) 0.011(2) -0.012(2)
C102 0.127(5) 0.068(3) 0.0117(14) -0.0045(15) -0.0003(19) -0.003(3)
C103 0.089(3) 0.070(3) 0.0286(17) -0.0144(17) 0.0268(19) -0.009(2)
C104 0.076(3) 0.0259(17) 0.098(4) -0.0122(19) -0.011(3) 0.0143(18)
C105 0.079(3) 0.043(2) 0.063(2) -0.0175(18) -0.022(2) -0.0245(19)
C106 0.106(4) 0.0237(16) 0.047(2) 0.0102(14) 0.000(2) -0.0169(19)
C107 0.043(2) 0.086(3) 0.093(4) -0.047(3) -0.026(2) 0.003(2)
C108 0.095(3) 0.071(3) 0.0335(18) -0.0248(19) 0.038(2) -0.035(3)
C109 0.054(2) 0.108(4) 0.051(2) -0.019(3) 0.033(2) -0.012(3)
C110 0.066(3) 0.070(3) 0.056(2) 0.001(2) 0.026(2) -0.023(2)
C111 0.075(3) 0.079(3) 0.0354(19) -0.030(2) -0.0130(19) -0.002(2)
C112 0.147(5) 0.062(3) 0.033(2) 0.0201(19) 0.012(3) -0.036(3)
C113 0.058(3) 0.076(3) 0.069(3) -0.010(2) 0.018(2) -0.038(2)
C114 0.051(3) 0.139(6) 0.103(4) -0.074(4) -0.005(3) -0.034(3)
C115 0.058(3) 0.194(9) 0.094(5) 0.005(5) -0.051(3) -0.044(4)
C116 0.051(3) 0.108(4) 0.096(4) -0.049(4) 0.021(3) 0.018(3)
C117 0.194(7) 0.053(3) 0.0136(15) 0.0055(15) 0.008(2) 0.025(3)
C118 0.115(4) 0.0256(18) 0.078(3) 0.0163(19) -0.013(3) 0.014(2)
C119 0.270(10) 0.068(3) 0.071(4) -0.033(3) 0.035(5) -0.116(5)
C120 0.112(5) 0.156(6) 0.031(2) 0.036(3) -0.005(3) 0.073(5)
C121 0.120(4) 0.067(3) 0.050(2) -0.034(2) 0.025(3) 0.011(3)
C122 0.085(4) 0.140(6) 0.062(3) -0.020(3) -0.051(3) 0.041(4)
C123 0.192(7) 0.046(3) 0.076(3) -0.020(3) 0.046(4) -0.077(4)
C124 0.076(3) 0.080(3) 0.096(4) -0.041(3) -0.035(3) -0.009(3)
C125 0.164(6) 0.0262(19) 0.073(3) -0.031(2) 0.046(4) -0.028(3)
C126 0.091(4) 0.074(3) 0.100(4) 0.030(3) -0.042(4) 0.031(3)
C127 0.064(3) 0.088(4) 0.088(4) -0.019(3) -0.042(3) 0.043(3)
C128 0.170(8) 0.210(9) 0.111(6) -0.097(6) 0.012(5) -0.142(8)
C129 0.062(3) 0.084(4) 0.087(4) -0.027(3) 0.020(3) 0.025(3)
C130 0.098(4) 0.116(5) 0.046(2) -0.053(3) 0.004(3) -0.049(4)
C131 0.115(5) 0.137(5) 0.033(2) -0.039(3) -0.039(3) 0.060(4)
C132 0.0277(18) 0.117(4) 0.075(3) -0.025(3) -0.0015(18) -0.012(2)
C133 0.160(6) 0.101(5) 0.035(2) 0.029(3) -0.013(3) 0.061(4)
C134 0.038(2) 0.103(4) 0.124(5) -0.053(4) -0.040(3) 0.019(2)
C135 0.250(10) 0.056(3) 0.036(2) 0.023(2) 0.007(4) -0.068(5)
C136 0.116(5) 0.098(4) 0.083(4) -0.024(3) 0.039(4) -0.087(4)
C137 0.089(4) 0.098(4) 0.087(4) -0.036(3) 0.010(3) 0.056(3)
C138 0.218(9) 0.021(2) 0.081(4) 0.017(2) 0.044(5) -0.018(3)
C139 0.067(3) 0.138(5) 0.084(4) -0.034(4) 0.015(3) -0.075(4)
C140 0.116(5) 0.170(7) 0.034(2) -0.058(3) -0.044(3) 0.061(5)
C141 0.157(7) 0.115(5) 0.059(3) -0.004(3) -0.064(4) 0.064(5)
C142 0.286(11) 0.071(4) 0.0214(19) 0.015(2) 0.001(4) -0.002(5)
C143 0.159(6) 0.054(3) 0.061(3) -0.044(2) 0.031(3) -0.029(3)
C144 0.199(9) 0.103(5) 0.087(5) -0.016(4) -0.117(6) 0.005(5)
C145 0.0288(19) 0.141(5) 0.094(4) -0.046(4) -0.015(2) 0.023(3)
C146 0.147(6) 0.067(3) 0.079(4) -0.002(3) 0.070(4) -0.056(4)
C147 0.077(3) 0.099(4) 0.109(5) -0.035(4) -0.048(3) 0.064(3)
C148 0.027(2) 0.138(6) 0.129(5) -0.062(5) 0.011(2) -0.021(3)
C149 0.088(4) 0.093(4) 0.077(3) -0.025(3) 0.060(3) -0.038(3)
C150 0.113(5) 0.071(4) 0.121(5) -0.042(4) -0.021(4) 0.067(4)
C151 0.040(2) 0.111(5) 0.127(5) -0.063(4) 0.046(3) -0.022(3)
C152 0.152(6) 0.110(5) 0.073(4) -0.002(4) -0.021(4) 0.106(5)
N1S 0.077(5) 0.036(3) 0.041(4) -0.002(3) 0.008(4) 0.005(3)
N2S 0.051(10) 0.053(9) 0.129(18) 0.011(10) 0.036(11) 0.016(8)
C1S 0.057(2) 0.0362(16) 0.0252(13) -0.0014(11) -0.0127(13) -0.0032(14)
C2S 0.0565(19) 0.0269(13) 0.0195(12) -0.0003(10) -0.0083(12) -0.0036(12)
C3S 0.072(3) 0.055(2) 0.0244(14) 0.0006(14) -0.0078(15) -0.0269(19)
C4S 0.0446(18) 0.060(2) 0.0255(14) -0.0058(13) -0.0054(12) -0.0062(15)
C5S 0.060(2) 0.050(2) 0.0367(17) -0.0057(14) -0.0111(16) 0.0058(17)
C6S 0.0490(17) 0.0259(13) 0.0292(14) -0.0018(10) -0.0104(12) -0.0023(12)
C7S 0.062(2) 0.0356(16) 0.0332(15) -0.0047(12) -0.0177(15) -0.0017(15)
C8S 0.0342(18) 0.090(3) 0.064(3) -0.026(2) 0.0104(17) -0.0071(19)
C9S 0.0327(17) 0.084(3) 0.066(3) -0.040(2) 0.0093(17) -0.0014(18)
C10S 0.0330(17) 0.098(3) 0.044(2) -0.030(2) 0.0124(15) -0.0005(19)
C11S 0.059(3) 0.092(4) 0.061(3) -0.012(2) 0.019(2) -0.008(2)
C12S 0.078(3) 0.099(4) 0.075(3) -0.035(3) 0.012(3) -0.039(3)
C13S 0.052(2) 0.094(4) 0.062(3) -0.027(2) 0.009(2) -0.032(2)
C14S 0.047(2) 0.112(4) 0.080(3) -0.004(3) 0.009(2) 0.009(3)
C15S 0.0346(18) 0.058(2) 0.078(3) -0.014(2) 0.0061(18) 0.0112(16)
C16S 0.0401(18) 0.0367(18) 0.073(3) -0.0034(17) -0.0053(17) 0.0083(14)
C17S 0.065(3) 0.065(3) 0.103(4) 0.022(3) 0.042(3) 0.035(2)
C18S 0.103(5) 0.090(4) 0.111(5) 0.030(4) 0.072(4) 0.054(4)
C19S 0.075(4) 0.083(4) 0.126(5) 0.018(4) 0.063(4) 0.026(3)
C20S 0.038(2) 0.062(3) 0.124(4) -0.038(3) 0.013(2) 0.0053(18)
C21S 0.047(2) 0.077(3) 0.104(4) -0.019(3) 0.007(2) -0.005(2)
C22S 0.0421(19) 0.0402(19) 0.071(3) 0.0110(17) 0.0107(17) 0.0003(15)
C23S 0.0359(18) 0.048(2) 0.090(3) -0.006(2) -0.0028(19) 0.0054(15)
C24S 0.0360(19) 0.068(3) 0.080(3) 0.000(2) 0.0042(18) 0.0054(18)
C25S 0.049(2) 0.074(3) 0.050(2) 0.012(2) 0.0098(17) -0.013(2)
C26S 0.082(3) 0.051(2) 0.050(2) 0.0076(17) 0.013(2) -0.013(2)
C27S 0.059(2) 0.044(2) 0.059(2) 0.0130(17) 0.0113(19) 0.0069(17)
C28S 0.049(2) 0.055(2) 0.095(4) 0.022(2) 0.001(2) 0.0053(19)
C30S 0.104(9) 0.079(10) 0.049(7) 0.003(6) -0.022(6) -0.020(7)
C31S 0.100(9) 0.080(7) 0.062(6) -0.006(5) -0.021(6) -0.028(6)
C32S 0.047(5) 0.099(10) 0.040(5) -0.010(5) -0.019(4) 0.033(5)
C33S 0.54(5) 0.112(12) 0.041(6) -0.004(7) -0.048(14) 0.21(2)
C34S 0.090(7) 0.014(3) 0.023(3) 0.0046(19) -0.026(3) 0.013(3)
C36S 0.027(2) 0.039(3) 0.012(2) 0.0042(18) -0.0055(18) 0.007(2)
C37S 0.028(2) 0.013(2) 0.018(2) -0.0065(18) -0.0031(18) -0.0080(17)
C38S 0.039(3) 0.030(3) 0.020(2) -0.0065(19) -0.006(2) 0.011(2)
C39S 0.019(3) 0.086(7) 0.023(3) 0.002(3) -0.002(2) -0.012(3)
C40S 0.052(4) 0.029(3) 0.029(3) 0.016(2) -0.016(3) -0.016(2)
loop_
_atom_type_symbol
_atom_type_description
_atom_type_scat_dispersion_real
_atom_type_scat_dispersion_imag
_atom_type_scat_source
C C 0.0033 0.0016 'International Tables Vol C Tables 4.2.6.8 and 6.1.1.4'
H H 0.0000 0.0000 'International Tables Vol C Tables 4.2.6.8 and 6.1.1.4'
N N 0.0061 0.0033 'International Tables Vol C Tables 4.2.6.8 and 6.1.1.4'
Zn Zn 0.2839 1.4301 'International Tables Vol C Tables 4.2.6.8 and 6.1.1.4'
loop_
_geom_angle_atom_site_label_1
_geom_angle_atom_site_label_2
_geom_angle_atom_site_label_3
_geom_angle
_geom_angle_site_symmetry_1
_geom_angle_site_symmetry_3
N4 Zn1 N3 89.42(8) . .
N4 Zn1 N1 89.26(8) . .
N3 Zn1 N1 167.25(8) . .
N4 Zn1 N2 164.44(8) . .
N3 Zn1 N2 89.06(8) . .
N1 Zn1 N2 88.82(8) . .
N4 Zn1 N5 108.26(7) . .
N3 Zn1 N5 96.48(8) . .
N1 Zn1 N5 95.98(7) . .
N2 Zn1 N5 87.30(7) . .
N10 Zn2 N8 164.98(7) . .
N10 Zn2 N9 88.99(7) . .
N8 Zn2 N9 89.38(7) . .
N10 Zn2 N7 89.01(7) . .
N8 Zn2 N7 88.91(7) . .
N9 Zn2 N7 165.78(7) . .
N10 Zn2 N6 96.65(7) . .
N8 Zn2 N6 98.37(7) . .
N9 Zn2 N6 97.92(7) . .
N7 Zn2 N6 96.29(7) . .
C1 N1 C4 106.63(19) . .
C1 N1 Zn1 126.52(16) . .
C4 N1 Zn1 126.81(16) . .
C9 N2 C6 106.81(19) . .
C9 N2 Zn1 125.90(15) . .
C6 N2 Zn1 125.95(16) . .
C11 N3 C14 106.59(19) . .
C11 N3 Zn1 126.83(15) . .
C14 N3 Zn1 126.50(16) . .
C16 N4 C19 106.33(19) . .
C16 N4 Zn1 126.64(16) . .
C19 N4 Zn1 126.83(16) . .
C45 N5 C48 116.7(2) . .
C45 N5 Zn1 119.40(16) . .
C48 N5 Zn1 120.92(16) . .
C46 N6 C47 116.6(2) . .
C46 N6 Zn2 120.86(16) . .
C47 N6 Zn2 122.50(16) . .
C52 N7 C49 106.75(18) . .
C52 N7 Zn2 126.70(15) . .
C49 N7 Zn2 126.49(15) . .
C54 N8 C57 106.73(18) . .
C54 N8 Zn2 127.23(15) . .
C57 N8 Zn2 126.04(15) . .
C59 N9 C62 106.48(18) . .
C59 N9 Zn2 126.73(15) . .
C62 N9 Zn2 126.78(15) . .
C67 N10 C64 106.33(18) . .
C67 N10 Zn2 126.53(15) . .
C64 N10 Zn2 126.74(15) . .
N1 C1 C20 125.8(2) . .
N1 C1 C2 109.7(2) . .
C20 C1 C2 124.5(2) . .
C3 C2 C1 106.9(2) . .
C2 C3 C4 106.9(2) . .
N1 C4 C5 125.7(2) . .
N1 C4 C3 109.7(2) . .
C5 C4 C3 124.5(2) . .
C6 C5 C4 125.2(2) . .
C6 C5 C21 116.6(2) . .
C4 C5 C21 118.1(2) . .
N2 C6 C5 125.9(2) . .
N2 C6 C7 109.5(2) . .
C5 C6 C7 124.6(2) . .
C8 C7 C6 107.0(2) . .
C7 C8 C9 107.0(2) . .
N2 C9 C10 125.5(2) . .
N2 C9 C8 109.7(2) . .
C10 C9 C8 124.8(2) . .
C9 C10 C11 125.7(2) . .
C9 C10 C27 117.0(2) . .
C11 C10 C27 117.3(2) . .
N3 C11 C10 125.3(2) . .
N3 C11 C12 109.9(2) . .
C10 C11 C12 124.8(2) . .
C13 C12 C11 106.9(2) . .
C12 C13 C14 106.9(2) . .
N3 C14 C15 125.6(2) . .
N3 C14 C13 109.7(2) . .
C15 C14 C13 124.6(2) . .
C14 C15 C16 125.4(2) . .
C14 C15 C33 117.6(2) . .
C16 C15 C33 116.9(2) . .
N4 C16 C15 125.5(2) . .
N4 C16 C17 109.8(2) . .
C15 C16 C17 124.6(2) . .
C18 C17 C16 106.9(2) . .
C17 C18 C19 107.1(2) . .
N4 C19 C20 126.0(2) . .
N4 C19 C18 109.7(2) . .
C20 C19 C18 124.2(2) . .
C19 C20 C1 125.0(2) . .
C19 C20 C39 116.6(2) . .
C1 C20 C39 118.2(2) . .
C26 C21 C22 118.8(2) . .
C26 C21 C5 121.2(2) . .
C22 C21 C5 119.9(2) . .
C21 C22 C23 120.5(3) . .
C24 C23 C22 120.3(3) . .
C23 C24 C25 119.6(3) . .
C24 C25 C26 120.6(3) . .
C21 C26 C25 120.2(3) . .
C32 C27 C28 119.2(2) . .
C32 C27 C10 119.7(2) . .
C28 C27 C10 121.1(2) . .
C29 C28 C27 119.9(3) . .
C30 C29 C28 120.6(3) . .
C29 C30 C31 119.8(3) . .
C30 C31 C32 120.1(3) . .
C31 C32 C27 120.4(2) . .
C34 C33 C38 118.5(2) . .
C34 C33 C15 120.9(2) . .
C38 C33 C15 120.6(2) . .
C33 C34 C35 121.0(3) . .
C36 C35 C34 120.1(3) . .
C35 C36 C37 119.4(2) . .
C36 C37 C38 120.8(3) . .
C37 C38 C33 120.3(3) . .
C40 C39 C44 117.9(3) . .
C40 C39 C20 119.8(2) . .
C44 C39 C20 122.2(2) . .
C39 C40 C41 120.9(3) . .
C42 C41 C40 120.4(3) . .
C43 C42 C41 119.1(3) . .
C42 C43 C44 121.2(3) . .
C39 C44 C43 120.5(3) . .
N5 C45 C46 121.7(2) . .
N6 C46 C45 121.8(2) . .
N6 C47 C48 121.5(2) . .
N5 C48 C47 121.6(2) . .
N7 C49 C68 125.6(2) . .
N7 C49 C50 109.91(19) . .
C68 C49 C50 124.5(2) . .
C51 C50 C49 106.8(2) . .
C50 C51 C52 107.0(2) . .
N7 C52 C53 125.8(2) . .
N7 C52 C51 109.51(19) . .
C53 C52 C51 124.7(2) . .
C52 C53 C54 125.4(2) . .
C52 C53 C69 116.9(2) . .
C54 C53 C69 117.66(19) . .
N8 C54 C53 125.5(2) . .
N8 C54 C55 109.80(19) . .
C53 C54 C55 124.6(2) . .
C56 C55 C54 106.8(2) . .
C55 C56 C57 107.0(2) . .
N8 C57 C58 126.1(2) . .
N8 C57 C56 109.6(2) . .
C58 C57 C56 124.2(2) . .
C57 C58 C59 125.5(2) . .
C57 C58 C75 117.3(2) . .
C59 C58 C75 117.2(2) . .
N9 C59 C58 125.2(2) . .
N9 C59 C60 109.8(2) . .
C58 C59 C60 124.9(2) . .
C61 C60 C59 107.0(2) . .
C60 C61 C62 106.8(2) . .
N9 C62 C63 125.6(2) . .
N9 C62 C61 109.9(2) . .
C63 C62 C61 124.5(2) . .
C64 C63 C62 125.3(2) . .
C64 C63 C81 117.0(2) . .
C62 C63 C81 117.6(2) . .
N10 C64 C63 125.5(2) . .
N10 C64 C65 109.79(19) . .
C63 C64 C65 124.7(2) . .
C66 C65 C64 106.9(2) . .
C65 C66 C67 107.2(2) . .
N10 C67 C68 125.7(2) . .
N10 C67 C66 109.79(19) . .
C68 C67 C66 124.5(2) . .
C49 C68 C67 125.5(2) . .
C49 C68 C87 117.3(2) . .
C67 C68 C87 117.1(2) . .
C74 C69 C70 118.7(2) . .
C74 C69 C53 120.4(2) . .
C70 C69 C53 120.9(2) . .
C71 C70 C69 120.5(2) . .
C72 C71 C70 120.4(2) . .
C71 C72 C73 119.3(2) . .
C72 C73 C74 120.4(2) . .
C73 C74 C69 120.6(2) . .
C80 C75 C76 118.8(2) . .
C80 C75 C58 121.8(2) . .
C76 C75 C58 119.5(2) . .
C77 C76 C75 120.3(3) . .
C78 C77 C76 120.3(3) . .
C79 C78 C77 119.7(2) . .
C78 C79 C80 120.6(3) . .
C75 C80 C79 120.4(3) . .
C82 C81 C86 118.6(2) . .
C82 C81 C63 120.7(2) . .
C86 C81 C63 120.7(2) . .
C83 C82 C81 120.8(2) . .
C84 C83 C82 120.1(3) . .
C83 C84 C85 119.8(2) . .
C84 C85 C86 120.1(2) . .
C85 C86 C81 120.7(2) . .
C92 C87 C88 119.1(2) . .
C92 C87 C68 119.5(2) . .
C88 C87 C68 121.4(2) . .
C89 C88 C87 120.1(2) . .
C90 C89 C88 120.5(2) . .
C91 C90 C89 119.8(2) . .
C90 C91 C92 120.1(3) . .
C87 C92 C91 120.5(2) . .
C129 C93 C127 125.7(5) . .
C129 C93 C104 116.9(4) . .
C127 C93 C104 105.7(5) . .
C125 C94 C95 123.5(8) . .
C125 C94 C150 118.0(7) . .
C95 C94 C150 107.1(7) . .
C94 C95 C138 117.0(9) . .
C94 C95 C97 110.0(9) . .
C138 C95 C97 121.1(7) . .
C135 C96 C117 122.2(7) . .
C135 C96 C133 117.2(6) . .
C117 C96 C133 108.4(6) . .
C133 C97 C152 122.2(8) . .
C133 C97 C95 119.6(9) . .
C152 C97 C95 106.5(7) . .
C106 C98 C113 109.3(4) . .
C106 C98 C105 119.0(4) . .
C113 C98 C105 119.7(4) . .
C104 C99 C105 120.4(4) . .
C104 C99 C101 120.7(4) . .
C105 C99 C101 106.8(4) . .
C101 C100 C108 119.6(4) . .
C101 C100 C129 122.4(4) . .
C108 C100 C129 106.0(4) . .
C100 C101 C111 121.7(4) . .
C100 C101 C99 117.5(4) . .
C111 C101 C99 109.1(4) . .
C103 C102 C142 127.3(5) . .
C103 C102 C140 118.6(5) . .
C142 C102 C140 101.5(5) . .
C102 C103 C121 124.2(4) . .
C102 C103 C109 116.3(4) . .
C121 C103 C109 108.0(5) . .
C99 C104 C118 120.1(4) . .
C99 C104 C93 120.5(4) . .
C118 C104 C93 107.0(4) . .
C124 C105 C98 121.2(5) . .
C124 C105 C99 108.7(4) . .
C98 C105 C99 118.4(4) . .
C118 C106 C98 121.0(4) . .
C118 C106 C112 120.0(4) . .
C98 C106 C112 106.9(4) . .
C124 C107 C132 124.3(6) . .
C124 C107 C122 118.2(6) . .
C132 C107 C122 107.8(4) . .
C117 C108 C100 120.6(4) . .
C117 C108 C149 119.0(5) . .
C100 C108 C149 107.7(5) . .
C110 C109 C116 122.1(4) . .
C110 C109 C103 118.3(5) . .
C116 C109 C103 108.2(5) . .
C109 C110 C113 119.9(5) . .
C109 C110 C112 122.2(4) . .
C113 C110 C112 105.4(4) . .
C131 C111 C101 121.8(4) . .
C131 C111 C124 119.0(5) . .
C101 C111 C124 107.5(4) . .
C142 C112 C110 119.6(5) . .
C142 C112 C106 121.0(5) . .
C110 C112 C106 107.3(4) . .
C98 C113 C110 111.1(5) . .
C98 C113 C132 118.6(4) . .
C110 C113 C132 118.0(5) . .
C128 C114 C139 123.2(6) . .
C128 C114 C115 116.0(5) . .
C139 C114 C115 105.8(5) . .
C144 C115 C134 114.5(5) . .
C144 C115 C114 125.2(5) . .
C134 C115 C114 109.8(5) . .
C137 C116 C145 121.3(6) . .
C137 C116 C109 107.6(5) . .
C145 C116 C109 119.4(5) . .
C108 C117 C96 123.4(7) . .
C108 C117 C131 117.0(4) . .
C96 C117 C131 108.5(6) . .
C106 C118 C104 121.0(5) . .
C106 C118 C126 118.9(5) . .
C104 C118 C126 109.0(5) . .
C123 C119 C128 120.3(6) . .
C123 C119 C125 121.7(6) . .
C128 C119 C125 106.7(5) . .
C144 C120 C126 120.9(6) . .
C144 C120 C142 106.5(5) . .
C126 C120 C142 120.4(7) . .
C143 C121 C103 120.4(5) . .
C143 C121 C137 119.2(6) . .
C103 C121 C137 107.7(4) . .
C141 C122 C147 115.4(7) . .
C141 C122 C107 123.4(5) . .
C147 C122 C107 107.5(5) . .
C119 C123 C136 121.6(7) . .
C119 C123 C138 115.4(7) . .
C136 C123 C138 110.0(5) . .
C107 C124 C105 118.5(6) . .
C107 C124 C111 120.2(5) . .
C105 C124 C111 107.9(5) . .
C94 C125 C119 118.5(6) . .
C94 C125 C143 120.9(6) . .
C119 C125 C143 107.9(5) . .
C127 C126 C120 119.7(6) . .
C127 C126 C118 108.1(5) . .
C120 C126 C118 120.6(6) . .
C126 C127 C134 118.0(5) . .
C126 C127 C93 110.2(5) . .
C134 C127 C93 120.0(6) . .
C114 C128 C119 118.4(5) . .
C114 C128 C130 120.6(7) . .
C119 C128 C130 110.7(6) . .
C93 C129 C151 117.5(5) . .
C93 C129 C100 121.9(5) . .
C151 C129 C100 109.4(5) . .
C140 C130 C143 119.3(5) . .
C140 C130 C128 120.6(6) . .
C143 C130 C128 106.5(6) . .
C111 C131 C141 123.4(6) . .
C111 C131 C117 119.2(5) . .
C141 C131 C117 105.6(5) . .
C145 C132 C107 108.3(5) . .
C145 C132 C113 121.5(5) . .
C107 C132 C113 117.7(5) . .
C97 C133 C141 120.3(7) . .
C97 C133 C96 121.6(8) . .
C141 C133 C96 106.9(5) . .
C127 C134 C115 124.4(6) . .
C127 C134 C148 117.6(5) . .
C115 C134 C148 104.5(5) . .
C96 C135 C138 122.5(7) . .
C96 C135 C146 114.3(6) . .
C138 C135 C146 110.5(6) . .
C123 C136 C139 119.1(5) . .
C123 C136 C146 107.5(7) . .
C139 C136 C146 119.9(6) . .
C150 C137 C116 118.8(6) . .
C150 C137 C121 121.2(6) . .
C116 C137 C121 108.5(5) . .
C95 C138 C123 123.9(6) . .
C95 C138 C135 118.0(8) . .
C123 C138 C135 105.9(7) . .
C148 C139 C114 110.2(6) . .
C148 C139 C136 120.3(6) . .
C114 C139 C136 117.1(6) . .
C130 C140 C144 119.1(7) . .
C130 C140 C102 117.5(5) . .
C144 C140 C102 111.1(6) . .
C122 C141 C133 121.5(6) . .
C122 C141 C131 115.5(6) . .
C133 C141 C131 110.6(6) . .
C112 C142 C102 116.1(6) . .
C112 C142 C120 119.0(6) . .
C102 C142 C120 113.4(6) . .
C121 C143 C130 119.9(5) . .
C121 C143 C125 120.4(6) . .
C130 C143 C125 108.2(5) . .
C115 C144 C120 122.3(5) . .
C115 C144 C140 118.5(6) . .
C120 C144 C140 107.4(6) . .
C116 C145 C132 119.1(6) . .
C116 C145 C147 117.5(6) . .
C132 C145 C147 111.4(5) . .
C149 C146 C135 128.0(6) . .
C149 C146 C136 115.6(7) . .
C135 C146 C136 106.0(5) . .
C152 C147 C145 120.1(6) . .
C152 C147 C122 123.6(7) . .
C145 C147 C122 104.9(6) . .
C139 C148 C151 119.2(7) . .
C139 C148 C134 109.7(5) . .
C151 C148 C134 119.2(6) . .
C151 C149 C146 125.6(6) . .
C151 C149 C108 108.0(5) . .
C146 C149 C108 113.0(7) . .
C137 C150 C152 121.8(7) . .
C137 C150 C94 120.3(6) . .
C152 C150 C94 104.9(6) . .
C149 C151 C129 108.8(5) . .
C149 C151 C148 119.0(6) . .
C129 C151 C148 119.9(6) . .
C147 C152 C97 116.9(6) . .
C147 C152 C150 120.5(7) . .
C97 C152 C150 111.5(8) . .
C2S C1S C6S 120.0 . .
C2S C1S C7S 120.12(18) . .
C6S C1S C7S 119.88(18) . .
C1S C2S C3S 120.0 . .
C2S C3S C4S 120.0 . .
C3S C4S C5S 120.0 . .
C6S C5S C4S 120.0 . .
C5S C6S C1S 120.0 . .
N1S C7S C1S 170.7(5) . .
C9S C8S C13S 120.0 . .
C9S C8S C14S 119.0(3) . .
C13S C8S C14S 121.0(3) . .
C10S C9S C8S 120.0 . .
C9S C10S C11S 120.0 . .
C12S C11S C10S 120.0 . .
C13S C12S C11S 120.0 . .
C12S C13S C8S 120.0 . .
C16S C15S C20S 120.0 . .
C16S C15S C21S 119.8(3) . .
C20S C15S C21S 120.2(3) . .
C17S C16S C15S 120.0 . .
C16S C17S C18S 120.0 . .
C19S C18S C17S 120.0 . .
C18S C19S C20S 120.0 . .
C19S C20S C15S 120.0 . .
C23S C22S C27S 120.0 . .
C23S C22S C28S 120.2(2) . .
C27S C22S C28S 119.8(2) . .
C22S C23S C24S 120.0 . .
C25S C24S C23S 120.0 . .
C26S C25S C24S 120.0 . .
C25S C26S C27S 120.0 . .
C26S C27S C22S 120.0 . .
N2S C28S C22S 168.5(10) . .
C30S C29S C34S 120.0 . .
C30S C29S C35S 130.3(7) . .
C34S C29S C35S 109.7(7) . .
C31S C30S C29S 120.0 . .
C30S C31S C32S 120.0 . .
C31S C32S C33S 120.0 . .
C34S C33S C32S 120.0 . .
C33S C34S C29S 120.0 . .
C37S C36S C41S 120.0 . .
C37S C36S C42S 115.4(6) . .
C41S C36S C42S 124.6(6) . .
C36S C37S C38S 120.0 . .
C39S C38S C37S 120.0 . .
C38S C39S C40S 120.0 . .
C41S C40S C39S 120.0 . .
C40S C41S C36S 120.0 . .
C45S C44S C43S 109.1(13) . .
C45S C44S C46S 126.9(10) . 2_757
C43S C44S C46S 123.5(13) . 2_757
C46S C45S C44S 106.3(10) . .
C45S C46S C44S 126.7(8) . 2_757
C48S C47S C51S 114.3(8) . .
C48S C47S C49S 173.2(12) . .
C51S C47S C49S 60.3(10) . .
C48S C47S C51S 45.3(7) . 2_757
C51S C47S C51S 71.1(8) . 2_757
C49S C47S C51S 128.2(10) . 2_757
C51S C48S C47S 69.7(9) 2_757 .
C51S C48S C50S 69.5(8) 2_757 2_757
C47S C48S C50S 139.3(11) . 2_757
C50S C49S C47S 122.3(10) . .
C50S C49S C51S 62.6(5) . .
C47S C49S C51S 59.8(5) . .
C49S C50S C48S 101.2(11) . 2_757
C49S C50S C51S 59.0(10) . .
C48S C50S C51S 44.9(6) 2_757 .
C48S C51S C47S 162.3(14) 2_757 .
C48S C51S C49S 120.1(11) 2_757 .
C47S C51S C49S 59.9(5) . .
C48S C51S C47S 64.9(7) 2_757 2_757
C47S C51S C47S 108.9(8) . 2_757
C49S C51S C47S 159.8(14) . 2_757
C48S C51S C50S 65.6(9) 2_757 .
C47S C51S C50S 118.2(9) . .
C49S C51S C50S 58.4(5) . .
C47S C51S C50S 130.5(9) 2_757 .
C48S C51S C51S 115.8(12) 2_757 2_757
C47S C51S C51S 55.8(5) . 2_757
C49S C51S C51S 113.3(8) . 2_757
C47S C51S C51S 53.1(7) 2_757 2_757
C50S C51S C51S 165.4(15) . 2_757
loop_
_geom_bond_atom_site_label_1
_geom_bond_atom_site_label_2
_geom_bond_distance
_geom_bond_site_symmetry_2
Zn1 N4 2.0445(19) .
Zn1 N3 2.064(2) .
Zn1 N1 2.0715(19) .
Zn1 N2 2.076(2) .
Zn1 N5 2.2103(19) .
Zn2 N10 2.0603(18) .
Zn2 N8 2.0628(19) .
Zn2 N9 2.0631(19) .
Zn2 N7 2.0704(19) .
Zn2 N6 2.1786(19) .
N1 C1 1.374(3) .
N1 C4 1.374(3) .
N2 C9 1.366(3) .
N2 C6 1.373(3) .
N3 C11 1.370(3) .
N3 C14 1.371(3) .
N4 C16 1.375(3) .
N4 C19 1.375(3) .
N5 C45 1.325(3) .
N5 C48 1.328(3) .
N6 C46 1.327(3) .
N6 C47 1.329(3) .
N7 C52 1.368(3) .
N7 C49 1.372(3) .
N8 C54 1.369(3) .
N8 C57 1.372(3) .
N9 C59 1.370(3) .
N9 C62 1.379(3) .
N10 C67 1.373(3) .
N10 C64 1.375(3) .
C1 C20 1.404(3) .
C1 C2 1.444(3) .
C2 C3 1.362(4) .
C3 C4 1.444(3) .
C4 C5 1.406(3) .
C5 C6 1.404(3) .
C5 C21 1.498(3) .
C6 C7 1.448(3) .
C7 C8 1.352(4) .
C8 C9 1.450(3) .
C9 C10 1.405(3) .
C10 C11 1.408(3) .
C10 C27 1.495(3) .
C11 C12 1.443(3) .
C12 C13 1.358(4) .
C13 C14 1.444(3) .
C14 C15 1.399(3) .
C15 C16 1.404(3) .
C15 C33 1.498(3) .
C16 C17 1.443(3) .
C17 C18 1.356(4) .
C18 C19 1.443(3) .
C19 C20 1.402(3) .
C20 C39 1.501(3) .
C21 C26 1.388(4) .
C21 C22 1.388(4) .
C22 C23 1.397(4) .
C23 C24 1.375(5) .
C24 C25 1.376(5) .
C25 C26 1.396(4) .
C27 C32 1.396(4) .
C27 C28 1.395(3) .
C28 C29 1.392(4) .
C29 C30 1.380(4) .
C30 C31 1.385(4) .
C31 C32 1.388(3) .
C33 C34 1.390(4) .
C33 C38 1.394(4) .
C34 C35 1.395(4) .
C35 C36 1.381(4) .
C36 C37 1.383(4) .
C37 C38 1.392(4) .
C39 C40 1.374(4) .
C39 C44 1.378(4) .
C40 C41 1.396(4) .
C41 C42 1.361(5) .
C42 C43 1.353(5) .
C43 C44 1.393(4) .
C45 C46 1.383(3) .
C47 C48 1.388(3) .
C49 C68 1.404(3) .
C49 C50 1.443(3) .
C50 C51 1.358(3) .
C51 C52 1.451(3) .
C52 C53 1.404(3) .
C53 C54 1.405(3) .
C53 C69 1.499(3) .
C54 C55 1.450(3) .
C55 C56 1.356(3) .
C56 C57 1.448(3) .
C57 C58 1.399(3) .
C58 C59 1.407(3) .
C58 C75 1.497(3) .
C59 C60 1.444(3) .
C60 C61 1.364(3) .
C61 C62 1.439(3) .
C62 C63 1.403(3) .
C63 C64 1.403(3) .
C63 C81 1.502(3) .
C64 C65 1.448(3) .
C65 C66 1.352(3) .
C66 C67 1.446(3) .
C67 C68 1.405(3) .
C68 C87 1.496(3) .
C69 C74 1.394(3) .
C69 C70 1.395(3) .
C70 C71 1.392(3) .
C71 C72 1.387(4) .
C72 C73 1.389(4) .
C73 C74 1.389(3) .
C75 C80 1.390(3) .
C75 C76 1.396(4) .
C76 C77 1.392(4) .
C77 C78 1.386(4) .
C78 C79 1.370(4) .
C79 C80 1.395(4) .
C81 C82 1.392(4) .
C81 C86 1.392(3) .
C82 C83 1.390(3) .
C83 C84 1.383(4) .
C84 C85 1.384(4) .
C85 C86 1.391(4) .
C87 C92 1.390(3) .
C87 C88 1.395(3) .
C88 C89 1.394(3) .
C89 C90 1.384(4) .
C90 C91 1.381(4) .
C91 C92 1.397(3) .
C93 C129 1.328(7) .
C93 C127 1.427(7) .
C93 C104 1.505(7) .
C94 C125 1.374(3) .
C94 C95 1.391(10) .
C94 C150 1.492(10) .
C95 C138 1.404(12) .
C95 C97 1.428(13) .
C96 C135 1.375(3) .
C96 C117 1.391(8) .
C96 C133 1.476(10) .
C97 C133 1.376(3) .
C97 C152 1.396(11) .
C98 C106 1.391(6) .
C98 C113 1.401(7) .
C98 C105 1.435(6) .
C99 C104 1.368(3) .
C99 C105 1.434(6) .
C99 C101 1.466(6) .
C100 C101 1.337(6) .
C100 C108 1.450(6) .
C100 C129 1.461(3) .
C101 C111 1.371(7) .
C102 C103 1.352(7) .
C102 C142 1.437(8) .
C102 C140 1.476(9) .
C103 C121 1.383(7) .
C103 C109 1.458(3) .
C104 C118 1.397(7) .
C105 C124 1.394(7) .
C106 C118 1.372(3) .
C106 C112 1.488(6) .
C107 C124 1.328(7) .
C107 C132 1.430(7) .
C107 C122 1.499(9) .
C108 C117 1.389(8) .
C108 C149 1.501(8) .
C109 C110 1.396(7) .
C109 C116 1.413(8) .
C110 C113 1.422(7) .
C110 C112 1.458(3) .
C111 C131 1.372(3) .
C111 C124 1.487(7) .
C112 C142 1.366(3) .
C113 C132 1.436(8) .
C114 C128 1.430(9) .
C114 C139 1.433(8) .
C114 C115 1.462(3) .
C115 C144 1.379(3) .
C115 C134 1.458(3) .
C116 C137 1.406(8) .
C116 C145 1.405(8) .
C117 C131 1.472(9) .
C118 C126 1.452(8) .
C119 C123 1.404(8) .
C119 C128 1.444(3) .
C119 C125 1.453(3) .
C120 C144 1.412(10) .
C120 C126 1.409(9) .
C120 C142 1.443(9) .
C121 C143 1.367(3) .
C121 C137 1.460(3) .
C122 C141 1.374(3) .
C122 C147 1.484(8) .
C123 C136 1.450(10) .
C123 C138 1.451(11) .
C125 C143 1.483(7) .
C126 C127 1.391(8) .
C127 C134 1.396(8) .
C128 C130 1.452(3) .
C129 C151 1.446(8) .
C130 C140 1.441(9) .
C130 C143 1.449(9) .
C131 C141 1.438(8) .
C132 C145 1.422(8) .
C133 C141 1.387(10) .
C134 C148 1.471(9) .
C135 C138 1.454(3) .
C135 C146 1.458(3) .
C136 C139 1.475(10) .
C136 C146 1.482(8) .
C137 C150 1.370(3) .
C139 C148 1.400(9) .
C140 C144 1.453(3) .
C145 C147 1.464(9) .
C146 C149 1.397(8) .
C147 C152 1.346(10) .
C148 C151 1.465(9) .
C149 C151 1.393(9) .
C150 C152 1.408(9) .
N1S C7S 1.189(3) .
N2S C28S 1.206(3) .
C1S C2S 1.3900 .
C1S C6S 1.3900 .
C1S C7S 1.453(4) .
C2S C3S 1.3900 .
C3S C4S 1.3900 .
C4S C5S 1.3900 .
C5S C6S 1.3900 .
C8S C9S 1.3900 .
C8S C13S 1.3900 .
C8S C14S 1.490(6) .
C9S C10S 1.3900 .
C10S C11S 1.3900 .
C11S C12S 1.3900 .
C12S C13S 1.3900 .
C15S C16S 1.3900 .
C15S C20S 1.3900 .
C15S C21S 1.465(6) .
C16S C17S 1.3900 .
C17S C18S 1.3900 .
C18S C19S 1.3900 .
C19S C20S 1.3900 .
C22S C23S 1.3900 .
C22S C27S 1.3900 .
C22S C28S 1.500(6) .
C23S C24S 1.3900 .
C24S C25S 1.3900 .
C25S C26S 1.3900 .
C26S C27S 1.3900 .
C29S C30S 1.3900 .
C29S C34S 1.3900 .
C29S C35S 1.452(3) .
C30S C31S 1.3900 .
C31S C32S 1.3900 .
C32S C33S 1.3900 .
C33S C34S 1.3900 .
C36S C37S 1.3900 .
C36S C41S 1.3900 .
C36S C42S 1.458(3) .
C37S C38S 1.3900 .
C38S C39S 1.3900 .
C39S C40S 1.3900 .
C40S C41S 1.3900 .
C43S C44S 1.448(3) .
C44S C45S 1.394(3) .
C44S C46S 1.553(15) 2_757
C45S C46S 1.391(3) .
C46S C44S 1.553(15) 2_757
C47S C48S 1.389(3) .
C47S C51S 1.391(3) .
C47S C49S 1.391(3) .
C47S C51S 1.439(14) 2_757
C48S C51S 1.091(15) 2_757
C48S C50S 1.407(17) 2_757
C49S C50S 1.390(3) .
C49S C51S 1.40(2) .
C50S C48S 1.407(17) 2_757
C50S C51S 1.448(3) .
C51S C48S 1.091(15) 2_757
C51S C47S 1.439(14) 2_757
C51S C51S 1.65(2) 2_757
loop_
_geom_torsion_atom_site_label_1
_geom_torsion_atom_site_label_2
_geom_torsion_atom_site_label_3
_geom_torsion_atom_site_label_4
_geom_torsion
_geom_torsion_site_symmetry_1
_geom_torsion_site_symmetry_4
N4 Zn1 N1 C1 -5.03(19) . .
N3 Zn1 N1 C1 -89.1(4) . .
N2 Zn1 N1 C1 -169.59(19) . .
N5 Zn1 N1 C1 103.25(19) . .
N4 Zn1 N1 C4 172.43(19) . .
N3 Zn1 N1 C4 88.4(4) . .
N2 Zn1 N1 C4 7.87(19) . .
N5 Zn1 N1 C4 -79.29(19) . .
N4 Zn1 N2 C9 98.3(3) . .
N3 Zn1 N2 C9 13.82(19) . .
N1 Zn1 N2 C9 -178.75(19) . .
N5 Zn1 N2 C9 -82.71(19) . .
N4 Zn1 N2 C6 -96.7(3) . .
N3 Zn1 N2 C6 178.86(19) . .
N1 Zn1 N2 C6 -13.71(19) . .
N5 Zn1 N2 C6 82.33(19) . .
N4 Zn1 N3 C11 -170.95(19) . .
N1 Zn1 N3 C11 -86.9(4) . .
N2 Zn1 N3 C11 -6.44(19) . .
N5 Zn1 N3 C11 80.74(19) . .
N4 Zn1 N3 C14 5.25(19) . .
N1 Zn1 N3 C14 89.3(4) . .
N2 Zn1 N3 C14 169.76(19) . .
N5 Zn1 N3 C14 -103.06(19) . .
N3 Zn1 N4 C16 -9.90(19) . .
N1 Zn1 N4 C16 -177.22(19) . .
N2 Zn1 N4 C16 -94.3(3) . .
N5 Zn1 N4 C16 86.73(19) . .
N3 Zn1 N4 C19 175.93(19) . .
N1 Zn1 N4 C19 8.61(19) . .
N2 Zn1 N4 C19 91.5(3) . .
N5 Zn1 N4 C19 -87.4(2) . .
N4 Zn1 N5 C45 94.8(2) . .
N3 Zn1 N5 C45 -173.7(2) . .
N1 Zn1 N5 C45 3.6(2) . .
N2 Zn1 N5 C45 -84.9(2) . .
N4 Zn1 N5 C48 -105.5(2) . .
N3 Zn1 N5 C48 -13.9(2) . .
N1 Zn1 N5 C48 163.3(2) . .
N2 Zn1 N5 C48 74.8(2) . .
N10 Zn2 N6 C46 -84.8(2) . .
N8 Zn2 N6 C46 94.7(2) . .
N9 Zn2 N6 C46 -174.7(2) . .
N7 Zn2 N6 C46 4.9(2) . .
N10 Zn2 N6 C47 96.4(2) . .
N8 Zn2 N6 C47 -84.0(2) . .
N9 Zn2 N6 C47 6.5(2) . .
N7 Zn2 N6 C47 -173.8(2) . .
N10 Zn2 N7 C52 -172.22(19) . .
N8 Zn2 N7 C52 -7.10(19) . .
N9 Zn2 N7 C52 -90.3(3) . .
N6 Zn2 N7 C52 91.20(18) . .
N10 Zn2 N7 C49 10.90(18) . .
N8 Zn2 N7 C49 176.02(18) . .
N9 Zn2 N7 C49 92.8(3) . .
N6 Zn2 N7 C49 -85.68(18) . .
N10 Zn2 N8 C54 87.0(3) . .
N9 Zn2 N8 C54 170.74(19) . .
N7 Zn2 N8 C54 4.86(19) . .
N6 Zn2 N8 C54 -91.34(19) . .
N10 Zn2 N8 C57 -92.9(3) . .
N9 Zn2 N8 C57 -9.18(19) . .
N7 Zn2 N8 C57 -175.06(19) . .
N6 Zn2 N8 C57 88.74(19) . .
N10 Zn2 N9 C59 172.96(19) . .
N8 Zn2 N9 C59 7.90(19) . .
N7 Zn2 N9 C59 91.0(3) . .
N6 Zn2 N9 C59 -90.47(19) . .
N10 Zn2 N9 C62 -7.25(19) . .
N8 Zn2 N9 C62 -172.31(19) . .
N7 Zn2 N9 C62 -89.2(3) . .
N6 Zn2 N9 C62 89.32(19) . .
N8 Zn2 N10 C67 -93.5(3) . .
N9 Zn2 N10 C67 -177.30(18) . .
N7 Zn2 N10 C67 -11.37(18) . .
N6 Zn2 N10 C67 84.85(18) . .
N8 Zn2 N10 C64 94.8(3) . .
N9 Zn2 N10 C64 10.95(18) . .
N7 Zn2 N10 C64 176.87(18) . .
N6 Zn2 N10 C64 -86.91(18) . .
C4 N1 C1 C20 -177.2(2) . .
Zn1 N1 C1 C20 0.7(3) . .
C4 N1 C1 C2 0.5(3) . .
Zn1 N1 C1 C2 178.34(16) . .
N1 C1 C2 C3 0.1(3) . .
C20 C1 C2 C3 177.8(2) . .
C1 C2 C3 C4 -0.6(3) . .
C1 N1 C4 C5 176.7(2) . .
Zn1 N1 C4 C5 -1.1(3) . .
C1 N1 C4 C3 -0.8(3) . .
Zn1 N1 C4 C3 -178.70(16) . .
C2 C3 C4 N1 0.9(3) . .
C2 C3 C4 C5 -176.7(2) . .
N1 C4 C5 C6 -4.1(4) . .
C3 C4 C5 C6 173.1(2) . .
N1 C4 C5 C21 178.6(2) . .
C3 C4 C5 C21 -4.2(4) . .
C9 N2 C6 C5 -178.8(2) . .
Zn1 N2 C6 C5 13.8(3) . .
C9 N2 C6 C7 0.8(3) . .
Zn1 N2 C6 C7 -166.56(17) . .
C4 C5 C6 N2 -2.8(4) . .
C21 C5 C6 N2 174.6(2) . .
C4 C5 C6 C7 177.6(2) . .
C21 C5 C6 C7 -5.0(4) . .
N2 C6 C7 C8 -0.3(3) . .
C5 C6 C7 C8 179.4(2) . .
C6 C7 C8 C9 -0.3(3) . .
C6 N2 C9 C10 178.5(2) . .
Zn1 N2 C9 C10 -14.1(3) . .
C6 N2 C9 C8 -1.0(3) . .
Zn1 N2 C9 C8 166.35(17) . .
C7 C8 C9 N2 0.9(3) . .
C7 C8 C9 C10 -178.7(2) . .
N2 C9 C10 C11 1.9(4) . .
C8 C9 C10 C11 -178.6(2) . .
N2 C9 C10 C27 -175.5(2) . .
C8 C9 C10 C27 3.9(4) . .
C14 N3 C11 C10 -178.5(2) . .
Zn1 N3 C11 C10 -1.7(3) . .
C14 N3 C11 C12 -0.1(3) . .
Zn1 N3 C11 C12 176.74(16) . .
C9 C10 C11 N3 6.6(4) . .
C27 C10 C11 N3 -175.9(2) . .
C9 C10 C11 C12 -171.6(2) . .
C27 C10 C11 C12 5.9(4) . .
N3 C11 C12 C13 -0.1(3) . .
C10 C11 C12 C13 178.4(2) . .
C11 C12 C13 C14 0.2(3) . .
C11 N3 C14 C15 177.9(2) . .
Zn1 N3 C14 C15 1.0(3) . .
C11 N3 C14 C13 0.2(3) . .
Zn1 N3 C14 C13 -176.65(16) . .
C12 C13 C14 N3 -0.2(3) . .
C12 C13 C14 C15 -177.9(2) . .
N3 C14 C15 C16 -5.9(4) . .
C13 C14 C15 C16 171.5(2) . .
N3 C14 C15 C33 176.5(2) . .
C13 C14 C15 C33 -6.1(3) . .
C19 N4 C16 C15 -175.9(2) . .
Zn1 N4 C16 C15 8.9(3) . .
C19 N4 C16 C17 2.6(3) . .
Zn1 N4 C16 C17 -172.58(16) . .
C14 C15 C16 N4 0.5(4) . .
C33 C15 C16 N4 178.2(2) . .
C14 C15 C16 C17 -177.7(2) . .
C33 C15 C16 C17 -0.1(3) . .
N4 C16 C17 C18 -2.2(3) . .
C15 C16 C17 C18 176.3(2) . .
C16 C17 C18 C19 0.8(3) . .
C16 N4 C19 C20 176.5(2) . .
Zn1 N4 C19 C20 -8.4(3) . .
C16 N4 C19 C18 -2.0(3) . .
Zn1 N4 C19 C18 173.10(16) . .
C17 C18 C19 N4 0.7(3) . .
C17 C18 C19 C20 -177.8(2) . .
N4 C19 C20 C1 1.2(4) . .
C18 C19 C20 C1 179.5(2) . .
N4 C19 C20 C39 -174.2(2) . .
C18 C19 C20 C39 4.1(4) . .
N1 C1 C20 C19 2.9(4) . .
C2 C1 C20 C19 -174.5(2) . .
N1 C1 C20 C39 178.2(2) . .
C2 C1 C20 C39 0.9(4) . .
C6 C5 C21 C26 106.2(3) . .
C4 C5 C21 C26 -76.3(3) . .
C6 C5 C21 C22 -71.8(3) . .
C4 C5 C21 C22 105.8(3) . .
C26 C21 C22 C23 -0.4(5) . .
C5 C21 C22 C23 177.7(3) . .
C21 C22 C23 C24 -0.1(6) . .
C22 C23 C24 C25 0.4(5) . .
C23 C24 C25 C26 -0.1(5) . .
C22 C21 C26 C25 0.6(4) . .
C5 C21 C26 C25 -177.4(2) . .
C24 C25 C26 C21 -0.4(4) . .
C9 C10 C27 C32 63.6(3) . .
C11 C10 C27 C32 -114.1(3) . .
C9 C10 C27 C28 -116.1(3) . .
C11 C10 C27 C28 66.2(3) . .
C32 C27 C28 C29 -0.9(4) . .
C10 C27 C28 C29 178.8(2) . .
C27 C28 C29 C30 -0.2(4) . .
C28 C29 C30 C31 0.7(4) . .
C29 C30 C31 C32 0.0(4) . .
C30 C31 C32 C27 -1.1(4) . .
C28 C27 C32 C31 1.6(4) . .
C10 C27 C32 C31 -178.1(2) . .
C14 C15 C33 C34 104.0(3) . .
C16 C15 C33 C34 -73.8(3) . .
C14 C15 C33 C38 -76.5(3) . .
C16 C15 C33 C38 105.6(3) . .
C38 C33 C34 C35 -1.4(4) . .
C15 C33 C34 C35 178.1(3) . .
C33 C34 C35 C36 0.6(5) . .
C34 C35 C36 C37 0.2(4) . .
C35 C36 C37 C38 -0.3(5) . .
C36 C37 C38 C33 -0.5(5) . .
C34 C33 C38 C37 1.2(4) . .
C15 C33 C38 C37 -178.2(3) . .
C19 C20 C39 C40 83.4(3) . .
C1 C20 C39 C40 -92.4(3) . .
C19 C20 C39 C44 -93.5(3) . .
C1 C20 C39 C44 90.7(3) . .
C44 C39 C40 C41 -0.2(6) . .
C20 C39 C40 C41 -177.2(3) . .
C39 C40 C41 C42 -0.8(7) . .
C40 C41 C42 C43 1.6(6) . .
C41 C42 C43 C44 -1.4(6) . .
C40 C39 C44 C43 0.4(5) . .
C20 C39 C44 C43 177.3(3) . .
C42 C43 C44 C39 0.4(6) . .
C48 N5 C45 C46 -2.1(4) . .
Zn1 N5 C45 C46 158.4(2) . .
C47 N6 C46 C45 1.5(4) . .
Zn2 N6 C46 C45 -177.3(2) . .
N5 C45 C46 N6 0.2(5) . .
C46 N6 C47 C48 -1.3(4) . .
Zn2 N6 C47 C48 177.5(2) . .
C45 N5 C48 C47 2.4(4) . .
Zn1 N5 C48 C47 -157.9(2) . .
N6 C47 C48 N5 -0.7(5) . .
C52 N7 C49 C68 175.8(2) . .
Zn2 N7 C49 C68 -6.9(3) . .
C52 N7 C49 C50 -1.0(3) . .
Zn2 N7 C49 C50 176.34(15) . .
N7 C49 C50 C51 -0.3(3) . .
C68 C49 C50 C51 -177.1(2) . .
C49 C50 C51 C52 1.4(3) . .
C49 N7 C52 C53 -176.3(2) . .
Zn2 N7 C52 C53 6.3(3) . .
C49 N7 C52 C51 1.9(2) . .
Zn2 N7 C52 C51 -175.47(15) . .
C50 C51 C52 N7 -2.1(3) . .
C50 C51 C52 C53 176.2(2) . .
N7 C52 C53 C54 -0.3(4) . .
C51 C52 C53 C54 -178.3(2) . .
N7 C52 C53 C69 177.2(2) . .
C51 C52 C53 C69 -0.8(3) . .
C57 N8 C54 C53 178.5(2) . .
Zn2 N8 C54 C53 -1.4(3) . .
C57 N8 C54 C55 0.6(3) . .
Zn2 N8 C54 C55 -179.37(16) . .
C52 C53 C54 N8 -2.3(4) . .
C69 C53 C54 N8 -179.8(2) . .
C52 C53 C54 C55 175.4(2) . .
C69 C53 C54 C55 -2.2(3) . .
N8 C54 C55 C56 -0.8(3) . .
C53 C54 C55 C56 -178.8(2) . .
C54 C55 C56 C57 0.8(3) . .
C54 N8 C57 C58 -175.5(2) . .
Zn2 N8 C57 C58 4.5(3) . .
C54 N8 C57 C56 -0.1(3) . .
Zn2 N8 C57 C56 179.85(16) . .
C55 C56 C57 N8 -0.4(3) . .
C55 C56 C57 C58 175.0(2) . .
N8 C57 C58 C59 5.9(4) . .
C56 C57 C58 C59 -168.9(2) . .
N8 C57 C58 C75 -174.2(2) . .
C56 C57 C58 C75 11.1(3) . .
C62 N9 C59 C58 178.5(2) . .
Zn2 N9 C59 C58 -1.7(3) . .
C62 N9 C59 C60 0.0(3) . .
Zn2 N9 C59 C60 179.85(16) . .
C57 C58 C59 N9 -7.4(4) . .
C75 C58 C59 N9 172.7(2) . .
C57 C58 C59 C60 170.9(2) . .
C75 C58 C59 C60 -9.0(3) . .
N9 C59 C60 C61 0.2(3) . .
C58 C59 C60 C61 -178.3(2) . .
C59 C60 C61 C62 -0.3(3) . .
C59 N9 C62 C63 -179.0(2) . .
Zn2 N9 C62 C63 1.2(3) . .
C59 N9 C62 C61 -0.2(3) . .
Zn2 N9 C62 C61 179.93(16) . .
C60 C61 C62 N9 0.4(3) . .
C60 C61 C62 C63 179.1(2) . .
N9 C62 C63 C64 5.2(4) . .
C61 C62 C63 C64 -173.4(2) . .
N9 C62 C63 C81 -176.7(2) . .
C61 C62 C63 C81 4.7(3) . .
C67 N10 C64 C63 177.8(2) . .
Zn2 N10 C64 C63 -9.1(3) . .
C67 N10 C64 C65 -1.2(2) . .
Zn2 N10 C64 C65 171.87(15) . .
C62 C63 C64 N10 -1.0(4) . .
C81 C63 C64 N10 -179.1(2) . .
C62 C63 C64 C65 178.0(2) . .
C81 C63 C64 C65 -0.2(3) . .
N10 C64 C65 C66 1.0(3) . .
C63 C64 C65 C66 -178.1(2) . .
C64 C65 C66 C67 -0.3(3) . .
C64 N10 C67 C68 -179.0(2) . .
Zn2 N10 C67 C68 7.9(3) . .
C64 N10 C67 C66 1.1(2) . .
Zn2 N10 C67 C66 -172.06(15) . .
C65 C66 C67 N10 -0.5(3) . .
C65 C66 C67 C68 179.6(2) . .
N7 C49 C68 C67 -1.6(4) . .
C50 C49 C68 C67 174.7(2) . .
N7 C49 C68 C87 -177.5(2) . .
C50 C49 C68 C87 -1.1(3) . .
N10 C67 C68 C49 1.1(4) . .
C66 C67 C68 C49 -179.0(2) . .
N10 C67 C68 C87 176.9(2) . .
C66 C67 C68 C87 -3.1(3) . .
C52 C53 C69 C74 -62.1(3) . .
C54 C53 C69 C74 115.7(2) . .
C52 C53 C69 C70 116.8(2) . .
C54 C53 C69 C70 -65.4(3) . .
C74 C69 C70 C71 0.8(4) . .
C53 C69 C70 C71 -178.1(2) . .
C69 C70 C71 C72 0.7(4) . .
C70 C71 C72 C73 -1.5(4) . .
C71 C72 C73 C74 0.8(4) . .
C72 C73 C74 C69 0.7(4) . .
C70 C69 C74 C73 -1.4(3) . .
C53 C69 C74 C73 177.5(2) . .
C57 C58 C75 C80 -108.3(3) . .
C59 C58 C75 C80 71.6(3) . .
C57 C58 C75 C76 72.6(3) . .
C59 C58 C75 C76 -107.5(3) . .
C80 C75 C76 C77 -0.4(4) . .
C58 C75 C76 C77 178.8(3) . .
C75 C76 C77 C78 -0.4(5) . .
C76 C77 C78 C79 1.0(5) . .
C77 C78 C79 C80 -0.7(4) . .
C76 C75 C80 C79 0.6(4) . .
C58 C75 C80 C79 -178.5(2) . .
C78 C79 C80 C75 -0.1(4) . .
C64 C63 C81 C82 72.4(3) . .
C62 C63 C81 C82 -105.8(3) . .
C64 C63 C81 C86 -106.5(3) . .
C62 C63 C81 C86 75.2(3) . .
C86 C81 C82 C83 0.1(4) . .
C63 C81 C82 C83 -178.9(2) . .
C81 C82 C83 C84 0.3(4) . .
C82 C83 C84 C85 -0.5(4) . .
C83 C84 C85 C86 0.4(4) . .
C84 C85 C86 C81 0.0(4) . .
C82 C81 C86 C85 -0.2(4) . .
C63 C81 C86 C85 178.7(2) . .
C49 C68 C87 C92 109.3(3) . .
C67 C68 C87 C92 -66.9(3) . .
C49 C68 C87 C88 -70.5(3) . .
C67 C68 C87 C88 113.3(3) . .
C92 C87 C88 C89 0.4(4) . .
C68 C87 C88 C89 -179.7(2) . .
C87 C88 C89 C90 -0.1(4) . .
C88 C89 C90 C91 -0.2(4) . .
C89 C90 C91 C92 0.1(4) . .
C88 C87 C92 C91 -0.5(4) . .
C68 C87 C92 C91 179.6(2) . .
C90 C91 C92 C87 0.2(4) . .
C125 C94 C95 C138 -2.1(8) . .
C150 C94 C95 C138 -144.6(5) . .
C125 C94 C95 C97 141.2(7) . .
C150 C94 C95 C97 -1.3(6) . .
C94 C95 C97 C133 -142.5(6) . .
C138 C95 C97 C133 -0.9(9) . .
C94 C95 C97 C152 1.3(6) . .
C138 C95 C97 C152 142.9(6) . .
C108 C100 C101 C111 -0.5(5) . .
C129 C100 C101 C111 136.8(4) . .
C108 C100 C101 C99 -139.7(4) . .
C129 C100 C101 C99 -2.3(6) . .
C104 C99 C101 C100 1.7(5) . .
C105 C99 C101 C100 144.3(4) . .
C104 C99 C101 C111 -142.2(4) . .
C105 C99 C101 C111 0.4(4) . .
C142 C102 C103 C121 -133.8(5) . .
C140 C102 C103 C121 0.7(5) . .
C142 C102 C103 C109 4.9(6) . .
C140 C102 C103 C109 139.4(4) . .
C105 C99 C104 C118 0.0(6) . .
C101 C99 C104 C118 137.6(4) . .
C105 C99 C104 C93 -137.1(4) . .
C101 C99 C104 C93 0.5(6) . .
C129 C93 C104 C99 -2.0(6) . .
C127 C93 C104 C99 143.4(4) . .
C129 C93 C104 C118 -144.0(4) . .
C127 C93 C104 C118 1.4(4) . .
C106 C98 C105 C124 -138.7(4) . .
C113 C98 C105 C124 0.2(6) . .
C106 C98 C105 C99 0.2(5) . .
C113 C98 C105 C99 139.1(4) . .
C104 C99 C105 C124 143.2(4) . .
C101 C99 C105 C124 0.5(4) . .
C104 C99 C105 C98 -0.4(5) . .
C101 C99 C105 C98 -143.1(3) . .
C113 C98 C106 C118 -142.4(4) . .
C105 C98 C106 C118 0.3(5) . .
C113 C98 C106 C112 0.1(4) . .
C105 C98 C106 C112 142.9(3) . .
C101 C100 C108 C117 2.1(5) . .
C129 C100 C108 C117 -141.4(4) . .
C101 C100 C108 C149 143.5(4) . .
C129 C100 C108 C149 0.0(4) . .
C102 C103 C109 C110 -0.1(5) . .
C121 C103 C109 C110 144.9(4) . .
C102 C103 C109 C116 -144.4(4) . .
C121 C103 C109 C116 0.6(4) . .
C116 C109 C110 C113 -0.5(6) . .
C103 C109 C110 C113 -139.6(4) . .
C116 C109 C110 C112 135.8(5) . .
C103 C109 C110 C112 -3.4(6) . .
C100 C101 C111 C131 -0.5(6) . .
C99 C101 C111 C131 141.6(4) . .
C100 C101 C111 C124 -143.1(4) . .
C99 C101 C111 C124 -1.0(4) . .
C109 C110 C112 C142 2.4(6) . .
C113 C110 C112 C142 143.9(4) . .
C109 C110 C112 C106 -140.4(4) . .
C113 C110 C112 C106 1.1(4) . .
C118 C106 C112 C142 0.0(6) . .
C98 C106 C112 C142 -142.9(4) . .
C118 C106 C112 C110 142.2(4) . .
C98 C106 C112 C110 -0.8(4) . .
C106 C98 C113 C110 0.6(5) . .
C105 C98 C113 C110 -141.8(4) . .
C106 C98 C113 C132 142.1(4) . .
C105 C98 C113 C132 -0.3(6) . .
C109 C110 C113 C98 141.5(4) . .
C112 C110 C113 C98 -1.1(5) . .
C109 C110 C113 C132 -0.2(6) . .
C112 C110 C113 C132 -142.8(4) . .
C128 C114 C115 C144 -0.9(7) . .
C139 C114 C115 C144 -141.4(5) . .
C128 C114 C115 C134 141.6(4) . .
C139 C114 C115 C134 1.1(5) . .
C110 C109 C116 C137 -143.3(4) . .
C103 C109 C116 C137 -0.6(5) . .
C110 C109 C116 C145 0.3(7) . .
C103 C109 C116 C145 142.9(5) . .
C100 C108 C117 C96 137.3(5) . .
C149 C108 C117 C96 0.1(7) . .
C100 C108 C117 C131 -2.4(5) . .
C149 C108 C117 C131 -139.6(4) . .
C135 C96 C117 C108 -0.5(8) . .
C133 C96 C117 C108 -141.6(5) . .
C135 C96 C117 C131 142.1(5) . .
C133 C96 C117 C131 1.0(5) . .
C98 C106 C118 C104 -0.7(6) . .
C112 C106 C118 C104 -138.5(4) . .
C98 C106 C118 C126 139.3(4) . .
C112 C106 C118 C126 1.5(6) . .
C99 C104 C118 C106 0.5(6) . .
C93 C104 C118 C106 142.7(4) . .
C99 C104 C118 C126 -143.0(4) . .
C93 C104 C118 C126 -0.8(4) . .
C102 C103 C121 C143 -0.1(6) . .
C109 C103 C121 C143 -141.7(4) . .
C102 C103 C121 C137 141.2(4) . .
C109 C103 C121 C137 -0.3(4) . .
C124 C107 C122 C141 -6.3(7) . .
C132 C107 C122 C141 141.1(5) . .
C124 C107 C122 C147 -144.6(4) . .
C132 C107 C122 C147 2.9(5) . .
C128 C119 C123 C136 1.6(8) . .
C125 C119 C123 C136 -137.2(6) . .
C128 C119 C123 C138 139.1(5) . .
C125 C119 C123 C138 0.3(6) . .
C132 C107 C124 C105 -0.9(7) . .
C122 C107 C124 C105 140.8(5) . .
C132 C107 C124 C111 -136.9(5) . .
C122 C107 C124 C111 4.8(6) . .
C98 C105 C124 C107 0.5(6) . .
C99 C105 C124 C107 -141.9(4) . .
C98 C105 C124 C111 141.3(4) . .
C99 C105 C124 C111 -1.1(4) . .
C131 C111 C124 C107 -2.5(6) . .
C101 C111 C124 C107 141.4(4) . .
C131 C111 C124 C105 -142.6(4) . .
C101 C111 C124 C105 1.3(5) . .
C95 C94 C125 C119 0.3(8) . .
C150 C94 C125 C119 139.1(5) . .
C95 C94 C125 C143 -136.6(6) . .
C150 C94 C125 C143 2.2(7) . .
C123 C119 C125 C94 0.6(7) . .
C128 C119 C125 C94 -142.9(5) . .
C123 C119 C125 C143 142.6(4) . .
C128 C119 C125 C143 -1.0(5) . .
C144 C120 C126 C127 1.5(7) . .
C142 C120 C126 C127 138.9(6) . .
C144 C120 C126 C118 -137.2(6) . .
C142 C120 C126 C118 0.2(8) . .
C106 C118 C126 C127 -144.6(4) . .
C104 C118 C126 C127 -0.2(5) . .
C106 C118 C126 C120 -1.7(7) . .
C104 C118 C126 C120 142.7(5) . .
C120 C126 C127 C134 0.7(6) . .
C118 C126 C127 C134 144.0(4) . .
C120 C126 C127 C93 -142.2(4) . .
C118 C126 C127 C93 1.1(5) . .
C129 C93 C127 C126 139.9(5) . .
C104 C93 C127 C126 -1.5(5) . .
C129 C93 C127 C134 -2.2(7) . .
C104 C93 C127 C134 -143.6(4) . .
C139 C114 C128 C119 -5.2(7) . .
C115 C114 C128 C119 -138.2(5) . .
C139 C114 C128 C130 136.6(5) . .
C115 C114 C128 C130 3.6(7) . .
C123 C119 C128 C114 1.8(7) . .
C125 C119 C128 C114 146.0(4) . .
C123 C119 C128 C130 -143.5(5) . .
C125 C119 C128 C130 0.7(6) . .
C127 C93 C129 C151 3.7(7) . .
C104 C93 C129 C151 141.4(4) . .
C127 C93 C129 C100 -136.3(5) . .
C104 C93 C129 C100 1.4(6) . .
C101 C100 C129 C93 0.8(6) . .
C108 C100 C129 C93 143.0(4) . .
C101 C100 C129 C151 -142.0(4) . .
C108 C100 C129 C151 0.1(4) . .
C114 C128 C130 C140 -4.3(7) . .
C119 C128 C130 C140 140.1(6) . .
C114 C128 C130 C143 -144.5(5) . .
C119 C128 C130 C143 -0.1(5) . .
C101 C111 C131 C141 -137.5(5) . .
C124 C111 C131 C141 1.1(7) . .
C101 C111 C131 C117 0.0(6) . .
C124 C111 C131 C117 138.6(4) . .
C108 C117 C131 C111 1.4(6) . .
C96 C117 C131 C111 -143.9(4) . .
C108 C117 C131 C141 145.6(4) . .
C96 C117 C131 C141 0.3(5) . .
C124 C107 C132 C145 143.5(5) . .
C122 C107 C132 C145 -1.5(5) . .
C124 C107 C132 C113 0.8(7) . .
C122 C107 C132 C113 -144.3(4) . .
C98 C113 C132 C145 -137.7(5) . .
C110 C113 C132 C145 1.1(6) . .
C98 C113 C132 C107 -0.1(6) . .
C110 C113 C132 C107 138.8(4) . .
C152 C97 C133 C141 2.1(9) . .
C95 C97 C133 C141 140.1(7) . .
C152 C97 C133 C96 -136.9(7) . .
C95 C97 C133 C96 1.1(8) . .
C135 C96 C133 C97 -1.6(8) . .
C117 C96 C133 C97 141.7(5) . .
C135 C96 C133 C141 -145.3(5) . .
C117 C96 C133 C141 -2.0(5) . .
C126 C127 C134 C115 -5.0(7) . .
C93 C127 C134 C115 134.2(6) . .
C126 C127 C134 C148 -139.4(5) . .
C93 C127 C134 C148 -0.2(6) . .
C144 C115 C134 C127 6.5(8) . .
C114 C115 C134 C127 -140.3(5) . .
C144 C115 C134 C148 145.7(5) . .
C114 C115 C134 C148 -1.2(5) . .
C117 C96 C135 C138 -136.0(6) . .
C133 C96 C135 C138 1.9(7) . .
C117 C96 C135 C146 1.9(7) . .
C133 C96 C135 C146 139.9(5) . .
C119 C123 C136 C139 -1.8(7) . .
C138 C123 C136 C139 -141.3(5) . .
C119 C123 C136 C146 138.8(5) . .
C138 C123 C136 C146 -0.6(5) . .
C145 C116 C137 C150 1.5(7) . .
C109 C116 C137 C150 144.2(5) . .
C145 C116 C137 C121 -142.3(5) . .
C109 C116 C137 C121 0.4(5) . .
C143 C121 C137 C150 -0.9(7) . .
C103 C121 C137 C150 -142.8(4) . .
C143 C121 C137 C116 141.8(5) . .
C103 C121 C137 C116 0.0(5) . .
C94 C95 C138 C123 3.2(8) . .
C97 C95 C138 C123 -135.9(6) . .
C94 C95 C138 C135 140.3(6) . .
C97 C95 C138 C135 1.2(8) . .
C119 C123 C138 C95 -2.3(7) . .
C136 C123 C138 C95 140.0(5) . .
C119 C123 C138 C135 -143.6(4) . .
C136 C123 C138 C135 -1.4(5) . .
C96 C135 C138 C95 -1.8(8) . .
C146 C135 C138 C95 -141.1(6) . .
C96 C135 C138 C123 142.2(6) . .
C146 C135 C138 C123 2.9(5) . .
C128 C114 C139 C148 -137.4(5) . .
C115 C114 C139 C148 -0.5(6) . .
C128 C114 C139 C136 4.9(7) . .
C115 C114 C139 C136 141.8(4) . .
C123 C136 C139 C148 137.0(5) . .
C146 C136 C139 C148 1.2(7) . .
C123 C136 C139 C114 -1.3(6) . .
C146 C136 C139 C114 -137.1(5) . .
C143 C130 C140 C144 137.4(5) . .
C128 C130 C140 C144 2.1(7) . .
C143 C130 C140 C102 -1.6(5) . .
C128 C130 C140 C102 -136.9(5) . .
C103 C102 C140 C130 0.2(5) . .
C142 C102 C140 C130 144.9(4) . .
C103 C102 C140 C144 -141.9(4) . .
C142 C102 C140 C144 2.8(5) . .
C147 C122 C141 C133 1.6(7) . .
C107 C122 C141 C133 -133.8(6) . .
C147 C122 C141 C131 140.1(5) . .
C107 C122 C141 C131 4.8(7) . .
C97 C133 C141 C122 -1.7(8) . .
C96 C133 C141 C122 142.6(5) . .
C97 C133 C141 C131 -142.1(5) . .
C96 C133 C141 C131 2.2(5) . .
C111 C131 C141 C122 -2.3(7) . .
C117 C131 C141 C122 -144.5(5) . .
C111 C131 C141 C133 140.7(5) . .
C117 C131 C141 C133 -1.6(5) . .
C110 C112 C142 C102 1.9(6) . .
C106 C112 C142 C102 139.6(4) . .
C110 C112 C142 C120 -139.1(5) . .
C106 C112 C142 C120 -1.5(7) . .
C103 C102 C142 C112 -5.9(7) . .
C140 C102 C142 C112 -146.2(4) . .
C103 C102 C142 C120 137.4(5) . .
C140 C102 C142 C120 -2.9(5) . .
C144 C120 C142 C112 144.1(5) . .
C126 C120 C142 C112 1.3(8) . .
C144 C120 C142 C102 2.0(5) . .
C126 C120 C142 C102 -140.7(5) . .
C103 C121 C143 C130 -1.3(6) . .
C137 C121 C143 C130 -138.3(5) . .
C103 C121 C143 C125 137.8(4) . .
C137 C121 C143 C125 0.8(6) . .
C140 C130 C143 C121 2.2(6) . .
C128 C130 C143 C121 143.0(4) . .
C140 C130 C143 C125 -141.3(4) . .
C128 C130 C143 C125 -0.5(5) . .
C94 C125 C143 C121 -1.6(7) . .
C119 C125 C143 C121 -142.4(5) . .
C94 C125 C143 C130 141.8(5) . .
C119 C125 C143 C130 0.9(5) . .
C134 C115 C144 C120 -4.0(7) . .
C114 C115 C144 C120 137.0(5) . .
C134 C115 C144 C140 -142.2(5) . .
C114 C115 C144 C140 -1.2(7) . .
C126 C120 C144 C115 0.4(7) . .
C142 C120 C144 C115 -142.1(5) . .
C126 C120 C144 C140 142.4(4) . .
C142 C120 C144 C140 -0.1(5) . .
C130 C140 C144 C115 0.5(7) . .
C102 C140 C144 C115 142.0(5) . .
C130 C140 C144 C120 -143.2(5) . .
C102 C140 C144 C120 -1.8(5) . .
C137 C116 C145 C132 139.1(5) . .
C109 C116 C145 C132 0.6(7) . .
C137 C116 C145 C147 -0.5(7) . .
C109 C116 C145 C147 -139.0(5) . .
C107 C132 C145 C116 -142.4(5) . .
C113 C132 C145 C116 -1.3(7) . .
C107 C132 C145 C147 -0.5(5) . .
C113 C132 C145 C147 140.6(5) . .
C96 C135 C146 C149 -3.5(7) . .
C138 C135 C146 C149 139.4(5) . .
C96 C135 C146 C136 -146.2(4) . .
C138 C135 C146 C136 -3.3(5) . .
C123 C136 C146 C149 -145.6(4) . .
C139 C136 C146 C149 -5.3(7) . .
C123 C136 C146 C135 2.4(5) . .
C139 C136 C146 C135 142.7(5) . .
C116 C145 C147 C152 0.1(7) . .
C132 C145 C147 C152 -142.5(5) . .
C116 C145 C147 C122 144.8(4) . .
C132 C145 C147 C122 2.3(5) . .
C141 C122 C147 C152 -2.0(7) . .
C107 C122 C147 C152 140.1(5) . .
C141 C122 C147 C145 -145.1(5) . .
C107 C122 C147 C145 -3.1(5) . .
C114 C139 C148 C151 142.5(5) . .
C136 C139 C148 C151 1.5(7) . .
C114 C139 C148 C134 -0.2(6) . .
C136 C139 C148 C134 -141.1(5) . .
C127 C134 C148 C139 143.3(4) . .
C115 C134 C148 C139 0.8(5) . .
C127 C134 C148 C151 0.6(7) . .
C115 C134 C148 C151 -141.8(5) . .
C135 C146 C149 C151 -132.5(7) . .
C136 C146 C149 C151 7.2(7) . .
C135 C146 C149 C108 3.2(7) . .
C136 C146 C149 C108 142.9(4) . .
C117 C108 C149 C151 142.0(5) . .
C100 C108 C149 C151 -0.1(5) . .
C117 C108 C149 C146 -1.3(6) . .
C100 C108 C149 C146 -143.4(4) . .
C116 C137 C150 C152 -2.0(8) . .
C121 C137 C150 C152 137.1(6) . .
C116 C137 C150 C94 -137.5(5) . .
C121 C137 C150 C94 1.6(7) . .
C125 C94 C150 C137 -2.2(7) . .
C95 C94 C150 C137 142.7(5) . .
C125 C94 C150 C152 -144.1(5) . .
C95 C94 C150 C152 0.8(6) . .
C146 C149 C151 C129 137.6(5) . .
C108 C149 C151 C129 0.2(5) . .
C146 C149 C151 C148 -4.6(7) . .
C108 C149 C151 C148 -142.1(4) . .
C93 C129 C151 C149 -144.9(4) . .
C100 C129 C151 C149 -0.2(5) . .
C93 C129 C151 C148 -3.0(7) . .
C100 C129 C151 C148 141.7(5) . .
C139 C148 C151 C149 -0.1(7) . .
C134 C148 C151 C149 139.0(5) . .
C139 C148 C151 C129 -138.2(5) . .
C134 C148 C151 C129 0.9(7) . .
C145 C147 C152 C97 140.3(6) . .
C122 C147 C152 C97 2.4(8) . .
C145 C147 C152 C150 -0.6(8) . .
C122 C147 C152 C150 -138.6(6) . .
C133 C97 C152 C147 -2.4(9) . .
C95 C97 C152 C147 -145.0(5) . .
C133 C97 C152 C150 141.9(6) . .
C95 C97 C152 C150 -0.8(6) . .
C137 C150 C152 C147 1.6(9) . .
C94 C150 C152 C147 142.8(6) . .
C137 C150 C152 C97 -141.2(6) . .
C94 C150 C152 C97 0.0(6) . .
C6S C1S C2S C3S 0.0 . .
C7S C1S C2S C3S -179.6(2) . .
C1S C2S C3S C4S 0.0 . .
C2S C3S C4S C5S 0.0 . .
C3S C4S C5S C6S 0.0 . .
C4S C5S C6S C1S 0.0 . .
C2S C1S C6S C5S 0.0 . .
C7S C1S C6S C5S 179.6(2) . .
C2S C1S C7S N1S 83(3) . .
C6S C1S C7S N1S -97(3) . .
C13S C8S C9S C10S 0.0 . .
C14S C8S C9S C10S -178.3(3) . .
C8S C9S C10S C11S 0.0 . .
C9S C10S C11S C12S 0.0 . .
C10S C11S C12S C13S 0.0 . .
C11S C12S C13S C8S 0.0 . .
C9S C8S C13S C12S 0.0 . .
C14S C8S C13S C12S 178.2(3) . .
C20S C15S C16S C17S 0.0 . .
C21S C15S C16S C17S -179.6(3) . .
C15S C16S C17S C18S 0.0 . .
C16S C17S C18S C19S 0.0 . .
C17S C18S C19S C20S 0.0 . .
C18S C19S C20S C15S 0.0 . .
C16S C15S C20S C19S 0.0 . .
C21S C15S C20S C19S 179.6(3) . .
C27S C22S C23S C24S 0.0 . .
C28S C22S C23S C24S 179.3(3) . .
C22S C23S C24S C25S 0.0 . .
C23S C24S C25S C26S 0.0 . .
C24S C25S C26S C27S 0.0 . .
C25S C26S C27S C22S 0.0 . .
C23S C22S C27S C26S 0.0 . .
C28S C22S C27S C26S -179.3(3) . .
C23S C22S C28S N2S -105(5) . .
C27S C22S C28S N2S 74(5) . .
C34S C29S C30S C31S 0.0 . .
C35S C29S C30S C31S 177.6(11) . .
C29S C30S C31S C32S 0.0 . .
C30S C31S C32S C33S 0.0 . .
C31S C32S C33S C34S 0.0 . .
C32S C33S C34S C29S 0.0 . .
C30S C29S C34S C33S 0.0 . .
C35S C29S C34S C33S -178.1(9) . .
C41S C36S C37S C38S 0.0 . .
C42S C36S C37S C38S -178.5(9) . .
C36S C37S C38S C39S 0.0 . .
C37S C38S C39S C40S 0.0 . .
C38S C39S C40S C41S 0.0 . .
C39S C40S C41S C36S 0.0 . .
C37S C36S C41S C40S 0.0 . .
C42S C36S C41S C40S 178.3(9) . .
C43S C44S C45S C46S -171.7(14) . .
C46S C44S C45S C46S 0.7(18) 2_757 .
C44S C45S C46S C44S -0.7(18) . 2_757
C51S C47S C48S C51S -18.7(15) . 2_757
C49S C47S C48S C51S 18(11) . 2_757
C51S C47S C48S C50S -18(2) . 2_757
C49S C47S C48S C50S 18(12) . 2_757
C51S C47S C48S C50S 0.2(16) 2_757 2_757
C48S C47S C49S C50S -42(12) . .
C51S C47S C49S C50S -3.2(18) . .
C51S C47S C49S C50S -26(3) 2_757 .
C48S C47S C49S C51S -39(11) . .
C51S C47S C49S C51S -23(2) 2_757 .
C47S C49S C50S C48S 19(3) . 2_757
C51S C49S C50S C48S 15.9(13) . 2_757
C47S C49S C50S C51S 3.1(17) . .
C48S C47S C51S C48S 80(4) . 2_757
C49S C47S C51S C48S -95(4) . 2_757
C51S C47S C51S C48S 66(4) 2_757 2_757
C48S C47S C51S C49S 175.4(16) . .
C51S C47S C51S C49S 161.4(17) 2_757 .
C48S C47S C51S C47S 13.9(12) . 2_757
C49S C47S C51S C47S -161.4(17) . 2_757
C51S C47S C51S C47S 0.0 2_757 2_757
C48S C47S C51S C50S 178.3(11) . .
C49S C47S C51S C50S 3.0(16) . .
C51S C47S C51S C50S 164.4(17) 2_757 .
C48S C47S C51S C51S 13.9(12) . 2_757
C49S C47S C51S C51S -161.4(17) . 2_757
C50S C49S C51S C48S -23.6(19) . 2_757
C47S C49S C51S C48S 159.5(16) . 2_757
C50S C49S C51S C47S 176.9(17) . .
C50S C49S C51S C47S -122(3) . 2_757
C47S C49S C51S C47S 61(3) . 2_757
C47S C49S C51S C50S -176.9(17) . .
C50S C49S C51S C51S -166.4(16) . 2_757
C47S C49S C51S C51S 16.7(15) . 2_757
C49S C50S C51S C48S 157.6(19) . 2_757
C49S C50S C51S C47S -3.0(17) . .
C48S C50S C51S C47S -160.6(16) 2_757 .
C48S C50S C51S C49S -157.6(19) 2_757 .
C49S C50S C51S C47S 157(2) . 2_757
C48S C50S C51S C47S -0.2(13) 2_757 2_757
C49S C50S C51S C51S 59(5) . 2_757
C48S C50S C51S C51S -99(5) 2_757 2_757
