#------------------------------------------------------------------------------
#$Date: 2016-03-25 17:09:38 +0200 (Fri, 25 Mar 2016) $
#$Revision: 180005 $
#$URL: svn://www.crystallography.net/cod/cif/7/02/99/7029983.cif $
#------------------------------------------------------------------------------
#
# This file is available in the Crystallography Open Database (COD),
# http://www.crystallography.net/
#
# All data on this site have been placed in the public domain by the
# contributors.
#
data_7029983
loop_
_publ_author_name
'Chang, Wen-Pin'
'Lin, Wen-Chain'
'Chen, Jyh-Horung'
'Wang, Shin-Shin'
'Tung, Jo-Yu'
_publ_section_title
;
 A 13C and 1H NMR spectroscopic investigation of the structure of the
 iminium ion with a dipolar form in metal complexes of 2-N-substituted
 N-confused porphyrins.
;
_journal_issue                   43
_journal_name_full
'Dalton transactions (Cambridge, England : 2003)'
_journal_page_first              13454
_journal_page_last               13464
_journal_paper_doi               10.1039/c2dt31426f
_journal_volume                  41
_journal_year                    2012
_chemical_formula_moiety         'C48 H35 Cl N4 O2 Zn'
_chemical_formula_sum            'C48 H35 Cl N4 O2 Zn'
_chemical_formula_weight         800.62
_space_group_IT_number           14
_symmetry_cell_setting           monoclinic
_symmetry_Int_Tables_number      14
_symmetry_space_group_name_Hall  '-P 2yn'
_symmetry_space_group_name_H-M   'P 1 21/n 1'
_atom_sites_solution_hydrogens   geom
_atom_sites_solution_primary     direct
_atom_sites_solution_secondary   difmap
_audit_creation_method           SHELXL-97
_cell_angle_alpha                90.00
_cell_angle_beta                 100.262(3)
_cell_angle_gamma                90.00
_cell_formula_units_Z            4
_cell_length_a                   14.4083(5)
_cell_length_b                   13.4694(5)
_cell_length_c                   19.7440(6)
_cell_measurement_reflns_used    8652
_cell_measurement_temperature    105(2)
_cell_measurement_theta_max      29.1879
_cell_measurement_theta_min      2.8668
_cell_volume                     3770.4(2)
_computing_cell_refinement
;
CrysAlis RED, Oxford Diffraction Ltd.,
Version 1.171.32.29 (release 10-06-2008 CrysAlis171 .NET)
(compiled Jun 10 2008,16:49:55)
;
_computing_data_collection
;
CrysAlis CCD, Oxford Diffraction Ltd.,
Version 1.171.32.29 (release 10-06-2008 CrysAlis171 .NET)
(compiled Jun 10 2008,16:49:55)
;
_computing_data_reduction
;
CrysAlis RED, Oxford Diffraction Ltd.,
Version 1.171.32.29 (release 10-06-2008 CrysAlis171 .NET)
(compiled Jun 10 2008,16:49:55)
;
_computing_molecular_graphics    'Bruker SHELXTL'
_computing_publication_material  'Bruker SHELXTL'
_computing_structure_refinement  'SHELXL-97 (Sheldrick, 2008)'
_computing_structure_solution    'SHELXS-97 (Sheldrick, 2008)'
_diffrn_ambient_temperature      105(2)
_diffrn_measured_fraction_theta_full 0.999
_diffrn_measured_fraction_theta_max 0.849
_diffrn_measurement_device_type  'CCD detector'
_diffrn_measurement_method       '\w scans'
_diffrn_radiation_monochromator  graphite
_diffrn_radiation_probe          x-ray
_diffrn_radiation_type           MoK\a
_diffrn_radiation_wavelength     0.71073
_diffrn_reflns_av_R_equivalents  0.0250
_diffrn_reflns_av_sigmaI/netI    0.0548
_diffrn_reflns_limit_h_max       17
_diffrn_reflns_limit_h_min       -19
_diffrn_reflns_limit_k_max       14
_diffrn_reflns_limit_k_min       -18
_diffrn_reflns_limit_l_max       15
_diffrn_reflns_limit_l_min       -25
_diffrn_reflns_number            17006
_diffrn_reflns_theta_full        26.00
_diffrn_reflns_theta_max         29.23
_diffrn_reflns_theta_min         2.87
_diffrn_source                   'fine-focus sealed tube'
_exptl_absorpt_coefficient_mu    0.770
_exptl_absorpt_correction_T_max  1.00000
_exptl_absorpt_correction_T_min  0.92974
_exptl_absorpt_correction_type   multi-scan
_exptl_absorpt_process_details
;
CrysAlisPro, Oxford Diffraction Ltd.,
Version 1.171.33.46 (release 27-08-2009 CrysAlis171 .NET)
(compiled Aug 27 2009,17:19:36)
Empirical absorption correction using spherical harmonics,
implemented in SCALE3 ABSPACK scaling algorithm.
;
_exptl_crystal_colour            blue
_exptl_crystal_density_diffrn    1.410
_exptl_crystal_density_method    'not measured'
_exptl_crystal_description       parallelepiped
_exptl_crystal_F_000             1656
_exptl_crystal_size_max          0.40
_exptl_crystal_size_mid          0.38
_exptl_crystal_size_min          0.10
_refine_diff_density_max         0.801
_refine_diff_density_min         -0.945
_refine_diff_density_rms         0.069
_refine_ls_extinction_method     none
_refine_ls_goodness_of_fit_ref   1.038
_refine_ls_hydrogen_treatment    mixed
_refine_ls_matrix_type           full
_refine_ls_number_parameters     497
_refine_ls_number_reflns         8701
_refine_ls_number_restraints     0
_refine_ls_restrained_S_all      1.038
_refine_ls_R_factor_all          0.0583
_refine_ls_R_factor_gt           0.0395
_refine_ls_shift/su_max          0.001
_refine_ls_shift/su_mean         0.000
_refine_ls_structure_factor_coef Fsqd
_refine_ls_weighting_details
'calc w=1/[\s^2^(Fo^2^)+(0.0546P)^2^+0.0000P] where P=(Fo^2^+2Fc^2^)/3'
_refine_ls_weighting_scheme      calc
_refine_ls_wR_factor_gt          0.0995
_refine_ls_wR_factor_ref         0.1029
_reflns_number_gt                6270
_reflns_number_total             8701
_reflns_threshold_expression     >2sigma(I)
_cod_data_source_file            c2dt31426f.txt
_cod_data_source_block           zneba
_cod_original_sg_symbol_H-M      'P 21/n'
_cod_database_code               7029983
loop_
_symmetry_equiv_pos_as_xyz
'x, y, z'
'-x+1/2, y+1/2, -z+1/2'
'-x, -y, -z'
'x-1/2, -y-1/2, z-1/2'
loop_
_atom_site_label
_atom_site_type_symbol
_atom_site_fract_x
_atom_site_fract_y
_atom_site_fract_z
_atom_site_U_iso_or_equiv
_atom_site_adp_type
_atom_site_occupancy
_atom_site_symmetry_multiplicity
_atom_site_calc_flag
_atom_site_refinement_flags
Zn Zn 0.937554(17) 0.205670(19) 0.050904(12) 0.01237(8) Uani 1 1 d .
Cl Cl 0.99431(4) 0.29740(4) 0.14458(3) 0.02150(13) Uani 1 1 d .
O1 O 1.44579(14) 0.17084(18) 0.21151(10) 0.0466(4) Uani 1 1 d .
O2 O 1.41206(13) 0.17982(14) 0.09550(9) 0.0315(4) Uani 1 1 d .
N1 N 0.95938(13) 0.06097(13) 0.09192(8) 0.0129(4) Uani 1 1 d .
N2 N 0.79908(13) 0.18055(14) 0.02759(9) 0.0138(4) Uani 1 1 d .
N3 N 0.92842(13) 0.29693(14) -0.03745(9) 0.0143(4) Uani 1 1 d .
N4 N 1.21995(13) 0.19983(14) 0.09996(9) 0.0174(4) Uani 1 1 d .
C1 C 1.04243(16) 0.00899(17) 0.11599(10) 0.0138(5) Uani 1 1 d .
C2 C 1.01878(16) -0.08393(17) 0.14630(10) 0.0160(5) Uani 1 1 d .
H2A H 1.0617 -0.1343 0.1654 0.019 Uiso 1 1 calc R
C3 C 0.92450(16) -0.08507(17) 0.14212(10) 0.0159(5) Uani 1 1 d .
H3A H 0.8887 -0.1364 0.1581 0.019 Uiso 1 1 calc R
C4 C 0.88735(16) 0.00638(17) 0.10874(10) 0.0137(5) Uani 1 1 d .
C5 C 0.79062(15) 0.03050(17) 0.09652(10) 0.0141(5) Uani 1 1 d .
C6 C 0.75050(15) 0.11273(17) 0.05901(10) 0.0144(5) Uani 1 1 d .
C7 C 0.65042(16) 0.13602(18) 0.04325(11) 0.0185(5) Uani 1 1 d .
H7A H 0.6012 0.1019 0.0598 0.022 Uiso 1 1 calc R
C8 C 0.64058(16) 0.21465(18) 0.00091(11) 0.0195(5) Uani 1 1 d .
H8A H 0.5830 0.2468 -0.0179 0.023 Uiso 1 1 calc R
C9 C 0.73357(16) 0.24166(17) -0.01096(11) 0.0157(5) Uani 1 1 d .
C10 C 0.75327(16) 0.31300(17) -0.05664(11) 0.0157(5) Uani 1 1 d .
C11 C 0.84472(16) 0.33415(17) -0.07042(11) 0.0157(5) Uani 1 1 d .
C12 C 0.85985(17) 0.40477(18) -0.12228(11) 0.0214(5) Uani 1 1 d .
H12A H 0.8124 0.4401 -0.1524 0.026 Uiso 1 1 calc R
C13 C 0.95335(17) 0.41148(18) -0.12014(11) 0.0193(5) Uani 1 1 d .
H13A H 0.9843 0.4520 -0.1486 0.023 Uiso 1 1 calc R
C14 C 0.99785(17) 0.34549(17) -0.06645(11) 0.0163(5) Uani 1 1 d .
C15 C 1.09389(17) 0.33493(18) -0.04537(11) 0.0164(5) Uani 1 1 d .
C16 C 1.13221(16) 0.26161(17) 0.00467(10) 0.0152(5) Uani 1 1 d .
C17 C 1.09490(16) 0.16887(17) 0.01842(11) 0.0136(4) Uani 1 1 d .
H17A H 1.0528(18) 0.1353(18) -0.0088(11) 0.016(6) Uiso 1 1 d .
C18 C 1.14846(15) 0.13079(17) 0.07801(10) 0.0143(5) Uani 1 1 d .
C19 C 1.21035(16) 0.27693(17) 0.05644(11) 0.0167(5) Uani 1 1 d .
H19A H 1.2505 0.3333 0.0602 0.020 Uiso 1 1 calc R
C20 C 1.13268(16) 0.04179(17) 0.11428(10) 0.0143(5) Uani 1 1 d .
C21 C 0.72470(16) -0.04111(17) 0.12134(11) 0.0158(5) Uani 1 1 d .
C22 C 0.72076(18) -0.05157(19) 0.19088(12) 0.0240(6) Uani 1 1 d .
H22A H 0.7604 -0.0118 0.2238 0.029 Uiso 1 1 calc R
C23 C 0.66003(19) -0.1190(2) 0.21287(13) 0.0295(6) Uani 1 1 d .
H23A H 0.6578 -0.1247 0.2605 0.035 Uiso 1 1 calc R
C24 C 0.60272(18) -0.17792(19) 0.16573(14) 0.0283(6) Uani 1 1 d .
H24A H 0.5614 -0.2247 0.1808 0.034 Uiso 1 1 calc R
C25 C 0.60576(17) -0.16856(19) 0.09661(14) 0.0259(6) Uani 1 1 d .
H25A H 0.5664 -0.2089 0.0640 0.031 Uiso 1 1 calc R
C26 C 0.66613(16) -0.10035(18) 0.07465(12) 0.0209(5) Uani 1 1 d .
H26A H 0.6674 -0.0941 0.0269 0.025 Uiso 1 1 calc R
C27 C 0.67313(16) 0.37123(18) -0.09753(11) 0.0190(5) Uani 1 1 d .
C28 C 0.6400(2) 0.4571(2) -0.07092(13) 0.0343(7) Uani 1 1 d .
H28A H 0.6668 0.4784 -0.0258 0.041 Uiso 1 1 calc R
C29 C 0.5683(2) 0.5119(2) -0.10949(14) 0.0428(8) Uani 1 1 d .
H29A H 0.5463 0.5705 -0.0907 0.051 Uiso 1 1 calc R
C30 C 0.52833(18) 0.4817(2) -0.17567(12) 0.0336(7) Uani 1 1 d .
H30A H 0.4790 0.5193 -0.2021 0.040 Uiso 1 1 calc R
C31 C 0.56080(17) 0.3969(2) -0.20259(12) 0.0260(6) Uani 1 1 d .
H31A H 0.5337 0.3757 -0.2477 0.031 Uiso 1 1 calc R
C32 C 0.63313(17) 0.34231(19) -0.16382(12) 0.0225(5) Uani 1 1 d .
H32A H 0.6556 0.2843 -0.1830 0.027 Uiso 1 1 calc R
C33 C 1.16161(16) 0.40117(17) -0.07184(11) 0.0163(5) Uani 1 1 d .
C34 C 1.14938(16) 0.50459(17) -0.07641(11) 0.0173(5) Uani 1 1 d .
H34A H 1.0964 0.5345 -0.0620 0.021 Uiso 1 1 calc R
C35 C 1.21425(17) 0.56301(18) -0.10181(11) 0.0200(5) Uani 1 1 d .
H35A H 1.2052 0.6328 -0.1052 0.024 Uiso 1 1 calc R
C36 C 1.29184(18) 0.52098(19) -0.12231(12) 0.0241(5) Uani 1 1 d .
H36A H 1.3358 0.5617 -0.1400 0.029 Uiso 1 1 calc R
C37 C 1.30591(19) 0.4192(2) -0.11718(13) 0.0283(6) Uani 1 1 d .
H37A H 1.3599 0.3902 -0.1307 0.034 Uiso 1 1 calc R
C38 C 1.24104(18) 0.36008(19) -0.09222(12) 0.0240(6) Uani 1 1 d .
H38A H 1.2508 0.2904 -0.0889 0.029 Uiso 1 1 calc R
C39 C 1.21768(15) -0.01282(16) 0.14837(10) 0.0140(5) Uani 1 1 d .
C40 C 1.29171(16) -0.02448(17) 0.11215(10) 0.0154(5) Uani 1 1 d .
H40A H 1.2832 -0.0052 0.0652 0.018 Uiso 1 1 calc R
C41 C 1.37702(16) -0.06355(17) 0.14342(11) 0.0182(5) Uani 1 1 d .
H41A H 1.4268 -0.0709 0.1181 0.022 Uiso 1 1 calc R
C42 C 1.39019(16) -0.09219(17) 0.21203(11) 0.0179(5) Uani 1 1 d .
H42A H 1.4495 -0.1171 0.2342 0.021 Uiso 1 1 calc R
C43 C 1.31614(16) -0.08415(17) 0.24793(11) 0.0163(5) Uani 1 1 d .
H43A H 1.3245 -0.1059 0.2944 0.020 Uiso 1 1 calc R
C44 C 1.23036(16) -0.04486(17) 0.21702(10) 0.0153(5) Uani 1 1 d .
H44A H 1.1802 -0.0396 0.2422 0.018 Uiso 1 1 calc R
C45 C 1.28937(17) 0.20228(19) 0.16387(12) 0.0218(5) Uani 1 1 d .
H45A H 1.2728 0.1515 0.1960 0.026 Uiso 1 1 calc R
H45B H 1.2874 0.2681 0.1859 0.026 Uiso 1 1 calc R
C46 C 1.38851(18) 0.1828(2) 0.15079(12) 0.0263(6) Uani 1 1 d .
C47 C 1.5439(2) 0.1455(3) 0.20980(15) 0.0466(4) Uani 1 1 d .
H47A H 1.5463 0.0981 0.1718 0.056 Uiso 1 1 calc R
H47B H 1.5722 0.1128 0.2535 0.056 Uiso 1 1 calc R
C48 C 1.5989(2) 0.2346(3) 0.19979(15) 0.0466(4) Uani 1 1 d .
H48A H 1.6641 0.2156 0.1982 0.070 Uiso 1 1 calc R
H48B H 1.5980 0.2807 0.2380 0.070 Uiso 1 1 calc R
H48C H 1.5711 0.2668 0.1564 0.070 Uiso 1 1 calc R
loop_
_atom_site_aniso_label
_atom_site_aniso_U_11
_atom_site_aniso_U_22
_atom_site_aniso_U_33
_atom_site_aniso_U_23
_atom_site_aniso_U_13
_atom_site_aniso_U_12
Zn 0.01074(13) 0.01318(13) 0.01224(13) 0.00003(11) -0.00051(9) 0.00051(11)
Cl 0.0233(3) 0.0201(3) 0.0181(3) -0.0060(2) -0.0044(2) 0.0006(2)
O1 0.0262(8) 0.0765(12) 0.0355(7) -0.0027(8) 0.0011(6) 0.0028(8)
O2 0.0240(10) 0.0432(12) 0.0267(9) -0.0024(9) 0.0032(8) -0.0020(9)
N1 0.0106(9) 0.0143(10) 0.0130(8) 0.0013(8) 0.0004(7) 0.0009(7)
N2 0.0121(9) 0.0143(10) 0.0141(9) -0.0001(8) -0.0001(7) 0.0005(7)
N3 0.0144(9) 0.0150(9) 0.0133(8) 0.0000(8) 0.0017(7) 0.0014(8)
N4 0.0128(9) 0.0201(10) 0.0192(9) 0.0026(9) 0.0021(7) 0.0011(8)
C1 0.0172(11) 0.0141(11) 0.0094(9) 0.0004(9) 0.0007(8) 0.0028(9)
C2 0.0200(12) 0.0143(11) 0.0128(10) 0.0008(9) 0.0007(9) 0.0010(9)
C3 0.0194(12) 0.0148(11) 0.0130(10) 0.0019(9) 0.0012(9) -0.0022(9)
C4 0.0176(11) 0.0141(11) 0.0092(9) -0.0017(9) 0.0018(8) -0.0011(9)
C5 0.0145(11) 0.0169(12) 0.0108(10) -0.0017(9) 0.0016(8) -0.0023(9)
C6 0.0120(11) 0.0176(12) 0.0137(10) -0.0034(9) 0.0028(8) -0.0009(9)
C7 0.0128(11) 0.0223(12) 0.0201(11) 0.0000(10) 0.0025(9) -0.0006(10)
C8 0.0123(11) 0.0227(13) 0.0221(11) 0.0010(11) -0.0009(9) 0.0045(10)
C9 0.0130(11) 0.0170(12) 0.0153(10) -0.0036(10) -0.0020(8) 0.0013(9)
C10 0.0135(11) 0.0165(12) 0.0153(10) 0.0010(9) -0.0028(8) 0.0014(9)
C11 0.0172(12) 0.0140(11) 0.0147(10) 0.0000(9) -0.0004(9) 0.0020(9)
C12 0.0209(13) 0.0221(13) 0.0196(11) 0.0079(10) -0.0008(9) 0.0026(10)
C13 0.0207(13) 0.0188(12) 0.0179(11) 0.0060(10) 0.0023(9) 0.0000(10)
C14 0.0177(12) 0.0159(12) 0.0152(10) 0.0020(10) 0.0025(9) 0.0000(9)
C15 0.0169(12) 0.0157(11) 0.0176(11) 0.0009(10) 0.0054(9) 0.0009(10)
C16 0.0127(11) 0.0171(11) 0.0164(10) 0.0008(10) 0.0038(8) 0.0031(9)
C17 0.0087(11) 0.0165(11) 0.0153(10) -0.0010(10) 0.0017(8) 0.0023(9)
C18 0.0104(11) 0.0170(11) 0.0156(10) 0.0000(9) 0.0027(8) 0.0018(9)
C19 0.0113(11) 0.0156(12) 0.0229(11) 0.0042(10) 0.0025(9) 0.0003(9)
C20 0.0156(11) 0.0160(11) 0.0110(10) 0.0004(9) 0.0018(8) 0.0045(9)
C21 0.0128(11) 0.0150(11) 0.0195(11) 0.0029(10) 0.0029(9) 0.0034(9)
C22 0.0242(13) 0.0272(14) 0.0212(12) 0.0005(11) 0.0055(10) -0.0032(11)
C23 0.0318(15) 0.0292(15) 0.0313(13) 0.0054(13) 0.0159(12) 0.0004(12)
C24 0.0169(13) 0.0193(13) 0.0528(17) 0.0076(13) 0.0171(12) 0.0022(10)
C25 0.0133(12) 0.0169(12) 0.0464(15) -0.0027(12) 0.0027(11) -0.0014(10)
C26 0.0171(12) 0.0208(13) 0.0241(12) -0.0022(11) 0.0019(9) 0.0012(10)
C27 0.0128(11) 0.0211(13) 0.0221(11) 0.0080(11) 0.0004(9) 0.0003(10)
C28 0.0335(16) 0.0419(17) 0.0249(13) 0.0018(13) -0.0014(11) 0.0172(14)
C29 0.0396(18) 0.051(2) 0.0371(15) 0.0037(15) 0.0048(13) 0.0293(16)
C30 0.0170(13) 0.0543(19) 0.0290(13) 0.0197(14) 0.0029(11) 0.0150(13)
C31 0.0183(13) 0.0348(15) 0.0218(12) 0.0119(12) -0.0047(10) -0.0071(11)
C32 0.0205(13) 0.0191(13) 0.0258(12) 0.0032(11) -0.0019(10) -0.0040(10)
C33 0.0156(12) 0.0176(12) 0.0150(10) 0.0039(10) 0.0008(9) 0.0022(9)
C34 0.0159(12) 0.0182(12) 0.0179(11) 0.0002(10) 0.0033(9) 0.0020(10)
C35 0.0244(13) 0.0143(12) 0.0212(11) 0.0015(10) 0.0034(10) 0.0002(10)
C36 0.0250(14) 0.0220(13) 0.0272(12) 0.0039(11) 0.0100(10) -0.0052(11)
C37 0.0258(14) 0.0256(14) 0.0384(14) 0.0047(12) 0.0190(12) 0.0050(11)
C38 0.0261(14) 0.0160(12) 0.0329(13) 0.0064(11) 0.0134(11) 0.0046(10)
C39 0.0148(11) 0.0126(11) 0.0134(10) -0.0008(9) -0.0009(8) 0.0018(9)
C40 0.0180(12) 0.0153(11) 0.0124(10) 0.0003(9) 0.0011(9) 0.0022(9)
C41 0.0162(12) 0.0206(12) 0.0186(11) 0.0010(10) 0.0053(9) 0.0036(10)
C42 0.0159(12) 0.0183(12) 0.0179(11) 0.0019(10) -0.0015(9) 0.0045(10)
C43 0.0184(12) 0.0162(12) 0.0130(10) 0.0028(9) -0.0004(8) 0.0018(10)
C44 0.0160(11) 0.0143(11) 0.0155(10) 0.0004(9) 0.0029(9) 0.0017(9)
C45 0.0204(12) 0.0228(13) 0.0207(11) -0.0005(11) -0.0004(9) 0.0024(11)
C46 0.0221(13) 0.0328(15) 0.0229(12) -0.0013(11) 0.0008(10) 0.0007(11)
C47 0.0262(8) 0.0765(12) 0.0355(7) -0.0027(8) 0.0011(6) 0.0028(8)
C48 0.0262(8) 0.0765(12) 0.0355(7) -0.0027(8) 0.0011(6) 0.0028(8)
loop_
_atom_type_symbol
_atom_type_description
_atom_type_scat_dispersion_real
_atom_type_scat_dispersion_imag
_atom_type_scat_source
C C 0.0033 0.0016 'International Tables Vol C Tables 4.2.6.8 and 6.1.1.4'
H H 0.0000 0.0000 'International Tables Vol C Tables 4.2.6.8 and 6.1.1.4'
N N 0.0061 0.0033 'International Tables Vol C Tables 4.2.6.8 and 6.1.1.4'
O O 0.0106 0.0060 'International Tables Vol C Tables 4.2.6.8 and 6.1.1.4'
Cl Cl 0.1484 0.1585 'International Tables Vol C Tables 4.2.6.8 and 6.1.1.4'
Zn Zn 0.2839 1.4301 'International Tables Vol C Tables 4.2.6.8 and 6.1.1.4'
loop_
_geom_angle_atom_site_label_1
_geom_angle_atom_site_label_2
_geom_angle_atom_site_label_3
_geom_angle
N2 Zn N1 90.37(7)
N2 Zn N3 89.74(7)
N1 Zn N3 146.51(7)
N2 Zn Cl 118.96(5)
N1 Zn Cl 100.59(5)
N3 Zn Cl 108.54(5)
N2 Zn C17 144.92(7)
N1 Zn C17 80.58(7)
N3 Zn C17 80.26(7)
Cl Zn C17 96.06(6)
C46 O1 C47 116.9(2)
C4 N1 C1 106.91(17)
C4 N1 Zn 121.62(15)
C1 N1 Zn 130.84(15)
C6 N2 C9 107.15(18)
C6 N2 Zn 125.54(14)
C9 N2 Zn 125.86(15)
C11 N3 C14 105.62(18)
C11 N3 Zn 121.85(15)
C14 N3 Zn 131.57(14)
C19 N4 C18 109.32(18)
C19 N4 C45 120.8(2)
C18 N4 C45 129.39(19)
C20 C1 N1 125.9(2)
C20 C1 C2 125.2(2)
N1 C1 C2 108.83(19)
C3 C2 C1 107.0(2)
C3 C2 H2A 126.5
C1 C2 H2A 126.5
C2 C3 C4 107.7(2)
C2 C3 H3A 126.1
C4 C3 H3A 126.1
N1 C4 C5 127.4(2)
N1 C4 C3 109.48(19)
C5 C4 C3 123.1(2)
C4 C5 C6 125.2(2)
C4 C5 C21 117.48(19)
C6 C5 C21 117.21(19)
N2 C6 C5 125.0(2)
N2 C6 C7 109.12(19)
C5 C6 C7 125.8(2)
C8 C7 C6 107.1(2)
C8 C7 H7A 126.4
C6 C7 H7A 126.4
C7 C8 C9 107.5(2)
C7 C8 H8A 126.2
C9 C8 H8A 126.2
C10 C9 N2 125.2(2)
C10 C9 C8 125.8(2)
N2 C9 C8 108.90(19)
C9 C10 C11 124.7(2)
C9 C10 C27 119.0(2)
C11 C10 C27 116.20(19)
N3 C11 C10 127.4(2)
N3 C11 C12 110.5(2)
C10 C11 C12 122.1(2)
C13 C12 C11 107.4(2)
C13 C12 H12A 126.3
C11 C12 H12A 126.3
C12 C13 C14 107.1(2)
C12 C13 H13A 126.5
C14 C13 H13A 126.5
C15 C14 N3 125.4(2)
C15 C14 C13 125.1(2)
N3 C14 C13 109.4(2)
C14 C15 C16 121.4(2)
C14 C15 C33 121.3(2)
C16 C15 C33 117.3(2)
C19 C16 C17 106.06(19)
C19 C16 C15 124.3(2)
C17 C16 C15 129.1(2)
C18 C17 C16 108.6(2)
C18 C17 Zn 104.34(14)
C16 C17 Zn 105.52(15)
C18 C17 H17A 123.9(16)
C16 C17 H17A 126.6(15)
Zn C17 H17A 72.3(16)
C17 C18 N4 106.57(19)
C17 C18 C20 128.3(2)
N4 C18 C20 125.06(19)
N4 C19 C16 109.5(2)
N4 C19 H19A 125.3
C16 C19 H19A 125.3
C1 C20 C18 120.9(2)
C1 C20 C39 122.4(2)
C18 C20 C39 116.7(2)
C26 C21 C22 118.1(2)
C26 C21 C5 120.00(19)
C22 C21 C5 121.9(2)
C23 C22 C21 121.0(2)
C23 C22 H22A 119.5
C21 C22 H22A 119.5
C24 C23 C22 120.1(2)
C24 C23 H23A 119.9
C22 C23 H23A 119.9
C25 C24 C23 119.6(2)
C25 C24 H24A 120.2
C23 C24 H24A 120.2
C24 C25 C26 120.1(2)
C24 C25 H25A 119.9
C26 C25 H25A 119.9
C21 C26 C25 121.0(2)
C21 C26 H26A 119.5
C25 C26 H26A 119.5
C28 C27 C32 118.5(2)
C28 C27 C10 120.9(2)
C32 C27 C10 120.6(2)
C29 C28 C27 120.6(2)
C29 C28 H28A 119.7
C27 C28 H28A 119.7
C28 C29 C30 120.3(3)
C28 C29 H29A 119.9
C30 C29 H29A 119.9
C31 C30 C29 119.5(2)
C31 C30 H30A 120.2
C29 C30 H30A 120.2
C30 C31 C32 120.0(2)
C30 C31 H31A 120.0
C32 C31 H31A 120.0
C31 C32 C27 121.1(2)
C31 C32 H32A 119.5
C27 C32 H32A 119.5
C34 C33 C38 118.4(2)
C34 C33 C15 122.4(2)
C38 C33 C15 119.2(2)
C33 C34 C35 120.2(2)
C33 C34 H34A 119.9
C35 C34 H34A 119.9
C36 C35 C34 120.6(2)
C36 C35 H35A 119.7
C34 C35 H35A 119.7
C35 C36 C37 120.1(2)
C35 C36 H36A 120.0
C37 C36 H36A 120.0
C38 C37 C36 119.7(2)
C38 C37 H37A 120.1
C36 C37 H37A 120.1
C37 C38 C33 121.0(2)
C37 C38 H38A 119.5
C33 C38 H38A 119.5
C40 C39 C44 118.7(2)
C40 C39 C20 117.91(18)
C44 C39 C20 123.08(19)
C41 C40 C39 121.06(19)
C41 C40 H40A 119.5
C39 C40 H40A 119.5
C40 C41 C42 119.9(2)
C40 C41 H41A 120.0
C42 C41 H41A 120.0
C41 C42 C43 119.6(2)
C41 C42 H42A 120.2
C43 C42 H42A 120.2
C44 C43 C42 120.9(2)
C44 C43 H43A 119.6
C42 C43 H43A 119.6
C43 C44 C39 119.8(2)
C43 C44 H44A 120.1
C39 C44 H44A 120.1
N4 C45 C46 111.60(19)
N4 C45 H45A 109.3
C46 C45 H45A 109.3
N4 C45 H45B 109.3
C46 C45 H45B 109.3
H45A C45 H45B 108.0
O2 C46 O1 125.6(2)
O2 C46 C45 126.0(2)
O1 C46 C45 108.5(2)
O1 C47 C48 111.0(3)
O1 C47 H47A 109.4
C48 C47 H47A 109.4
O1 C47 H47B 109.4
C48 C47 H47B 109.4
H47A C47 H47B 108.0
C47 C48 H48A 109.5
C47 C48 H48B 109.5
H48A C48 H48B 109.5
C47 C48 H48C 109.5
H48A C48 H48C 109.5
H48B C48 H48C 109.5
loop_
_geom_bond_atom_site_label_1
_geom_bond_atom_site_label_2
_geom_bond_distance
Zn N2 1.9949(18)
Zn N1 2.1125(18)
Zn N3 2.1189(18)
Zn Cl 2.2533(6)
Zn C17 2.513(2)
O1 C46 1.339(3)
O1 C47 1.461(4)
O2 C46 1.200(3)
N1 C4 1.361(3)
N1 C1 1.395(3)
N2 C6 1.365(3)
N2 C9 1.375(3)
N3 C11 1.360(3)
N3 C14 1.400(3)
N4 C19 1.339(3)
N4 C18 1.398(3)
N4 C45 1.464(3)
C1 C20 1.380(3)
C1 C2 1.454(3)
C2 C3 1.346(3)
C2 H2A 0.9500
C3 C4 1.453(3)
C3 H3A 0.9500
C4 C5 1.409(3)
C5 C6 1.399(3)
C5 C21 1.496(3)
C6 C7 1.454(3)
C7 C8 1.341(3)
C7 H7A 0.9500
C8 C9 1.447(3)
C8 H8A 0.9500
C9 C10 1.382(3)
C10 C11 1.421(3)
C10 C27 1.506(3)
C11 C12 1.442(3)
C12 C13 1.343(3)
C12 H12A 0.9500
C13 C14 1.443(3)
C13 H13A 0.9500
C14 C15 1.380(3)
C15 C16 1.436(3)
C15 C33 1.484(3)
C16 C19 1.395(3)
C16 C17 1.405(3)
C17 C18 1.385(3)
C17 H17A 0.86(2)
C18 C20 1.435(3)
C19 H19A 0.9500
C20 C39 1.483(3)
C21 C26 1.386(3)
C21 C22 1.391(3)
C22 C23 1.383(3)
C22 H22A 0.9500
C23 C24 1.380(4)
C23 H23A 0.9500
C24 C25 1.379(4)
C24 H24A 0.9500
C25 C26 1.387(3)
C25 H25A 0.9500
C26 H26A 0.9500
C27 C28 1.390(4)
C27 C32 1.389(3)
C28 C29 1.382(4)
C28 H28A 0.9500
C29 C30 1.392(4)
C29 H29A 0.9500
C30 C31 1.376(4)
C30 H30A 0.9500
C31 C32 1.389(3)
C31 H31A 0.9500
C32 H32A 0.9500
C33 C34 1.405(3)
C33 C38 1.394(3)
C34 C35 1.383(3)
C34 H34A 0.9500
C35 C36 1.377(3)
C35 H35A 0.9500
C36 C37 1.387(3)
C36 H36A 0.9500
C37 C38 1.384(3)
C37 H37A 0.9500
C38 H38A 0.9500
C39 C40 1.395(3)
C39 C44 1.403(3)
C40 C41 1.378(3)
C40 H40A 0.9500
C41 C42 1.389(3)
C41 H41A 0.9500
C42 C43 1.386(3)
C42 H42A 0.9500
C43 C44 1.382(3)
C43 H43A 0.9500
C44 H44A 0.9500
C45 C46 1.519(3)
C45 H45A 0.9900
C45 H45B 0.9900
C47 C48 1.470(5)
C47 H47A 0.9900
C47 H47B 0.9900
C48 H48A 0.9800
C48 H48B 0.9800
C48 H48C 0.9800
