#------------------------------------------------------------------------------
#$Date: 2015-06-07 03:07:39 +0300 (Sun, 07 Jun 2015) $
#$Revision: 138713 $
#$URL: svn://www.crystallography.net/cod/cif/7/03/48/7034891.cif $
#------------------------------------------------------------------------------
#
# This file is available in the Crystallography Open Database (COD),
# http://www.crystallography.net/
#
# All data on this site have been placed in the public domain by the
# contributors.
#
data_7034891
loop_
_publ_author_name
'Kumar, Ravi'
'Chaudhri, Nivedita'
'Sankar, Muniappan'
_publ_section_title
;
 Ratiometric and colorimetric &quot;naked eye&quot; selective detection of
 CN(-) ions by electron deficient Ni(ii) porphyrins and their
 reversibility studies.
;
_journal_issue                   19
_journal_name_full
'Dalton transactions (Cambridge, England : 2003)'
_journal_page_first              9149
_journal_page_last               9157
_journal_paper_doi               10.1039/c5dt00937e
_journal_volume                  44
_journal_year                    2015
_chemical_formula_moiety         'C58 H34 N10 Ni'
_chemical_formula_sum            'C58 H34 N10 Ni'
_chemical_formula_weight         929.66
_chemical_name_common            'Ni-tetracyanoTPP bis(pyridine) complex'
_chemical_name_systematic
'2,3,12,13-Tetracyano-meso-tetraphenylporphyrinato Ni(II) bis(pyridine)'
_space_group_crystal_system      triclinic
_space_group_IT_number           2
_space_group_name_Hall           '-P 1'
_space_group_name_H-M_alt        'P -1'
_symmetry_space_group_name_Hall  '-P 1'
_symmetry_space_group_name_H-M   'P -1'
_atom_sites_solution_hydrogens   difmap
_audit_creation_date             2015-03-27
_audit_creation_method
;
Olex2 1.2-beta
(compiled 2015.01.26 svn.r3150 for OlexSys, GUI svn.r4998)
;
_audit_update_record
;
2015-04-03 deposited with the CCDC.
2015-04-09 downloaded from the CCDC.
;
_cell_angle_alpha                87.223(5)
_cell_angle_beta                 70.308(5)
_cell_angle_gamma                68.356(5)
_cell_formula_units_Z            1
_cell_length_a                   9.340(5)
_cell_length_b                   11.856(5)
_cell_length_c                   13.471(5)
_cell_measurement_reflns_used    6639
_cell_measurement_temperature    293(2)
_cell_measurement_theta_max      28.86
_cell_measurement_theta_min      1.61
_cell_volume                     1300.5(10)
_computing_cell_refinement       'APEX II SYSTEM SOFTWARE PROGRAMS'
_computing_data_collection       'APEX II SYSTEM SOFTWARE PROGRAMS'
_computing_data_reduction        'APEXII (WINGX)'
_computing_molecular_graphics    'ORTEP3 (WINGX)'
_computing_publication_material  'ShelXL (Sheldrick, 2008)'
_computing_structure_refinement  'ShelXL (Sheldrick, 2008)'
_computing_structure_solution    'ShelXS (Sheldrick, 1997)'
_diffrn_ambient_temperature      293(2)
_diffrn_measured_fraction_theta_full 0.990
_diffrn_measured_fraction_theta_max 0.971
_diffrn_measurement_device_type  'APEX II DIFFRACTOMETER'
_diffrn_measurement_method       \w
_diffrn_radiation_type           MoK\a
_diffrn_radiation_wavelength     0.71073
_diffrn_reflns_av_R_equivalents  0.0315
_diffrn_reflns_av_unetI/netI     0.0523
_diffrn_reflns_laue_measured_fraction_full 0.990
_diffrn_reflns_laue_measured_fraction_max 0.971
_diffrn_reflns_limit_h_max       12
_diffrn_reflns_limit_h_min       -12
_diffrn_reflns_limit_k_max       15
_diffrn_reflns_limit_k_min       -16
_diffrn_reflns_limit_l_max       18
_diffrn_reflns_limit_l_min       -15
_diffrn_reflns_number            6639
_diffrn_reflns_point_group_measured_fraction_full 0.990
_diffrn_reflns_point_group_measured_fraction_max 0.971
_diffrn_reflns_theta_full        25.000
_diffrn_reflns_theta_max         28.860
_diffrn_reflns_theta_min         2.350
_diffrn_source                   'fine-focus sealed tube'
_diffrn_standards_decay_%        0
_diffrn_standards_interval_count 100
_diffrn_standards_interval_time  1
_diffrn_standards_number         2
_exptl_absorpt_coefficient_mu    0.419
_exptl_absorpt_correction_T_max  0.918
_exptl_absorpt_correction_T_min  0.903
_exptl_absorpt_correction_type   psi-scan
_exptl_absorpt_process_details
;
 North A.C.T., Phillips D.C. & Mathews F.S. (1968) Acta. Cryst. A24, 351
;
_exptl_crystal_colour            green
_exptl_crystal_density_diffrn    1.187
_exptl_crystal_description       Needle
_exptl_crystal_F_000             480
_exptl_crystal_recrystallization_method
'Re-crystallisation from solvent: Chloroform/pyridine/hexane'
_exptl_crystal_size_max          0.3
_exptl_crystal_size_mid          0.25
_exptl_crystal_size_min          0.2
_platon_squeeze_details
;
The platon-squeeze procedure was implemented to remove the electronic 
contribution of solvent molecules from the refinement. Only the
atoms used in the refinement model are reported in the formula here.

Total solvent accessible volume / cell = 235 Ang^3^
Total electron count / cell = 67
;
_refine_diff_density_max         0.388
_refine_diff_density_min         -0.477
_refine_diff_density_rms         0.058
_refine_ls_extinction_method     none
_refine_ls_goodness_of_fit_ref   1.024
_refine_ls_hydrogen_treatment    noref
_refine_ls_matrix_type           full
_refine_ls_number_parameters     313
_refine_ls_number_reflns         6639
_refine_ls_number_restraints     0
_refine_ls_restrained_S_all      1.024
_refine_ls_R_factor_all          0.0719
_refine_ls_R_factor_gt           0.0418
_refine_ls_shift/su_max          0.000
_refine_ls_shift/su_mean         0.000
_refine_ls_structure_factor_coef Fsqd
_refine_ls_weighting_details
'w=1/[\s^2^(Fo^2^)+(0.0740P)^2^] where P=(Fo^2^+2Fc^2^)/3'
_refine_ls_weighting_scheme      calc
_refine_ls_wR_factor_gt          0.1178
_refine_ls_wR_factor_ref         0.1292
_reflns_Friedel_coverage         0.000
_reflns_number_gt                4560
_reflns_number_total             6639
_reflns_threshold_expression     'I > 2\s(I)'
_iucr_refine_instructions_details
;

    ups2165ms_rk_cn_tpp_ni_0m_sqd.res created by SHELXL-2014/7

TITL UPS2165MS_RK_CN_TPP_NI_0M OLEX2: imported from CIF
CELL 0.71073 9.34 11.856 13.471 87.223 70.308 68.356
ZERR 1 0.005 0.005 0.005 0.005 0.005 0.005
LATT 1
SFAC C H N Ni
DISP C 0.003 0.002
DISP H 0 0
DISP N 0.006 0.003
DISP Ni 0.339 1.112
UNIT 58 34 10 1
 
L.S. 5 0 38
PLAN  5
SIZE 0.3 0.25 0.2
TEMP 20(2)
MORE -1
BOND $H
CONF
fmap 2 53
acta 50
OMIT 2 0 3
OMIT -1 1 0
OMIT 0 0 2
OMIT 2 2 0
OMIT 0 -1 2
OMIT 0 0 3
OMIT 0 1 0
OMIT 0 0 1
OMIT 2 -1 3
OMIT 2 2 3
REM <olex2.extras>
REM <HklSrc "%.\\ups2165ms_rk_cn_tpp_ni_0m_sqd.hkl">
REM </olex2.extras>
 
WGHT    0.074000
FVAR       1.01962
NI01  4   10.000000   10.000000   10.000000    10.50000    0.03262    0.02334 =
         0.02842    0.00273   -0.00643   -0.00982
C12   1   -0.455954    0.454860    0.217520    11.00000    0.04050    0.02926 =
         0.04203   -0.00032   -0.00838   -0.01062
N1    3   -0.130345    0.184432    0.045113    11.00000    0.03316    0.02627 =
         0.03030    0.00306   -0.00885   -0.01093
C15   1   -0.452760    0.343008    0.493151    11.00000    0.12223    0.05986 =
         0.04560   -0.01000   -0.02162   -0.03625
H15   2    9.590100   10.372900   10.534800    11.00000   10.09000
N2    3   -0.124197   -0.040740    0.143346    11.00000    0.03458    0.02515 =
         0.03012    0.00266   -0.00730   -0.01061
C3AA  1   -0.298291    0.167939    0.227950    11.00000    0.03391    0.03153 =
         0.02891   -0.00026   -0.00842   -0.01156
N5    3    0.189368    0.004688    0.064750    11.00000    0.03944    0.03629 =
         0.03793    0.00308   -0.01130   -0.01575
C0AA  1   -0.124686    0.277665   -0.018893    11.00000    0.03260    0.02189 =
         0.03555    0.00224   -0.01197   -0.00830
C10   1   -0.011046    0.265189   -0.121830    11.00000    0.03771    0.02671 =
         0.03471    0.00707   -0.01459   -0.01400
C19   1   -0.017029    0.377314   -0.179229    11.00000    0.03476    0.02624 =
         0.03793    0.00520   -0.00770   -0.01019
C13   1   -0.412584    0.237314    0.332645    11.00000    0.04623    0.02823 =
         0.02942    0.00142   -0.00507   -0.01045
C2AA  1   -0.328290    0.363525    0.137358    11.00000    0.03328    0.02623 =
         0.03697   -0.00014   -0.00892   -0.00995
C11   1   -0.306604    0.509448    0.002162    11.00000    0.04622    0.02941 =
         0.04577    0.00177   -0.00654   -0.01040
C7    1   -0.297619   -0.024412    0.315284    11.00000    0.04626    0.03470 =
         0.02975    0.00451   -0.00212   -0.01084
H7    2    9.625901   10.010700   10.382300    11.00000   10.04800
C26   1    0.329255    0.114829    0.112747    11.00000    0.06176    0.04977 =
         0.08209   -0.00178   -0.03082   -0.02662
H26   2   10.343101   10.188001   10.115601    11.00000   10.07300
C24   1   -0.088140    0.402420   -0.255982    11.00000    0.05315    0.03709 =
         0.05550    0.01255   -0.02849   -0.01884
H24   2    9.868601   10.349100    9.727800    11.00000   10.05400
N4    3   -0.551316    0.534537    0.275826    11.00000    0.05567    0.04504 =
         0.05901   -0.01105   -0.00885   -0.00417
C6    1   -0.240399    0.041076    0.226361    11.00000    0.03356    0.03040 =
         0.02919    0.00469   -0.00857   -0.01065
C14   1   -0.350336    0.283366    0.393776    11.00000    0.07080    0.05288 =
         0.04293   -0.00400   -0.01297   -0.02714
H14   2    9.759100   10.275499   10.368401    11.00000   10.06700
C9    1   -0.104643   -0.154368    0.177433    11.00000    0.03633    0.02856 =
         0.03167    0.00525   -0.00856   -0.01281
C18   1   -0.575617    0.250574    0.371632    11.00000    0.04414    0.04640 =
         0.03990    0.00521   -0.00452   -0.00839
H18   2    9.382000   10.218500   10.331301    11.00000   10.05700
C23   1   -0.096299    0.506200   -0.309619    11.00000    0.06540    0.05104 =
         0.06275    0.02544   -0.03471   -0.01916
H23   2    9.854600   10.523301    9.638801    11.00000   10.07100
C21   1    0.038493    0.560978   -0.210154    11.00000    0.06173    0.04055 =
         0.08601    0.01939   -0.02671   -0.03157
H21   2   10.081100   10.614400    9.805600    11.00000   10.07100
C4    1   -0.251256    0.233226    0.140882    11.00000    0.03035    0.02628 =
         0.03225   -0.00131   -0.00980   -0.00900
C8    1   -0.217181   -0.143293    0.284732    11.00000    0.04912    0.03309 =
         0.03266    0.00892   -0.00313   -0.01199
H8    2    9.767800    9.793400   10.325201    11.00000   10.05200
C1AA  1   -0.252260    0.390483    0.037473    11.00000    0.03434    0.02559 =
         0.03787    0.00198   -0.01268   -0.01001
C20   1    0.048349    0.456736   -0.156835    11.00000    0.05157    0.03980 =
         0.05830    0.01299   -0.02417   -0.02233
H20   2   10.098500   10.440100    9.893901    11.00000   10.05700
C17   1   -0.675623    0.311061    0.471374    11.00000    0.05596    0.05198 =
         0.04580    0.00826    0.01053    0.00109
H17   2    9.213901   10.320701   10.498400    11.00000   10.07900
C25   1    0.217967    0.106359    0.070175    11.00000    0.04932    0.03485 =
         0.06625    0.00438   -0.02726   -0.01611
H25   2   10.159901   10.175000   10.043700    11.00000   10.05800
N3    3   -0.361393    0.606112   -0.018393    11.00000    0.07231    0.03297 =
         0.08217    0.01501   -0.01203   -0.00599
C29   1    0.276591   -0.091613    0.103367    11.00000    0.06513    0.04183 =
         0.07412    0.01614   -0.04266   -0.02562
H29   2   10.258101    9.836800   10.101301    11.00000   10.06600
C28   1    0.389273   -0.091089    0.146277    11.00000    0.07471    0.05539 =
         0.09499    0.01832   -0.05750   -0.02294
H28   2   10.445200    9.839300   10.174200    11.00000   10.08200
C22   1   -0.033586    0.584616   -0.286071    11.00000    0.05777    0.03913 =
         0.07712    0.02855   -0.01922   -0.01844
H22   2    9.958100   10.655101    9.678901    11.00000   10.07100
C27   1    0.416376    0.014918    0.151285    11.00000    0.06240    0.06513 =
         0.07634    0.00320   -0.04015   -0.02836
H27   2   10.493400   10.017400   10.179600    11.00000   10.07300
C16   1   -0.614220    0.355964    0.530887    11.00000    0.10150    0.04346 =
         0.03605   -0.00497    0.00667   -0.00412
H16   2    9.320101   10.396100   10.597200    11.00000   10.09300
HKLF 4
 
REM  UPS2165MS_RK_CN_TPP_NI_0M OLEX2: imported from CIF
REM R1 =  0.0418 for    4560 Fo > 4sig(Fo)  and  0.0719 for all    6639 data
REM    313 parameters refined using      0 restraints
 
END  
     
WGHT      0.0741      0.0000 

REM Highest difference peak  0.388,  deepest hole -0.477,  1-sigma level  0.058
Q1    1  -0.0981 -0.0397  0.0589  11.00000  0.05    0.39
Q2    1  -0.0255  0.0765 -0.0193  11.00000  0.05    0.36
Q3    1  -0.1335  0.1014  0.0313  11.00000  0.05    0.34
Q4    1  -0.3027  0.0228  0.2623  11.00000  0.05    0.32
Q5    1  -0.1584 -0.1579  0.2267  11.00000  0.05    0.31

REM The information below was added by Olex2.
REM
REM R1 = 0.0418 for 4560 Fo > 4sig(Fo) and 0.0719 for all 6643 data
REM n/a parameters refined using n/a restraints
REM Highest difference peak 0.39, deepest hole -0.48
REM Mean Shift 0, Max Shift 0.000.

REM +++ Tabular Listing of Refinement Information +++
REM R1_all = 0.0719
REM R1_gt = 0.0418
REM wR_ref = 0.1292
REM GOOF = 1.024
REM Shift_max = 0.000
REM Shift_mean = 0
REM Reflections_all = 6643
REM Reflections_gt = 4560
REM Parameters = n/a
REM Hole = -0.48
REM Peak = 0.39
REM Flack = n/a

;
_cod_data_source_file            c5dt00937e2.cif
_cod_data_source_block           ups2165ms_rk_cn_tpp_ni_0m_sqd
_cod_depositor_comments
;
The following automatic conversions were performed:
'__computing_data_collection' tag replaced with
'_computing_data_collection' tag.

Automatic conversion script
Id: cif_correct_tags 3376 2015-05-07 07:48:27Z andrius 

 Adding full bibliography for 7034889--7034893.cif.
;
_cod_database_code               7034891
_audit_block_doi                 10.5517/cc140ywz
_shelx_space_group_comment
;
The symmetry employed for this shelxl refinement is uniquely defined
by the following loop, which should always be used as a source of
symmetry information in preference to the above space-group names.
They are only intended as comments.
;
_shelx_estimated_absorpt_t_max   0.921
_shelx_estimated_absorpt_t_min   0.885
_olex2_refinement_description
;
1. Others
 Fixed Uiso: H15(0.09) H7(0.048) H26(0.073) H24(0.054) H14(0.067) H18(0.057)
 H23(0.071) H21(0.071) H8(0.052) H20(0.057) H17(0.079) H25(0.058) H29(0.066)
 H28(0.082) H22(0.071) H27(0.073) H16(0.093)
 Fixed X: Ni01(0) H15(-0.4099) H7(-0.374099) H26(0.343101) H24(-0.131399) H14(-
 0.2409) H18(-0.618) H23(-0.1454) H21(0.0811) H8(-0.2322) H20(0.0985) H17(-
 0.786099) H25(0.159901) H29(0.258101) H28(0.4452) H22(-0.0419) H27(0.4934)
 H16(-0.679899)
 Fixed Y: Ni01(0) H15(0.3729) H7(0.0107) H26(0.188001) H24(0.3491)
 H14(0.275499) H18(0.2185) H23(0.523301) H21(0.6144) H8(-0.2066) H20(0.4401)
 H17(0.320701) H25(0.175) H29(-0.1632) H28(-0.1607) H22(0.655101) H27(0.0174)
 H16(0.3961)
 Fixed Z: Ni01(0) H15(0.5348) H7(0.3823) H26(0.115601) H24(-0.2722)
 H14(0.368401) H18(0.331301) H23(-0.361199) H21(-0.1944) H8(0.325201) H20(-
 0.106099) H17(0.4984) H25(0.0437) H29(0.101301) H28(0.1742) H22(-0.321099)
 H27(0.1796) H16(0.5972)
;
_shelx_shelxl_version_number     2014/7
_olex2_submission_special_instructions 'No special instructions were received'
loop_
_space_group_symop_operation_xyz
'x, y, z'
'-x, -y, -z'
loop_
_atom_site_label
_atom_site_type_symbol
_atom_site_fract_x
_atom_site_fract_y
_atom_site_fract_z
_atom_site_U_iso_or_equiv
_atom_site_adp_type
_atom_site_occupancy
_atom_site_site_symmetry_order
_atom_site_calc_flag
_atom_site_refinement_flags_posn
_atom_site_refinement_flags_adp
_atom_site_refinement_flags_occupancy
Ni01 Ni 0.0000 0.0000 0.0000 0.02946(12) Uani 1 2 d S T P
C12 C -0.4560(3) 0.45486(18) 0.21752(15) 0.0395(4) Uani 1 1 d . . .
N1 N -0.13034(18) 0.18443(13) 0.04511(11) 0.0306(3) Uani 1 1 d . . .
C15 C -0.4528(4) 0.3430(2) 0.49315(19) 0.0767(8) Uani 1 1 d . . .
H15 H -0.4099 0.3729 0.5348 0.090 Uiso 1 1 d . . .
N2 N -0.12420(18) -0.04074(13) 0.14335(10) 0.0312(3) Uani 1 1 d . . .
C3AA C -0.2983(2) 0.16794(16) 0.22795(13) 0.0322(4) Uani 1 1 d . . .
N5 N 0.18937(19) 0.00469(14) 0.06475(11) 0.0380(4) Uani 1 1 d . . .
C0AA C -0.1247(2) 0.27766(15) -0.01889(13) 0.0305(4) Uani 1 1 d . . .
C10 C -0.0110(2) 0.26519(16) -0.12183(13) 0.0320(4) Uani 1 1 d . . .
C19 C -0.0170(2) 0.37731(16) -0.17923(14) 0.0348(4) Uani 1 1 d . . .
C13 C -0.4126(2) 0.23731(16) 0.33265(13) 0.0378(4) Uani 1 1 d . . .
C2AA C -0.3283(2) 0.36353(16) 0.13736(14) 0.0333(4) Uani 1 1 d . . .
C11 C -0.3066(3) 0.50945(18) 0.00216(15) 0.0441(5) Uani 1 1 d . . .
C7 C -0.2976(3) -0.02441(17) 0.31528(14) 0.0413(5) Uani 1 1 d . . .
H7 H -0.3741 0.0107 0.3823 0.048 Uiso 1 1 d . . .
C26 C 0.3293(3) 0.1148(2) 0.1127(2) 0.0608(6) Uani 1 1 d . . .
H26 H 0.3431 0.1880 0.1156 0.073 Uiso 1 1 d . . .
C24 C -0.0881(3) 0.40242(18) -0.25598(16) 0.0456(5) Uani 1 1 d . . .
H24 H -0.1314 0.3491 -0.2722 0.054 Uiso 1 1 d . . .
N4 N -0.5513(3) 0.53454(18) 0.27583(15) 0.0601(5) Uani 1 1 d . . .
C6 C -0.2404(2) 0.04108(16) 0.22636(13) 0.0321(4) Uani 1 1 d . . .
C14 C -0.3503(3) 0.2834(2) 0.39378(16) 0.0558(6) Uani 1 1 d . . .
H14 H -0.2409 0.2755 0.3684 0.067 Uiso 1 1 d . . .
C9 C -0.1046(2) -0.15437(16) 0.17743(13) 0.0329(4) Uani 1 1 d . . .
C18 C -0.5756(3) 0.2506(2) 0.37163(15) 0.0489(5) Uani 1 1 d . . .
H18 H -0.6180 0.2185 0.3313 0.057 Uiso 1 1 d . . .
C23 C -0.0963(3) 0.5062(2) -0.30962(18) 0.0578(6) Uani 1 1 d . . .
H23 H -0.1454 0.5233 -0.3612 0.071 Uiso 1 1 d . . .
C21 C 0.0385(3) 0.5610(2) -0.2102(2) 0.0591(6) Uani 1 1 d . . .
H21 H 0.0811 0.6144 -0.1944 0.071 Uiso 1 1 d . . .
C4 C -0.2513(2) 0.23323(15) 0.14088(13) 0.0302(4) Uani 1 1 d . . .
C8 C -0.2172(3) -0.14329(17) 0.28473(14) 0.0426(5) Uani 1 1 d . . .
H8 H -0.2322 -0.2066 0.3252 0.052 Uiso 1 1 d . . .
C1AA C -0.2523(2) 0.39048(16) 0.03747(14) 0.0329(4) Uani 1 1 d . . .
C20 C 0.0483(3) 0.45674(18) -0.15683(16) 0.0472(5) Uani 1 1 d . . .
H20 H 0.0985 0.4401 -0.1061 0.057 Uiso 1 1 d . . .
C17 C -0.6756(3) 0.3111(2) 0.47137(18) 0.0656(7) Uani 1 1 d . . .
H17 H -0.7861 0.3207 0.4984 0.079 Uiso 1 1 d . . .
C25 C 0.2180(3) 0.10636(18) 0.07018(17) 0.0480(5) Uani 1 1 d . . .
H25 H 0.1599 0.1750 0.0437 0.058 Uiso 1 1 d . . .
N3 N -0.3614(3) 0.60611(17) -0.01839(17) 0.0710(6) Uani 1 1 d . . .
C29 C 0.2766(3) -0.0916(2) 0.10337(19) 0.0539(6) Uani 1 1 d . . .
H29 H 0.2581 -0.1632 0.1013 0.066 Uiso 1 1 d . . .
C28 C 0.3893(3) -0.0911(2) 0.1463(2) 0.0681(7) Uani 1 1 d . . .
H28 H 0.4452 -0.1607 0.1742 0.082 Uiso 1 1 d . . .
C22 C -0.0336(3) 0.5846(2) -0.2861(2) 0.0599(6) Uani 1 1 d . . .
H22 H -0.0419 0.6551 -0.3211 0.071 Uiso 1 1 d . . .
C27 C 0.4164(3) 0.0149(2) 0.1513(2) 0.0620(6) Uani 1 1 d . . .
H27 H 0.4934 0.0174 0.1796 0.073 Uiso 1 1 d . . .
C16 C -0.6142(4) 0.3560(2) 0.53089(18) 0.0754(9) Uani 1 1 d . . .
H16 H -0.6799 0.3961 0.5972 0.093 Uiso 1 1 d . . .
loop_
_atom_site_aniso_label
_atom_site_aniso_U_11
_atom_site_aniso_U_22
_atom_site_aniso_U_33
_atom_site_aniso_U_23
_atom_site_aniso_U_13
_atom_site_aniso_U_12
Ni01 0.0326(2) 0.02334(18) 0.02842(17) 0.00273(12) -0.00643(13) -0.00982(15)
C12 0.0405(12) 0.0293(10) 0.0420(10) -0.0003(8) -0.0084(9) -0.0106(9)
N1 0.0332(9) 0.0263(8) 0.0303(7) 0.0031(6) -0.0088(6) -0.0109(7)
C15 0.122(3) 0.0599(16) 0.0456(14) -0.0100(11) -0.0216(16) -0.0363(18)
N2 0.0346(9) 0.0252(7) 0.0301(7) 0.0027(6) -0.0073(6) -0.0106(7)
C3AA 0.0339(10) 0.0315(10) 0.0289(8) -0.0003(7) -0.0084(7) -0.0116(9)
N5 0.0394(10) 0.0363(9) 0.0379(8) 0.0031(7) -0.0113(7) -0.0158(8)
C0AA 0.0326(10) 0.0219(8) 0.0356(9) 0.0022(7) -0.0120(8) -0.0083(8)
C10 0.0377(11) 0.0267(9) 0.0347(9) 0.0071(7) -0.0146(8) -0.0140(8)
C19 0.0348(11) 0.0262(9) 0.0379(9) 0.0052(7) -0.0077(8) -0.0102(8)
C13 0.0462(12) 0.0282(9) 0.0294(9) 0.0014(7) -0.0051(8) -0.0104(9)
C2AA 0.0333(10) 0.0262(9) 0.0370(9) -0.0001(7) -0.0089(8) -0.0099(8)
C11 0.0462(13) 0.0294(10) 0.0458(11) 0.0018(8) -0.0065(9) -0.0104(10)
C7 0.0463(12) 0.0347(10) 0.0297(9) 0.0045(7) -0.0021(8) -0.0108(10)
C26 0.0618(16) 0.0498(14) 0.0821(17) -0.0018(12) -0.0308(14) -0.0266(13)
C24 0.0531(14) 0.0371(11) 0.0555(12) 0.0126(9) -0.0285(11) -0.0188(10)
N4 0.0557(13) 0.0450(11) 0.0590(12) -0.0111(9) -0.0088(10) -0.0042(10)
C6 0.0336(10) 0.0304(9) 0.0292(8) 0.0047(7) -0.0086(7) -0.0106(8)
C14 0.0708(16) 0.0529(14) 0.0429(12) -0.0040(10) -0.0130(11) -0.0271(13)
C9 0.0363(11) 0.0286(9) 0.0317(9) 0.0053(7) -0.0086(8) -0.0128(9)
C18 0.0441(13) 0.0464(12) 0.0399(10) 0.0052(9) -0.0045(9) -0.0084(11)
C23 0.0654(16) 0.0510(14) 0.0628(14) 0.0254(11) -0.0347(12) -0.0192(13)
C21 0.0617(16) 0.0406(12) 0.0860(17) 0.0194(12) -0.0267(13) -0.0316(12)
C4 0.0304(10) 0.0263(9) 0.0322(9) -0.0013(7) -0.0098(7) -0.0090(8)
C8 0.0491(13) 0.0331(10) 0.0327(9) 0.0089(8) -0.0031(8) -0.0120(10)
C1AA 0.0343(10) 0.0256(9) 0.0379(9) 0.0020(7) -0.0127(8) -0.0100(8)
C20 0.0516(14) 0.0398(11) 0.0583(12) 0.0130(9) -0.0242(11) -0.0223(11)
C17 0.0560(16) 0.0520(15) 0.0458(13) 0.0083(11) 0.0105(11) 0.0011(13)
C25 0.0493(13) 0.0348(11) 0.0662(14) 0.0044(10) -0.0273(11) -0.0161(10)
N3 0.0723(15) 0.0330(11) 0.0822(14) 0.0150(10) -0.0120(12) -0.0060(10)
C29 0.0651(16) 0.0418(12) 0.0741(15) 0.0161(11) -0.0427(13) -0.0256(12)
C28 0.0747(19) 0.0554(15) 0.095(2) 0.0183(14) -0.0575(17) -0.0229(14)
C22 0.0578(15) 0.0391(12) 0.0771(16) 0.0286(11) -0.0192(13) -0.0184(12)
C27 0.0624(16) 0.0651(17) 0.0763(16) 0.0032(13) -0.0402(14) -0.0284(14)
C16 0.102(2) 0.0435(14) 0.0360(12) -0.0050(10) 0.0067(14) -0.0041(15)
loop_
_atom_type_symbol
_atom_type_description
_atom_type_scat_dispersion_real
_atom_type_scat_dispersion_imag
_atom_type_scat_source
C C 0.0030 0.0020 'International Tables Vol C Tables 4.2.6.8 and 6.1.1.4'
H H 0.0000 0.0000 'International Tables Vol C Tables 4.2.6.8 and 6.1.1.4'
N N 0.0060 0.0030 'International Tables Vol C Tables 4.2.6.8 and 6.1.1.4'
Ni Ni 0.3390 1.1120 'International Tables Vol C Tables 4.2.6.8 and 6.1.1.4'
loop_
_geom_angle_atom_site_label_1
_geom_angle_atom_site_label_2
_geom_angle_atom_site_label_3
_geom_angle
_geom_angle_site_symmetry_1
_geom_angle_site_symmetry_3
N1 Ni01 N1 180.0 . 2
N1 Ni01 N5 89.98(6) 2 .
N1 Ni01 N5 90.02(6) 2 2
N1 Ni01 N5 90.02(6) . .
N1 Ni01 N5 89.98(6) . 2
N2 Ni01 N1 89.61(6) 2 .
N2 Ni01 N1 90.39(6) 2 2
N2 Ni01 N1 89.61(6) . 2
N2 Ni01 N1 90.39(6) . .
N2 Ni01 N2 180.0 2 .
N2 Ni01 N5 90.78(6) 2 .
N2 Ni01 N5 89.22(6) . .
N2 Ni01 N5 89.22(6) 2 2
N2 Ni01 N5 90.78(6) . 2
N5 Ni01 N5 180.0 . 2
N4 C12 C2AA 173.7(2) . .
C0AA N1 Ni01 126.15(12) . .
C4 N1 Ni01 125.36(11) . .
C4 N1 C0AA 108.10(14) . .
C14 C15 H15 119.4(3) . .
C16 C15 H15 120.1(3) . .
C16 C15 C14 120.5(2) . .
C6 N2 Ni01 126.34(11) . .
C9 N2 Ni01 126.99(12) . .
C9 N2 C6 106.64(13) . .
C6 C3AA C13 116.24(14) . .
C6 C3AA C4 124.82(16) . .
C4 C3AA C13 118.87(15) . .
C25 N5 Ni01 121.59(13) . .
C29 N5 Ni01 122.53(12) . .
C29 N5 C25 115.84(17) . .
N1 C0AA C10 125.25(16) . .
N1 C0AA C1AA 108.93(15) . .
C10 C0AA C1AA 125.81(16) . .
C0AA C10 C19 118.47(16) . .
C9 C10 C0AA 124.90(15) 2 .
C9 C10 C19 116.57(15) 2 .
C24 C19 C10 119.58(16) . .
C24 C19 C20 118.99(17) . .
C20 C19 C10 121.43(17) . .
C14 C13 C3AA 118.81(18) . .
C18 C13 C3AA 121.69(17) . .
C18 C13 C14 119.41(18) . .
C12 C2AA C4 130.46(16) . .
C1AA C2AA C12 122.65(16) . .
C1AA C2AA C4 106.87(15) . .
N3 C11 C1AA 174.1(2) . .
C6 C7 H7 126.04(19) . .
C8 C7 H7 126.74(17) . .
C8 C7 C6 107.19(16) . .
C25 C26 H26 120.2(3) . .
C27 C26 H26 120.8(2) . .
C27 C26 C25 119.0(2) . .
C19 C24 H24 119.67(18) . .
C19 C24 C23 120.63(18) . .
C23 C24 H24 119.7(2) . .
N2 C6 C3AA 126.73(15) . .
N2 C6 C7 109.39(15) . .
C3AA C6 C7 123.88(16) . .
C15 C14 H14 120.0(2) . .
C13 C14 C15 119.6(2) . .
C13 C14 H14 120.4(2) . .
N2 C9 C10 126.48(15) . 2
N2 C9 C8 109.44(15) . .
C10 C9 C8 123.99(16) 2 .
C13 C18 H18 119.9(2) . .
C13 C18 C17 119.8(2) . .
C17 C18 H18 120.4(2) . .
C24 C23 H23 120.4(2) . .
C22 C23 C24 120.0(2) . .
C22 C23 H23 119.6(2) . .
C20 C21 H21 119.9(2) . .
C22 C21 H21 120.1(2) . .
C22 C21 C20 120.00(19) . .
N1 C4 C3AA 126.05(16) . .
N1 C4 C2AA 109.02(14) . .
C3AA C4 C2AA 124.89(16) . .
C7 C8 C9 107.29(15) . .
C7 C8 H8 125.82(19) . .
C9 C8 H8 126.89(19) . .
C2AA C1AA C0AA 107.01(15) . .
C2AA C1AA C11 122.46(17) . .
C11 C1AA C0AA 130.41(16) . .
C19 C20 H20 119.88(18) . .
C21 C20 C19 120.1(2) . .
C21 C20 H20 120.0(2) . .
C18 C17 H17 120.5(3) . .
C16 C17 C18 120.6(2) . .
C16 C17 H17 118.9(3) . .
N5 C25 C26 123.7(2) . .
N5 C25 H25 118.17(19) . .
C26 C25 H25 118.1(2) . .
N5 C29 H29 117.6(2) . .
N5 C29 C28 124.17(19) . .
C28 C29 H29 118.3(2) . .
C29 C28 H28 120.8(2) . .
C29 C28 C27 119.0(2) . .
C27 C28 H28 120.2(2) . .
C23 C22 C21 120.34(19) . .
C23 C22 H22 119.5(3) . .
C21 C22 H22 120.1(2) . .
C26 C27 C28 118.4(2) . .
C26 C27 H27 121.0(2) . .
C28 C27 H27 120.6(3) . .
C15 C16 H16 118.9(3) . .
C17 C16 C15 120.1(2) . .
C17 C16 H16 121.1(4) . .
loop_
_geom_bond_atom_site_label_1
_geom_bond_atom_site_label_2
_geom_bond_distance
_geom_bond_site_symmetry_2
Ni01 N1 2.0735(16) 2
Ni01 N1 2.0735(16) .
Ni01 N2 2.0300(14) .
Ni01 N2 2.0300(14) 2
Ni01 N5 2.2381(18) .
Ni01 N5 2.2381(18) 2
C12 C2AA 1.433(3) .
C12 N4 1.132(3) .
N1 C0AA 1.374(2) .
N1 C4 1.372(2) .
C15 H15 0.936(3) .
C15 C14 1.392(3) .
C15 C16 1.370(4) .
N2 C6 1.371(2) .
N2 C9 1.369(2) .
C3AA C13 1.502(2) .
C3AA C6 1.397(2) .
C3AA C4 1.408(2) .
N5 C25 1.338(2) .
N5 C29 1.334(3) .
C0AA C10 1.408(2) .
C0AA C1AA 1.449(2) .
C10 C19 1.498(2) .
C10 C9 1.399(3) 2
C19 C24 1.373(3) .
C19 C20 1.388(3) .
C13 C14 1.384(3) .
C13 C18 1.383(3) .
C2AA C4 1.450(2) .
C2AA C1AA 1.378(2) .
C11 C1AA 1.429(3) .
C11 N3 1.133(3) .
C7 H7 0.9386(18) .
C7 C6 1.452(2) .
C7 C8 1.337(3) .
C26 H26 0.927(2) .
C26 C25 1.380(3) .
C26 C27 1.360(3) .
C24 H24 0.9338(19) .
C24 C23 1.387(3) .
C14 H14 0.931(2) .
C9 C10 1.399(3) 2
C9 C8 1.451(2) .
C18 H18 0.934(2) .
C18 C17 1.395(3) .
C23 H23 0.931(2) .
C23 C22 1.365(3) .
C21 H21 0.928(2) .
C21 C20 1.388(3) .
C21 C22 1.369(3) .
C8 H8 0.9310(17) .
C20 H20 0.927(2) .
C17 H17 0.935(3) .
C17 C16 1.353(4) .
C25 H25 0.928(2) .
C29 H29 0.930(2) .
C29 C28 1.363(3) .
C28 H28 0.938(2) .
C28 C27 1.379(3) .
C22 H22 0.930(2) .
C27 H27 0.930(2) .
C16 H16 0.926(2) .
loop_
_geom_torsion_atom_site_label_1
_geom_torsion_atom_site_label_2
_geom_torsion_atom_site_label_3
_geom_torsion_atom_site_label_4
_geom_torsion
_geom_torsion_site_symmetry_1
_geom_torsion_site_symmetry_4
Ni01 N1 C0AA C10 -10.2(3) . .
Ni01 N1 C0AA C1AA 170.83(11) . .
Ni01 N1 C4 C3AA 5.7(2) . .
Ni01 N1 C4 C2AA -172.21(11) . .
Ni01 N2 C6 C3AA 1.4(3) . .
Ni01 N2 C6 C7 -178.92(12) . .
Ni01 N2 C9 C10 3.4(3) . 2
Ni01 N2 C9 C8 179.98(12) . .
Ni01 N5 C25 C26 177.68(17) . .
Ni01 N5 C29 C28 -178.0(2) . .
C12 C2AA C4 N1 -177.84(18) . .
C12 C2AA C4 C3AA 4.2(3) . .
C12 C2AA C1AA C0AA 176.66(17) . .
C12 C2AA C1AA C11 -7.0(3) . .
N1 C0AA C10 C19 -177.28(16) . .
N1 C0AA C10 C9 5.4(3) . 2
N1 C0AA C1AA C2AA 2.8(2) . .
N1 C0AA C1AA C11 -173.18(18) . .
N2 C9 C8 C7 -2.4(2) . .
C3AA C13 C14 C15 -177.0(2) . .
C3AA C13 C18 C17 177.13(18) . .
N5 C29 C28 C27 0.3(4) . .
C0AA N1 C4 C3AA 178.86(16) . .
C0AA N1 C4 C2AA 0.9(2) . .
C0AA C10 C19 C24 -102.1(2) . .
C0AA C10 C19 C20 78.1(2) . .
C10 C0AA C1AA C2AA -176.21(17) . .
C10 C0AA C1AA C11 7.9(3) . .
C10 C19 C24 C23 179.5(2) . .
C10 C19 C20 C21 -178.9(2) . .
C10 C9 C8 C7 174.21(18) 2 .
C19 C24 C23 C22 -0.1(4) . .
C13 C3AA C6 N2 -173.52(16) . .
C13 C3AA C6 C7 6.8(3) . .
C13 C3AA C4 N1 169.63(16) . .
C13 C3AA C4 C2AA -12.8(3) . .
C13 C18 C17 C16 -0.6(3) . .
C24 C19 C20 C21 1.3(3) . .
C24 C23 C22 C21 0.4(4) . .
C6 N2 C9 C10 -174.48(17) . 2
C6 N2 C9 C8 2.1(2) . .
C6 C3AA C13 C14 99.1(2) . .
C6 C3AA C13 C18 -77.4(2) . .
C6 C3AA C4 N1 -7.2(3) . .
C6 C3AA C4 C2AA 170.40(18) . .
C6 C7 C8 C9 1.7(2) . .
C14 C15 C16 C17 -0.2(4) . .
C14 C13 C18 C17 0.6(3) . .
C9 N2 C6 C3AA 179.28(17) . .
C9 N2 C6 C7 -1.0(2) . .
C9 C10 C19 C24 75.4(2) 2 .
C9 C10 C19 C20 -104.4(2) 2 .
C18 C13 C14 C15 -0.4(3) . .
C18 C17 C16 C15 0.4(4) . .
C4 N1 C0AA C10 176.71(16) . .
C4 N1 C0AA C1AA -2.26(19) . .
C4 C3AA C13 C14 -78.0(2) . .
C4 C3AA C13 C18 105.5(2) . .
C4 C3AA C6 N2 3.4(3) . .
C4 C3AA C6 C7 -176.30(18) . .
C4 C2AA C1AA C0AA -2.10(19) . .
C4 C2AA C1AA C11 174.24(17) . .
C8 C7 C6 N2 -0.5(2) . .
C8 C7 C6 C3AA 179.20(19) . .
C1AA C0AA C10 C19 1.5(3) . .
C1AA C0AA C10 C9 -175.77(17) . 2
C1AA C2AA C4 N1 0.8(2) . .
C1AA C2AA C4 C3AA -177.16(16) . .
C20 C19 C24 C23 -0.7(3) . .
C20 C21 C22 C23 0.1(4) . .
C25 N5 C29 C28 -0.1(3) . .
C25 C26 C27 C28 -0.1(4) . .
C29 N5 C25 C26 -0.2(3) . .
C29 C28 C27 C26 -0.1(4) . .
C22 C21 C20 C19 -1.0(4) . .
C27 C26 C25 N5 0.3(4) . .
C16 C15 C14 C13 0.2(4) . .
loop_
_platon_squeeze_void_nr
_platon_squeeze_void_average_x
_platon_squeeze_void_average_y
_platon_squeeze_void_average_z
_platon_squeeze_void_volume
_platon_squeeze_void_count_electrons
_platon_squeeze_void_content
1 0.000 0.000 0.500 235 67 ' '
