#------------------------------------------------------------------------------
#$Date: 2016-03-25 23:46:43 +0200 (Fri, 25 Mar 2016) $
#$Revision: 180053 $
#$URL: svn://www.crystallography.net/cod/cif/7/03/47/7034746.cif $
#------------------------------------------------------------------------------
#
# This file is available in the Crystallography Open Database (COD),
# http://www.crystallography.net/
#
# All data on this site have been placed in the public domain by the
# contributors.
#
data_7034746
loop_
_publ_author_name
'Balasanthiran, Vagulejan'
'Chisholm, Malcolm H.'
'Durr, Christopher B.'
_publ_section_title
;
 Bismuth-lithium bonding in the ion pairs: LiBiL2, where L = a porphyrin
 or a salen ligand.
;
_journal_issue                   17
_journal_name_full
'Dalton transactions (Cambridge, England : 2003)'
_journal_page_first              8205
_journal_page_last               8213
_journal_paper_doi               10.1039/c5dt00256g
_journal_volume                  44
_journal_year                    2015
_chemical_formula_sum            'C73 H94 Bi Cl2 Li N4 O4'
_chemical_formula_weight         1378.34
_chemical_name_systematic
;
 ?
;
_chemical_properties_physical    'Air-sensitive, Moisture-sensitive'
_space_group_IT_number           2
_symmetry_cell_setting           triclinic
_symmetry_Int_Tables_number      2
_symmetry_space_group_name_Hall  '-P 1'
_symmetry_space_group_name_H-M   'P -1'
_atom_sites_solution_hydrogens   geom
_audit_conform_dict_location     ftp://ftp.iucr.org/pub/cif_core.dic
_audit_conform_dict_name         cif_core.dic
_audit_conform_dict_version      2.4.3
_audit_creation_date             2014-12-02T13:02:20-00:00
_audit_creation_method           'WinGX routine CIF_UPDATE'
_audit_update_record
;
2015-01-16 deposited with the CCDC.
2015-03-19 downloaded from the CCDC.
;
_cell_angle_alpha                108.2250(10)
_cell_angle_beta                 105.1500(10)
_cell_angle_gamma                101.1660(10)
_cell_formula_units_Z            2
_cell_length_a                   14.3587(2)
_cell_length_b                   14.81930(10)
_cell_length_c                   19.3492(3)
_cell_measurement_reflns_used    16460
_cell_measurement_temperature    150(2)
_cell_measurement_theta_max      27.48
_cell_measurement_theta_min      1.02
_cell_measurement_wavelength     0.71073
_cell_volume                     3600.47(9)
_computing_cell_refinement       'HKL Scalepack (Otwinowski & Minor 1997)'
_computing_data_collection       'Collect (Bruker AXS BV, 1997-2004)'
_computing_data_reduction
'HKL Denzo and Scalepack (Otwinowski & Minor 1997)'
_computing_molecular_graphics    'Ortep for Windows (Farrugia, 2012)'
_computing_publication_material  'WinGX publication routines (Farrugia, 2012)'
_computing_structure_refinement  'SHELXL-2014 (Sheldrick, 2014)'
_diffrn_ambient_temperature      150(2)
_diffrn_detector                 'CCD plate'
_diffrn_detector_area_resol_mean 9
_diffrn_measured_fraction_theta_full 1
_diffrn_measured_fraction_theta_max 0.999
_diffrn_measurement_device       '95mm CCD camera on \k-goniostat'
_diffrn_measurement_device_type  KappaCCD
_diffrn_measurement_method       'CCD rotation images, thick slices'
_diffrn_orient_matrix_UB_11      0.042963
_diffrn_orient_matrix_UB_12      -0.019715
_diffrn_orient_matrix_UB_13      -0.031796
_diffrn_orient_matrix_UB_21      0.056617
_diffrn_orient_matrix_UB_22      0.061693
_diffrn_orient_matrix_UB_23      0.036023
_diffrn_orient_matrix_UB_31      0.02593
_diffrn_orient_matrix_UB_32      -0.036764
_diffrn_orient_matrix_UB_33      0.032455
_diffrn_radiation_monochromator  'horizonally mounted graphite crystal'
_diffrn_radiation_probe          x-ray
_diffrn_radiation_type           MoK\a
_diffrn_radiation_wavelength     0.71073
_diffrn_reflns_av_R_equivalents  0.051
_diffrn_reflns_Laue_measured_fraction_full 1
_diffrn_reflns_Laue_measured_fraction_max 0.999
_diffrn_reflns_limit_h_max       18
_diffrn_reflns_limit_h_min       -18
_diffrn_reflns_limit_k_max       18
_diffrn_reflns_limit_k_min       -19
_diffrn_reflns_limit_l_max       25
_diffrn_reflns_limit_l_min       -25
_diffrn_reflns_number            32414
_diffrn_reflns_point_group_measured_fraction_full 1
_diffrn_reflns_point_group_measured_fraction_max 0.999
_diffrn_reflns_theta_full        25.242
_diffrn_reflns_theta_max         27.471
_diffrn_reflns_theta_min         1.181
_diffrn_source                   'Enraf Nonius FR590'
_exptl_absorpt_coefficient_mu    2.57
_exptl_absorpt_correction_T_max  0.554
_exptl_absorpt_correction_T_min  0.422
_exptl_absorpt_correction_type   multi-scan
_exptl_absorpt_process_details   'HKL Scalepack (Otwinowski & Minor, 1997)'
_exptl_crystal_colour            red
_exptl_crystal_density_diffrn    1.271
_exptl_crystal_density_method    'not measured'
_exptl_crystal_description       block
_exptl_crystal_F_000             1424
_exptl_crystal_size_max          0.35
_exptl_crystal_size_mid          0.27
_exptl_crystal_size_min          0.23
_platon_squeeze_details
;
 A net of residual "Q" peaks remained in the difference map after the
 final refinement that could not be adequately modeled as solvent. The PLATON 
 squeeze program was utilized to remove the residual electron density. The program
 removed 136 electrons from the solvent accessible void which correlates 
 to highly disordered CH2Cl2 molecules which was a solvent used in crystalization.
;
_refine_diff_density_max         1.463
_refine_diff_density_min         -1.26
_refine_diff_density_rms         0.202
_refine_ls_extinction_method     none
_refine_ls_goodness_of_fit_ref   1.148
_refine_ls_hydrogen_treatment    constr
_refine_ls_matrix_type           full
_refine_ls_number_constraints    0
_refine_ls_number_parameters     800
_refine_ls_number_reflns         16482
_refine_ls_number_restraints     6
_refine_ls_restrained_S_all      1.168
_refine_ls_R_factor_all          0.0496
_refine_ls_R_factor_gt           0.0345
_refine_ls_shift/su_max          0.003
_refine_ls_shift/su_mean         0
_refine_ls_structure_factor_coef Fsqd
_refine_ls_weighting_details
'w=1/[\s^2^(Fo^2^)+(0.0601P)^2^] where P=(Fo^2^+2Fc^2^)/3'
_refine_ls_weighting_scheme      calc
_refine_ls_wR_factor_gt          0.0857
_refine_ls_wR_factor_ref         0.1064
_reflns_number_gt                13874
_reflns_number_total             16482
_reflns_threshold_expression     'I > 2\s(I)'
_iucr_refine_instructions_details
;
TITL shelx in P1
CELL  0.71073  14.3587  14.8193  19.3492  108.225  105.150  101.166
ZERR     2.00   0.0002   0.0001   0.0003    0.001    0.001    0.001
LATT   1
SFAC  C    H    BI   LI   N    O    CL
UNIT  146  188  2    2    8    8    4
MERG   2
ABIN
SADI C69 C68 C69 C67 C68 C67
SADI C63 C68 C63 C69 C63 C67
EADP C1A C1B
EXYZ C1A C1B
FMAP   2
PLAN  100
ACTA
SIZE 0.23 0.27 0.35
BOND   $H
L.S.  15
TEMP  -123.00
WGHT    0.060100
FVAR       0.10519   0.56759
C1    1    0.764821    0.711783    0.771942    11.00000    0.02313    0.03157 =
         0.01776    0.01127    0.00988    0.01041
C2    1    0.790745    0.793732    0.844235    11.00000    0.02289    0.03161 =
         0.01907    0.00935    0.00906    0.01027
C3    1    0.783976    0.772712    0.907916    11.00000    0.03362    0.03607 =
         0.01837    0.00983    0.01154    0.01596
AFIX  43
H3    2    0.801229    0.827544    0.955427    11.00000   -1.20000
AFIX   0
C4    1    0.753471    0.676259    0.907815    11.00000    0.04057    0.04312 =
         0.02140    0.01636    0.01818    0.02065
C5    1    0.723677    0.598999    0.837452    11.00000    0.03981    0.03500 =
         0.02657    0.01787    0.01908    0.01776
AFIX  43
H5    2    0.701978    0.532733    0.834556    11.00000   -1.20000
AFIX   0
C6    1    0.724098    0.614385    0.769332    11.00000    0.02958    0.03028 =
         0.02275    0.01275    0.01534    0.01301
C7    1    0.676158    0.526838    0.697403    11.00000    0.03275    0.02597 =
         0.02739    0.01407    0.01661    0.01359
AFIX  43
H7    2    0.662557    0.463554    0.701186    11.00000   -1.20000
AFIX   0
C8    1    0.594116    0.439997    0.562856    11.00000    0.02360    0.02489 =
         0.02624    0.00913    0.00936    0.01272
C9    1    0.587736    0.447407    0.491049    11.00000    0.02036    0.02317 =
         0.02448    0.00530    0.00817    0.01108
C10   1    0.655605    0.551711    0.434893    11.00000    0.02605    0.03018 =
         0.01621    0.00376    0.00539    0.01538
AFIX  43
H10   2    0.625533    0.495391    0.387318    11.00000   -1.20000
AFIX   0
C11   1    0.711109    0.642787    0.432790    11.00000    0.02722    0.03088 =
         0.02247    0.01329    0.01250    0.01688
C12   1    0.706817    0.641004    0.358703    11.00000    0.04991    0.03871 =
         0.01715    0.01302    0.01264    0.02672
AFIX  43
H12   2    0.669816    0.581243    0.314622    11.00000   -1.20000
AFIX   0
C13   1    0.754421    0.722903    0.348267    11.00000    0.08421    0.04398 =
         0.02849    0.02463    0.03374    0.03890
C14   1    0.801781    0.811164    0.414155    11.00000    0.06925    0.03391 =
         0.03390    0.02497    0.03191    0.02825
AFIX  43
H14   2    0.831813    0.869283    0.407318    11.00000   -1.20000
AFIX   0
C15   1    0.807920    0.819665    0.489120    11.00000    0.03731    0.03304 =
         0.02486    0.01752    0.01798    0.02168
C16   1    0.769469    0.730738    0.500138    11.00000    0.02512    0.03002 =
         0.01748    0.01260    0.01210    0.01655
C17   1    0.851810    0.922439    0.556904    11.00000    0.03496    0.02821 =
         0.03090    0.01877    0.01573    0.01279
C18   1    0.775415    0.937876    0.598754    11.00000    0.05515    0.02668 =
         0.03963    0.01165    0.03084    0.01273
AFIX 137
H18A  2    0.756029    0.880967    0.613046    11.00000   -1.50000
H18B  2    0.715218    0.943513    0.564285    11.00000   -1.50000
H18C  2    0.806233    0.999003    0.645645    11.00000   -1.50000
AFIX   0
C19   1    0.952445    0.932082    0.614194    11.00000    0.04292    0.03020 =
         0.05077    0.01838    0.00018    0.00695
AFIX 137
H19A  2    0.980118    0.999561    0.654356    11.00000   -1.50000
H19B  2    0.999994    0.919256    0.586769    11.00000   -1.50000
H19C  2    0.941959    0.883630    0.638311    11.00000   -1.50000
AFIX   0
C20   1    0.869478    1.008404    0.528519    11.00000    0.04676    0.03236 =
         0.04135    0.02349    0.02091    0.01781
AFIX 137
H20A  2    0.890536    1.072194    0.572475    11.00000   -1.50000
H20B  2    0.806647    1.002425    0.489633    11.00000   -1.50000
H20C  2    0.922488    1.005269    0.505395    11.00000   -1.50000
AFIX   0
C21   1    0.823339    0.902310    0.850259    11.00000    0.03138    0.02735 =
         0.02040    0.00561    0.00948    0.00407
C22   1    0.838511    0.978326    0.930747    11.00000    0.05497    0.03854 =
         0.02719    0.00461    0.01837    0.01382
AFIX 137
H22A  2    0.892660    0.971902    0.970208    11.00000   -1.50000
H22B  2    0.775569    0.965583    0.941901    11.00000   -1.50000
H22C  2    0.856960    1.045860    0.931345    11.00000   -1.50000
AFIX   0
C23   1    0.741561    0.919848    0.791537    11.00000    0.04142    0.03045 =
         0.03173    0.01250    0.01076    0.01150
AFIX 137
H23A  2    0.764752    0.987712    0.793726    11.00000   -1.50000
H23B  2    0.679349    0.911133    0.804011    11.00000   -1.50000
H23C  2    0.728225    0.871927    0.739279    11.00000   -1.50000
AFIX   0
C24   1    0.752727    0.662604    0.982986    11.00000    0.05467    0.04836 =
         0.02473    0.02203    0.02029    0.02237
C25   1    0.672159    0.702971    1.008100    11.00000    0.06086    0.06456 =
         0.03084    0.02308    0.02997    0.02198
AFIX 137
H25A  2    0.685529    0.772927    1.014167    11.00000   -1.50000
H25B  2    0.673579    0.697852    1.057627    11.00000   -1.50000
H25C  2    0.605446    0.664149    0.968690    11.00000   -1.50000
AFIX   0
C26   1    0.732204    0.551994    0.971866    11.00000    0.12907    0.06463 =
         0.03821    0.03763    0.04584    0.04193
AFIX 137
H26A  2    0.731787    0.545255    1.020589    11.00000   -1.50000
H26B  2    0.785381    0.527344    0.956717    11.00000   -1.50000
H26C  2    0.666406    0.513106    0.931227    11.00000   -1.50000
AFIX   0
C27   1    0.856046    0.718461    1.047025    11.00000    0.06044    0.09011 =
         0.03068    0.03432    0.01934    0.03641
AFIX 137
H27A  2    0.872262    0.789522    1.056297    11.00000   -1.50000
H27B  2    0.907872    0.692078    1.030990    11.00000   -1.50000
H27C  2    0.854146    0.709542    1.094785    11.00000   -1.50000
AFIX   0
C28   1    1.048562    0.612652    0.882762    11.00000    0.03431    0.02764 =
         0.02291    0.01274    0.00730    0.01127
C29   1    1.024221    0.711639    0.903000    11.00000    0.04330    0.03145 =
         0.02679    0.00966    0.01121    0.01354
AFIX 137
H29A  2    1.020631    0.734648    0.860354    11.00000   -1.50000
H29B  2    1.077373    0.761287    0.950447    11.00000   -1.50000
H29C  2    0.959059    0.702422    0.911171    11.00000   -1.50000
AFIX   0
C30   1    1.060572    0.583643    0.953631    11.00000    0.05590    0.04527 =
         0.02329    0.01873    0.00543    0.00907
AFIX 137
H30A  2    0.997099    0.575649    0.964370    11.00000   -1.50000
H30B  2    1.114988    0.636041    0.998771    11.00000   -1.50000
H30C  2    1.077276    0.520767    0.942878    11.00000   -1.50000
AFIX   0
C31   1    1.149891    0.625881    0.869169    11.00000    0.03110    0.03274 =
         0.03028    0.01125    0.00381    0.00924
AFIX 137
H31A  2    1.167742    0.563704    0.860634    11.00000   -1.50000
H31B  2    1.202556    0.679523    0.914676    11.00000   -1.50000
H31C  2    1.144204    0.642879    0.823502    11.00000   -1.50000
AFIX   0
C32   1    0.965679    0.532150    0.809486    11.00000    0.02680    0.02592 =
         0.02489    0.01348    0.01206    0.01292
C33   1    0.914326    0.443513    0.809755    11.00000    0.03609    0.02861 =
         0.02788    0.01816    0.01535    0.01477
AFIX  43
H33   2    0.927868    0.435933    0.858042    11.00000   -1.20000
AFIX   0
C34   1    0.842533    0.362525    0.743067    11.00000    0.03302    0.02390 =
         0.03528    0.01526    0.01557    0.00872
C35   1    0.824926    0.375143    0.674549    11.00000    0.02716    0.02149 =
         0.02918    0.00872    0.01072    0.00792
AFIX  43
H35   2    0.779835    0.321550    0.628393    11.00000   -1.20000
AFIX   0
C36   1    0.871211    0.464905    0.669619    11.00000    0.02362    0.02357 =
         0.02436    0.01164    0.00927    0.01160
C37   1    0.940949    0.545983    0.737556    11.00000    0.02471    0.02539 =
         0.02485    0.01403    0.01207    0.01395
C38   1    0.923062    0.925204    0.836081    11.00000    0.03543    0.03429 =
         0.03702    0.00593    0.01542    0.00248
AFIX 137
H38A  2    0.973316    0.907682    0.870463    11.00000   -1.50000
H38B  2    0.947082    0.996378    0.846672    11.00000   -1.50000
H38C  2    0.913003    0.886295    0.781977    11.00000   -1.50000
AFIX   0
C39   1    0.790236    0.267558    0.751322    11.00000    0.04223    0.02874 =
         0.04592    0.02172    0.01799    0.00656
C41   1    0.869132    0.227095    0.790538    11.00000    0.06579    0.04181 =
         0.07095    0.03966    0.00652    0.01028
AFIX 137
H41A  2    0.913228    0.213323    0.760054    11.00000   -1.50000
H41B  2    0.835195    0.165456    0.794061    11.00000   -1.50000
H41C  2    0.909768    0.276455    0.842747    11.00000   -1.50000
AFIX   0
C42   1    0.723583    0.291488    0.800065    11.00000    0.07768    0.04237 =
         0.06810    0.02621    0.04958    0.00592
AFIX 137
H42A  2    0.765435    0.341813    0.851630    11.00000   -1.50000
H42B  2    0.690045    0.230863    0.805106    11.00000   -1.50000
H42C  2    0.672435    0.317169    0.774784    11.00000   -1.50000
AFIX   0
C43   1    0.852901    0.463883    0.593519    11.00000    0.02062    0.02371 =
         0.02378    0.00621    0.00751    0.00938
AFIX  43
H43   2    0.817813    0.400912    0.552341    11.00000   -1.20000
AFIX   0
C44   1    0.871669    0.522456    0.495311    11.00000    0.02243    0.02483 =
         0.01961    0.00777    0.00586    0.01319
C45   1    0.812757    0.435992    0.431192    11.00000    0.03177    0.02662 =
         0.02416    0.00746    0.00741    0.01290
AFIX  43
H45   2    0.770575    0.383394    0.437396    11.00000   -1.20000
AFIX   0
C46   1    0.932335    0.600169    0.485412    11.00000    0.02293    0.02933 =
         0.01840    0.00968    0.01085    0.01660
C47   1    0.931406    0.590894    0.411287    11.00000    0.02976    0.03925 =
         0.02245    0.01513    0.01358    0.01933
AFIX  43
H47   2    0.970188    0.644514    0.403934    11.00000   -1.20000
AFIX   0
C48   1    1.079925    0.736787    0.555510    11.00000    0.02885    0.03147 =
         0.02030    0.01491    0.01207    0.01428
AFIX  43
H48   2    1.090149    0.719040    0.507052    11.00000   -1.20000
AFIX   0
C49   1    1.159667    0.815620    0.617797    11.00000    0.02803    0.02307 =
         0.02491    0.01225    0.01316    0.01183
C50   1    1.164698    0.847651    0.696368    11.00000    0.03083    0.02331 =
         0.02727    0.01478    0.01626    0.01254
C51   1    1.254138    0.921760    0.754625    11.00000    0.02979    0.02186 =
         0.02569    0.01038    0.01085    0.01056
C52   1    1.329978    0.960462    0.731341    11.00000    0.02505    0.02633 =
         0.02934    0.01016    0.01030    0.00799
AFIX  43
H52   2    1.388418    1.010754    0.770208    11.00000   -1.20000
AFIX   0
C53   1    1.327119    0.930504    0.653121    11.00000    0.02767    0.02831 =
         0.03496    0.01715    0.01693    0.01354
C54   1    1.242695    0.859206    0.598943    11.00000    0.03312    0.02767 =
         0.02712    0.01488    0.01746    0.01379
AFIX  43
H54   2    1.238370    0.837175    0.546202    11.00000   -1.20000
AFIX   0
C55   1    1.263580    0.957343    0.840553    11.00000    0.03154    0.02928 =
         0.02679    0.00933    0.00967    0.00058
C56   1    1.181533    1.005956    0.852810    11.00000    0.04749    0.03843 =
         0.03432    0.00907    0.02322    0.00540
AFIX 137
H56A  2    1.194385    1.068224    0.844158    11.00000   -1.50000
H56B  2    1.182261    1.020177    0.905968    11.00000   -1.50000
H56C  2    1.115290    0.960670    0.816172    11.00000   -1.50000
AFIX   0
C57   1    1.254025    0.868212    0.866718    11.00000    0.05227    0.04590 =
         0.02987    0.02116    0.00947    0.00386
AFIX 137
H57A  2    1.258408    0.891342    0.921109    11.00000   -1.50000
H57B  2    1.308887    0.839396    0.861146    11.00000   -1.50000
H57C  2    1.188742    0.817564    0.834438    11.00000   -1.50000
AFIX   0
C58   1    1.367095    1.034219    0.894245    11.00000    0.04378    0.04649 =
         0.02545    0.00568    0.00805   -0.00123
AFIX 137
H58A  2    1.376319    1.092382    0.879979    11.00000   -1.50000
H58B  2    1.421114    1.004087    0.888666    11.00000   -1.50000
H58C  2    1.369567    1.054990    0.948175    11.00000   -1.50000
AFIX   0
C59   1    1.418606    0.977301    0.634934    11.00000    0.03080    0.03423 =
         0.04306    0.01865    0.02014    0.01274
C60   1    1.432617    1.089417    0.654283    11.00000    0.03967    0.03629 =
         0.06396    0.02415    0.02775    0.01077
AFIX 137
H60A  2    1.491011    1.118200    0.642446    11.00000   -1.50000
H60B  2    1.444014    1.123095    0.709488    11.00000   -1.50000
H60C  2    1.371719    1.098128    0.623199    11.00000   -1.50000
AFIX   0
C61   1    1.405598    0.927274    0.549804    11.00000    0.03941    0.05318 =
         0.04556    0.02650    0.02838    0.01950
AFIX 137
H61A  2    1.399713    0.856553    0.537283    11.00000   -1.50000
H61B  2    1.464437    0.959267    0.539955    11.00000   -1.50000
H61C  2    1.344273    0.933812    0.517395    11.00000   -1.50000
AFIX   0
C62   1    0.539885    0.352697    0.564615    11.00000    0.02816    0.02718 =
         0.03923    0.01503    0.01374    0.01267
AFIX  43
H62   2    0.545263    0.347337    0.613072    11.00000   -1.20000
AFIX   0
C63   1    0.762259    0.719114    0.269686    11.00000    0.20579    0.05124 =
         0.03633    0.03244    0.06786    0.06314
C64   1    0.478268    0.273644    0.496761    11.00000    0.02964    0.02011 =
         0.05243    0.01110    0.01299    0.00719
AFIX  43
H64   2    0.441309    0.214345    0.498518    11.00000   -1.20000
AFIX   0
C65   1    0.470796    0.281403    0.426532    11.00000    0.03009    0.02586 =
         0.04129   -0.00052    0.00728    0.00974
AFIX  43
H65   2    0.427814    0.227406    0.379841    11.00000   -1.20000
AFIX   0
C66   1    0.525141    0.366887    0.423224    11.00000    0.02888    0.02936 =
         0.02780    0.00282    0.01011    0.00999
AFIX  43
H66   2    0.519770    0.370769    0.374314    11.00000   -1.20000
AFIX   0
C67   1    0.731097    0.624637    0.211264    11.00000    0.23158    0.05794 =
         0.04125    0.02509    0.07413    0.02857
AFIX 137
H67A  2    0.657292    0.597705    0.193461    11.00000   -1.50000
H67B  2    0.762219    0.580567    0.231464    11.00000   -1.50000
H67C  2    0.751862    0.629187    0.167774    11.00000   -1.50000
AFIX   0
C68   1    0.752643    0.806289    0.253794    11.00000    0.12128    0.06182 =
         0.03404    0.03391    0.03836    0.03840
AFIX 137
H68A  2    0.755649    0.797167    0.202112    11.00000   -1.50000
H68B  2    0.807997    0.864669    0.292694    11.00000   -1.50000
H68C  2    0.687746    0.816298    0.255772    11.00000   -1.50000
AFIX   0
C69   1    0.887389    0.737994    0.279779    11.00000    0.12288    0.20764 =
         0.10442    0.08925    0.07879    0.06427
AFIX 137
H69A  2    0.910736    0.686764    0.294888    11.00000   -1.50000
H69B  2    0.927163    0.803930    0.319833    11.00000   -1.50000
H69C  2    0.895880    0.734094    0.230394    11.00000   -1.50000
AFIX   0
C70   1    0.815539    0.426475    0.358097    11.00000    0.03527    0.03147 =
         0.01857    0.00127    0.00335    0.01444
AFIX  43
H70   2    0.776939    0.366509    0.314621    11.00000   -1.20000
AFIX   0
C71   1    0.874034    0.503654    0.348539    11.00000    0.03658    0.04640 =
         0.01861    0.01025    0.01420    0.02259
AFIX  43
H71   2    0.875005    0.496918    0.298288    11.00000   -1.20000
AFIX   0
C72   1    0.723153    0.186806    0.671496    11.00000    0.04856    0.02513 =
         0.05117    0.01542    0.01862   -0.00004
AFIX 137
H72A  2    0.667796    0.209394    0.647962    11.00000   -1.50000
H72B  2    0.695134    0.125240    0.677706    11.00000   -1.50000
H72C  2    0.763783    0.174328    0.637953    11.00000   -1.50000
AFIX   0
C73   1    1.514905    0.965693    0.685455    11.00000    0.02841    0.05417 =
         0.05082    0.02324    0.02311    0.01733
AFIX 137
H73A  2    1.504006    0.895661    0.678722    11.00000   -1.50000
H73B  2    1.529807    1.006557    0.740065    11.00000   -1.50000
H73C  2    1.571973    0.987499    0.669619    11.00000   -1.50000
AFIX   0
BI1   3    0.930504    0.708392    0.659064    11.00000    0.02542    0.02073 =
         0.01724    0.00929    0.01035    0.00939
LI1   4    0.693572    0.650336    0.602675    11.00000    0.03030    0.02695 =
         0.02027    0.01093    0.01168    0.00821
N1    5    0.878167    0.538526    0.572920    11.00000    0.02375    0.02417 =
         0.01884    0.00930    0.00834    0.00929
N2    5    0.995083    0.685034    0.554330    11.00000    0.02411    0.02779 =
         0.01630    0.00912    0.00978    0.01132
N3    5    0.650901    0.528634    0.629355    11.00000    0.02502    0.02554 =
         0.02144    0.00908    0.01102    0.00965
N4    5    0.643407    0.540276    0.495310    11.00000    0.02315    0.02399 =
         0.01900    0.00814    0.00940    0.01155
O1    6    0.777666    0.724891    0.710628    11.00000    0.03025    0.02668 =
         0.01707    0.00958    0.01118    0.00631
O2    6    0.785998    0.729408    0.570100    11.00000    0.02683    0.02642 =
         0.01549    0.00999    0.00904    0.00799
O3    6    0.986881    0.630382    0.734859    11.00000    0.02935    0.02395 =
         0.02339    0.01268    0.00705    0.00682
O4    6    1.090338    0.808604    0.715829    11.00000    0.03031    0.03020 =
         0.02242    0.00814    0.01353    0.00160
CL2A  7    0.428517    0.625850    0.817286    11.00000    0.09393    0.08854 =
         0.13386    0.03134   -0.01947   -0.02858
PART    1
C1A   1    0.520938    0.725336    0.819050    21.00000    0.06102    0.07963 =
         0.07270    0.02021    0.01370    0.02135
AFIX  23
H1A1  2    0.561617    0.771192    0.873136    21.00000   -1.20000
H1A2  2    0.566866    0.699847    0.793124    21.00000   -1.20000
AFIX   0
CL1C  7    0.458694    0.782831    0.772568    21.00000    0.05712    0.06985 =
         0.08499    0.04860    0.03071    0.02640
PART    2
C1B   1    0.520938    0.725336    0.819050   -21.00000    0.06102    0.07963 =
         0.07270    0.02021    0.01370    0.02135
AFIX  23
H1B1  2    0.506226    0.722625    0.765393   -21.00000   -1.20000
H1B2  2    0.587376    0.713516    0.834877   -21.00000   -1.20000
AFIX   0
CL1A  7    0.533083    0.848679    0.880242   -21.00000    0.07198    0.05924 =
         0.07556    0.01002    0.03876    0.02294
HKLF    4
REM  shelx in P1
REM R1 =  0.0345 for   13874 Fo > 4sig(Fo)  and  0.0496 for all   16482 data
REM    800 parameters refined using      6 restraints
END
;
_cod_data_source_file            c5dt00256g2.cif
_cod_data_source_block           CBD082
_cod_depositor_comments
'Adding full bibliography for 7034745--7034747.cif.'
_cod_original_cell_volume        3600.47(8)
_cod_database_code               7034746
loop_
_symmetry_equiv_pos_as_xyz
'x, y, z'
'-x, -y, -z'
loop_
_atom_site_label
_atom_site_type_symbol
_atom_site_fract_x
_atom_site_fract_y
_atom_site_fract_z
_atom_site_U_iso_or_equiv
_atom_site_adp_type
_atom_site_occupancy
_atom_site_calc_flag
_atom_site_disorder_assembly
_atom_site_disorder_group
C1 C 0.7648(3) 0.7118(3) 0.7719(2) 0.0227(8) Uani 1 d . .
C2 C 0.7907(3) 0.7937(3) 0.8442(2) 0.0239(8) Uani 1 d . .
C3 C 0.7840(3) 0.7727(3) 0.9079(2) 0.0281(9) Uani 1 d . .
H3 H 0.8012 0.8275 0.9554 0.034 Uiso 1 calc . .
C4 C 0.7535(3) 0.6763(3) 0.9078(2) 0.0312(9) Uani 1 d . .
C5 C 0.7237(3) 0.5990(3) 0.8375(2) 0.0296(9) Uani 1 d . .
H5 H 0.702 0.5327 0.8346 0.036 Uiso 1 calc . .
C6 C 0.7241(3) 0.6144(3) 0.7693(2) 0.0249(8) Uani 1 d . .
C7 C 0.6762(3) 0.5268(3) 0.6974(2) 0.0257(8) Uani 1 d . .
H7 H 0.6626 0.4636 0.7012 0.031 Uiso 1 calc . .
C8 C 0.5941(3) 0.4400(3) 0.5629(2) 0.0241(8) Uani 1 d . .
C9 C 0.5877(3) 0.4474(3) 0.4910(2) 0.0229(8) Uani 1 d . .
C10 C 0.6556(3) 0.5517(3) 0.4349(2) 0.0248(8) Uani 1 d . .
H10 H 0.6255 0.4954 0.3873 0.03 Uiso 1 calc . .
C11 C 0.7111(3) 0.6428(3) 0.4328(2) 0.0240(8) Uani 1 d . .
C12 C 0.7068(3) 0.6410(3) 0.3587(2) 0.0324(10) Uani 1 d . .
H12 H 0.6698 0.5812 0.3146 0.039 Uiso 1 calc . .
C13 C 0.7544(4) 0.7229(3) 0.3483(3) 0.0434(12) Uani 1 d . .
C14 C 0.8018(4) 0.8112(3) 0.4142(3) 0.0376(11) Uani 1 d . .
H14 H 0.8318 0.8693 0.4073 0.045 Uiso 1 calc . .
C15 C 0.8079(3) 0.8197(3) 0.4891(2) 0.0268(9) Uani 1 d . .
C16 C 0.7695(3) 0.7307(3) 0.5001(2) 0.0210(8) Uani 1 d . .
C17 C 0.8518(3) 0.9224(3) 0.5569(2) 0.0280(9) Uani 1 d . .
C18 C 0.7754(4) 0.9379(3) 0.5988(3) 0.0376(11) Uani 1 d . .
H18A H 0.756 0.881 0.613 0.056 Uiso 1 calc . .
H18B H 0.7152 0.9435 0.5643 0.056 Uiso 1 calc . .
H18C H 0.8062 0.999 0.6456 0.056 Uiso 1 calc . .
C19 C 0.9524(4) 0.9321(3) 0.6142(3) 0.0446(12) Uani 1 d . .
H19A H 0.9801 0.9996 0.6544 0.067 Uiso 1 calc . .
H19B H 1 0.9193 0.5868 0.067 Uiso 1 calc . .
H19C H 0.942 0.8836 0.6383 0.067 Uiso 1 calc . .
C20 C 0.8695(4) 1.0084(3) 0.5285(3) 0.0356(10) Uani 1 d . .
H20A H 0.8905 1.0722 0.5725 0.053 Uiso 1 calc . .
H20B H 0.8066 1.0024 0.4896 0.053 Uiso 1 calc . .
H20C H 0.9225 1.0053 0.5054 0.053 Uiso 1 calc . .
C21 C 0.8233(3) 0.9023(3) 0.8503(2) 0.0279(9) Uani 1 d . .
C22 C 0.8385(4) 0.9783(3) 0.9307(3) 0.0415(11) Uani 1 d . .
H22A H 0.8927 0.9719 0.9702 0.062 Uiso 1 calc . .
H22B H 0.7756 0.9656 0.9419 0.062 Uiso 1 calc . .
H22C H 0.857 1.0459 0.9313 0.062 Uiso 1 calc . .
C23 C 0.7416(3) 0.9198(3) 0.7915(3) 0.0347(10) Uani 1 d . .
H23A H 0.7648 0.9877 0.7937 0.052 Uiso 1 calc . .
H23B H 0.6793 0.9111 0.804 0.052 Uiso 1 calc . .
H23C H 0.7282 0.8719 0.7393 0.052 Uiso 1 calc . .
C24 C 0.7527(4) 0.6626(3) 0.9830(2) 0.0381(11) Uani 1 d . .
C25 C 0.6722(4) 0.7030(4) 1.0081(3) 0.0474(13) Uani 1 d . .
H25A H 0.6855 0.7729 1.0142 0.071 Uiso 1 calc . .
H25B H 0.6736 0.6979 1.0576 0.071 Uiso 1 calc . .
H25C H 0.6054 0.6641 0.9687 0.071 Uiso 1 calc . .
C26 C 0.7322(6) 0.5520(4) 0.9719(3) 0.0671(18) Uani 1 d . .
H26A H 0.7318 0.5453 1.0206 0.101 Uiso 1 calc . .
H26B H 0.7854 0.5273 0.9567 0.101 Uiso 1 calc . .
H26C H 0.6664 0.5131 0.9312 0.101 Uiso 1 calc . .
C27 C 0.8560(4) 0.7185(4) 1.0470(3) 0.0546(15) Uani 1 d . .
H27A H 0.8723 0.7895 1.0563 0.082 Uiso 1 calc . .
H27B H 0.9079 0.6921 1.031 0.082 Uiso 1 calc . .
H27C H 0.8541 0.7095 1.0948 0.082 Uiso 1 calc . .
C28 C 1.0486(3) 0.6127(3) 0.8828(2) 0.0277(9) Uani 1 d . .
C29 C 1.0242(4) 0.7116(3) 0.9030(2) 0.0341(10) Uani 1 d . .
H29A H 1.0206 0.7346 0.8604 0.051 Uiso 1 calc . .
H29B H 1.0774 0.7613 0.9504 0.051 Uiso 1 calc . .
H29C H 0.9591 0.7024 0.9112 0.051 Uiso 1 calc . .
C30 C 1.0606(4) 0.5836(4) 0.9536(2) 0.0427(12) Uani 1 d . .
H30A H 0.9971 0.5756 0.9644 0.064 Uiso 1 calc . .
H30B H 1.115 0.636 0.9988 0.064 Uiso 1 calc . .
H30C H 1.0773 0.5208 0.9429 0.064 Uiso 1 calc . .
C31 C 1.1499(3) 0.6259(3) 0.8692(2) 0.0331(10) Uani 1 d . .
H31A H 1.1677 0.5637 0.8606 0.05 Uiso 1 calc . .
H31B H 1.2026 0.6795 0.9147 0.05 Uiso 1 calc . .
H31C H 1.1442 0.6429 0.8235 0.05 Uiso 1 calc . .
C32 C 0.9657(3) 0.5321(3) 0.8095(2) 0.0235(8) Uani 1 d . .
C33 C 0.9143(3) 0.4435(3) 0.8098(2) 0.0273(9) Uani 1 d . .
H33 H 0.9279 0.4359 0.858 0.033 Uiso 1 calc . .
C34 C 0.8425(3) 0.3625(3) 0.7431(2) 0.0289(9) Uani 1 d . .
C35 C 0.8249(3) 0.3751(3) 0.6745(2) 0.0259(8) Uani 1 d . .
H35 H 0.7798 0.3215 0.6284 0.031 Uiso 1 calc . .
C36 C 0.8712(3) 0.4649(3) 0.6696(2) 0.0223(8) Uani 1 d . .
C37 C 0.9409(3) 0.5460(3) 0.7376(2) 0.0221(8) Uani 1 d . .
C38 C 0.9231(3) 0.9252(3) 0.8361(3) 0.0382(11) Uani 1 d . .
H38A H 0.9733 0.9077 0.8705 0.057 Uiso 1 calc . .
H38B H 0.9471 0.9964 0.8467 0.057 Uiso 1 calc . .
H38C H 0.913 0.8863 0.782 0.057 Uiso 1 calc . .
C39 C 0.7902(4) 0.2676(3) 0.7513(3) 0.0371(11) Uani 1 d . .
C41 C 0.8691(4) 0.2271(4) 0.7905(3) 0.0594(16) Uani 1 d . .
H41A H 0.9132 0.2133 0.7601 0.089 Uiso 1 calc . .
H41B H 0.8352 0.1655 0.7941 0.089 Uiso 1 calc . .
H41C H 0.9098 0.2765 0.8427 0.089 Uiso 1 calc . .
C42 C 0.7236(5) 0.2915(4) 0.8001(3) 0.0581(15) Uani 1 d . .
H42A H 0.7654 0.3418 0.8516 0.087 Uiso 1 calc . .
H42B H 0.69 0.2309 0.8051 0.087 Uiso 1 calc . .
H42C H 0.6724 0.3172 0.7748 0.087 Uiso 1 calc . .
C43 C 0.8529(3) 0.4639(3) 0.5935(2) 0.0231(8) Uani 1 d . .
H43 H 0.8178 0.4009 0.5523 0.028 Uiso 1 calc . .
C44 C 0.8717(3) 0.5225(3) 0.4953(2) 0.0218(8) Uani 1 d . .
C45 C 0.8128(3) 0.4360(3) 0.4312(2) 0.0279(9) Uani 1 d . .
H45 H 0.7706 0.3834 0.4374 0.034 Uiso 1 calc . .
C46 C 0.9323(3) 0.6002(3) 0.4854(2) 0.0213(8) Uani 1 d . .
C47 C 0.9314(3) 0.5909(3) 0.4113(2) 0.0273(9) Uani 1 d . .
H47 H 0.9702 0.6445 0.4039 0.033 Uiso 1 calc . .
C48 C 1.0799(3) 0.7368(3) 0.5555(2) 0.0240(8) Uani 1 d . .
H48 H 1.0901 0.719 0.5071 0.029 Uiso 1 calc . .
C49 C 1.1597(3) 0.8156(3) 0.6178(2) 0.0231(8) Uani 1 d . .
C50 C 1.1647(3) 0.8477(3) 0.6964(2) 0.0238(8) Uani 1 d . .
C51 C 1.2541(3) 0.9218(3) 0.7546(2) 0.0248(8) Uani 1 d . .
C52 C 1.3300(3) 0.9605(3) 0.7313(2) 0.0268(9) Uani 1 d . .
H52 H 1.3884 1.0108 0.7702 0.032 Uiso 1 calc . .
C53 C 1.3271(3) 0.9305(3) 0.6531(2) 0.0269(9) Uani 1 d . .
C54 C 1.2427(3) 0.8592(3) 0.5989(2) 0.0260(9) Uani 1 d . .
H54 H 1.2384 0.8372 0.5462 0.031 Uiso 1 calc . .
C55 C 1.2636(3) 0.9573(3) 0.8406(2) 0.0310(9) Uani 1 d . .
C56 C 1.1815(4) 1.0060(3) 0.8528(3) 0.0406(11) Uani 1 d . .
H56A H 1.1944 1.0682 0.8442 0.061 Uiso 1 calc . .
H56B H 1.1823 1.0202 0.906 0.061 Uiso 1 calc . .
H56C H 1.1153 0.9607 0.8162 0.061 Uiso 1 calc . .
C57 C 1.2540(4) 0.8682(3) 0.8667(3) 0.0437(12) Uani 1 d . .
H57A H 1.2584 0.8913 0.9211 0.065 Uiso 1 calc . .
H57B H 1.3089 0.8394 0.8611 0.065 Uiso 1 calc . .
H57C H 1.1887 0.8176 0.8344 0.065 Uiso 1 calc . .
C58 C 1.3671(4) 1.0342(4) 0.8942(3) 0.0438(12) Uani 1 d . .
H58A H 1.3763 1.0924 0.88 0.066 Uiso 1 calc . .
H58B H 1.4211 1.0041 0.8887 0.066 Uiso 1 calc . .
H58C H 1.3696 1.055 0.9482 0.066 Uiso 1 calc . .
C59 C 1.4186(3) 0.9773(3) 0.6349(3) 0.0330(10) Uani 1 d . .
C60 C 1.4326(4) 1.0894(3) 0.6543(3) 0.0434(12) Uani 1 d . .
H60A H 1.491 1.1182 0.6424 0.065 Uiso 1 calc . .
H60B H 1.444 1.1231 0.7095 0.065 Uiso 1 calc . .
H60C H 1.3717 1.0981 0.6232 0.065 Uiso 1 calc . .
C61 C 1.4056(4) 0.9273(4) 0.5498(3) 0.0403(11) Uani 1 d . .
H61A H 1.3997 0.8566 0.5373 0.06 Uiso 1 calc . .
H61B H 1.4644 0.9593 0.54 0.06 Uiso 1 calc . .
H61C H 1.3443 0.9338 0.5174 0.06 Uiso 1 calc . .
C62 C 0.5399(3) 0.3527(3) 0.5646(3) 0.0298(9) Uani 1 d . .
H62 H 0.5453 0.3473 0.6131 0.036 Uiso 1 calc . .
C63 C 0.7623(6) 0.7191(4) 0.2697(3) 0.084(3) Uani 1 d . .
C64 C 0.4783(3) 0.2736(3) 0.4968(3) 0.0351(10) Uani 1 d . .
H64 H 0.4413 0.2143 0.4985 0.042 Uiso 1 calc . .
C65 C 0.4708(3) 0.2814(3) 0.4265(3) 0.0367(11) Uani 1 d . .
H65 H 0.4278 0.2274 0.3798 0.044 Uiso 1 calc . .
C66 C 0.5251(3) 0.3669(3) 0.4232(2) 0.0305(9) Uani 1 d . .
H66 H 0.5198 0.3708 0.3743 0.037 Uiso 1 calc . .
C67 C 0.7311(7) 0.6246(4) 0.2113(3) 0.105(3) Uani 1 d . .
H67A H 0.6573 0.5977 0.1935 0.158 Uiso 1 calc . .
H67B H 0.7622 0.5806 0.2315 0.158 Uiso 1 calc . .
H67C H 0.7519 0.6292 0.1678 0.158 Uiso 1 calc . .
C68 C 0.7526(5) 0.8063(4) 0.2538(3) 0.0642(17) Uani 1 d . .
H68A H 0.7556 0.7972 0.2021 0.096 Uiso 1 calc . .
H68B H 0.808 0.8647 0.2927 0.096 Uiso 1 calc . .
H68C H 0.6877 0.8163 0.2558 0.096 Uiso 1 calc . .
C69 C 0.8874(6) 0.7380(7) 0.2798(5) 0.127(4) Uani 1 d . .
H69A H 0.9107 0.6868 0.2949 0.19 Uiso 1 calc . .
H69B H 0.9272 0.8039 0.3198 0.19 Uiso 1 calc . .
H69C H 0.8959 0.7341 0.2304 0.19 Uiso 1 calc . .
C70 C 0.8155(3) 0.4265(3) 0.3581(2) 0.0312(9) Uani 1 d . .
H70 H 0.7769 0.3665 0.3146 0.037 Uiso 1 calc . .
C71 C 0.8740(3) 0.5037(3) 0.3485(2) 0.0319(10) Uani 1 d . .
H71 H 0.875 0.4969 0.2983 0.038 Uiso 1 calc . .
C72 C 0.7232(4) 0.1868(3) 0.6715(3) 0.0428(12) Uani 1 d . .
H72A H 0.6678 0.2094 0.648 0.064 Uiso 1 calc . .
H72B H 0.6951 0.1252 0.6777 0.064 Uiso 1 calc . .
H72C H 0.7638 0.1743 0.638 0.064 Uiso 1 calc . .
C73 C 1.5149(3) 0.9657(4) 0.6855(3) 0.0409(11) Uani 1 d . .
H73A H 1.504 0.8957 0.6787 0.061 Uiso 1 calc . .
H73B H 1.5298 1.0066 0.7401 0.061 Uiso 1 calc . .
H73C H 1.572 0.9875 0.6696 0.061 Uiso 1 calc . .
Bi1 Bi 0.93050(2) 0.70839(2) 0.65906(2) 0.01960(5) Uani 1 d . .
Li1 Li 0.6936(5) 0.6503(5) 0.6027(4) 0.0248(14) Uani 1 d . .
N1 N 0.8782(2) 0.5385(2) 0.57292(17) 0.0215(7) Uani 1 d . .
N2 N 0.9951(2) 0.6850(2) 0.55433(17) 0.0214(7) Uani 1 d . .
N3 N 0.6509(2) 0.5286(2) 0.62935(18) 0.0230(7) Uani 1 d . .
N4 N 0.6434(2) 0.5403(2) 0.49531(17) 0.0209(7) Uani 1 d . .
O1 O 0.7777(2) 0.72489(19) 0.71063(14) 0.0241(6) Uani 1 d . .
O2 O 0.78600(19) 0.72941(18) 0.57010(14) 0.0220(5) Uani 1 d . .
O3 O 0.9869(2) 0.63038(18) 0.73486(15) 0.0253(6) Uani 1 d . .
O4 O 1.0903(2) 0.80860(19) 0.71583(15) 0.0284(6) Uani 1 d . .
Cl2A Cl 0.42852(18) 0.62585(16) 0.81729(15) 0.1295(10) Uani 1 d . .
C1A C 0.5209(5) 0.7253(5) 0.8190(4) 0.0754(19) Uani 0.568(4) d A 1
H1A1 H 0.5616 0.7712 0.8731 0.09 Uiso 0.568(4) calc A 1
H1A2 H 0.5669 0.6998 0.7931 0.09 Uiso 0.568(4) calc A 1
Cl1C Cl 0.4587(2) 0.7828(2) 0.77257(17) 0.0633(9) Uani 0.568(4) d A 1
C1B C 0.5209(5) 0.7253(5) 0.8190(4) 0.0754(19) Uani 0.432(4) d A 2
H1B1 H 0.5062 0.7226 0.7654 0.09 Uiso 0.432(4) calc A 2
H1B2 H 0.5874 0.7135 0.8349 0.09 Uiso 0.432(4) calc A 2
Cl1A Cl 0.5331(3) 0.8487(3) 0.8802(2) 0.0697(13) Uani 0.432(4) d A 2
loop_
_atom_site_aniso_label
_atom_site_aniso_U_11
_atom_site_aniso_U_22
_atom_site_aniso_U_33
_atom_site_aniso_U_23
_atom_site_aniso_U_13
_atom_site_aniso_U_12
C1 0.023(2) 0.032(2) 0.0178(19) 0.0113(16) 0.0099(16) 0.0104(17)
C2 0.023(2) 0.032(2) 0.0191(19) 0.0093(16) 0.0091(16) 0.0103(17)
C3 0.034(2) 0.036(2) 0.0184(19) 0.0098(17) 0.0115(17) 0.0160(18)
C4 0.041(3) 0.043(2) 0.021(2) 0.0164(18) 0.0182(19) 0.021(2)
C5 0.040(2) 0.035(2) 0.027(2) 0.0179(18) 0.0191(19) 0.0178(19)
C6 0.030(2) 0.030(2) 0.023(2) 0.0128(16) 0.0153(17) 0.0130(17)
C7 0.033(2) 0.026(2) 0.027(2) 0.0141(17) 0.0166(18) 0.0136(17)
C8 0.024(2) 0.0249(19) 0.026(2) 0.0091(16) 0.0094(17) 0.0127(16)
C9 0.020(2) 0.0232(19) 0.024(2) 0.0053(16) 0.0082(16) 0.0111(16)
C10 0.026(2) 0.030(2) 0.0162(19) 0.0038(16) 0.0054(16) 0.0154(17)
C11 0.027(2) 0.031(2) 0.022(2) 0.0133(16) 0.0125(17) 0.0169(17)
C12 0.050(3) 0.039(2) 0.017(2) 0.0130(17) 0.0126(19) 0.027(2)
C13 0.084(4) 0.044(3) 0.028(2) 0.025(2) 0.034(3) 0.039(3)
C14 0.069(3) 0.034(2) 0.034(2) 0.025(2) 0.032(2) 0.028(2)
C15 0.037(2) 0.033(2) 0.025(2) 0.0175(17) 0.0180(18) 0.0217(19)
C16 0.025(2) 0.030(2) 0.0175(18) 0.0126(16) 0.0121(16) 0.0166(16)
C17 0.035(2) 0.028(2) 0.031(2) 0.0188(18) 0.0157(19) 0.0128(18)
C18 0.055(3) 0.027(2) 0.040(3) 0.0117(19) 0.031(2) 0.013(2)
C19 0.043(3) 0.030(2) 0.051(3) 0.018(2) 0.000(2) 0.007(2)
C20 0.047(3) 0.032(2) 0.041(3) 0.023(2) 0.021(2) 0.018(2)
C21 0.031(2) 0.027(2) 0.020(2) 0.0056(16) 0.0095(17) 0.0041(17)
C22 0.055(3) 0.039(3) 0.027(2) 0.0046(19) 0.018(2) 0.014(2)
C23 0.041(3) 0.030(2) 0.032(2) 0.0125(19) 0.011(2) 0.012(2)
C24 0.055(3) 0.048(3) 0.025(2) 0.022(2) 0.020(2) 0.022(2)
C25 0.061(3) 0.065(3) 0.031(3) 0.023(2) 0.030(2) 0.022(3)
C26 0.129(6) 0.065(4) 0.038(3) 0.038(3) 0.046(3) 0.042(4)
C27 0.060(4) 0.090(4) 0.031(3) 0.034(3) 0.019(3) 0.036(3)
C28 0.034(2) 0.028(2) 0.023(2) 0.0127(17) 0.0073(18) 0.0113(18)
C29 0.043(3) 0.031(2) 0.027(2) 0.0097(18) 0.011(2) 0.014(2)
C30 0.056(3) 0.045(3) 0.023(2) 0.019(2) 0.005(2) 0.009(2)
C31 0.031(2) 0.033(2) 0.030(2) 0.0112(19) 0.0038(19) 0.0092(19)
C32 0.027(2) 0.026(2) 0.025(2) 0.0135(16) 0.0121(17) 0.0129(17)
C33 0.036(2) 0.029(2) 0.028(2) 0.0182(17) 0.0153(18) 0.0148(18)
C34 0.033(2) 0.024(2) 0.035(2) 0.0153(18) 0.0156(19) 0.0087(17)
C35 0.027(2) 0.0215(19) 0.029(2) 0.0087(16) 0.0107(17) 0.0079(16)
C36 0.024(2) 0.0236(19) 0.024(2) 0.0116(16) 0.0093(16) 0.0116(16)
C37 0.025(2) 0.0254(19) 0.025(2) 0.0140(16) 0.0121(16) 0.0140(16)
C38 0.035(3) 0.034(2) 0.037(3) 0.006(2) 0.015(2) 0.002(2)
C39 0.042(3) 0.029(2) 0.046(3) 0.022(2) 0.018(2) 0.007(2)
C41 0.066(4) 0.042(3) 0.071(4) 0.040(3) 0.007(3) 0.010(3)
C42 0.078(4) 0.042(3) 0.068(4) 0.026(3) 0.050(3) 0.006(3)
C43 0.021(2) 0.0237(19) 0.024(2) 0.0062(16) 0.0075(16) 0.0094(16)
C44 0.022(2) 0.0248(19) 0.0196(19) 0.0078(15) 0.0059(16) 0.0132(16)
C45 0.032(2) 0.027(2) 0.024(2) 0.0075(17) 0.0074(18) 0.0129(17)
C46 0.023(2) 0.029(2) 0.0184(18) 0.0097(15) 0.0108(16) 0.0166(16)
C47 0.030(2) 0.039(2) 0.022(2) 0.0151(18) 0.0136(17) 0.0193(18)
C48 0.029(2) 0.031(2) 0.0203(19) 0.0149(16) 0.0121(17) 0.0143(17)
C49 0.028(2) 0.0231(19) 0.025(2) 0.0122(16) 0.0132(17) 0.0118(16)
C50 0.031(2) 0.0233(19) 0.027(2) 0.0148(16) 0.0163(17) 0.0125(16)
C51 0.030(2) 0.0219(19) 0.026(2) 0.0104(16) 0.0108(17) 0.0106(16)
C52 0.025(2) 0.026(2) 0.029(2) 0.0102(17) 0.0103(18) 0.0080(17)
C53 0.028(2) 0.028(2) 0.035(2) 0.0172(18) 0.0169(19) 0.0135(17)
C54 0.033(2) 0.028(2) 0.027(2) 0.0149(17) 0.0175(18) 0.0138(18)
C55 0.032(2) 0.029(2) 0.027(2) 0.0093(18) 0.0097(18) 0.0006(18)
C56 0.047(3) 0.038(3) 0.034(3) 0.009(2) 0.023(2) 0.005(2)
C57 0.052(3) 0.046(3) 0.030(2) 0.021(2) 0.009(2) 0.004(2)
C58 0.044(3) 0.046(3) 0.025(2) 0.006(2) 0.008(2) -0.001(2)
C59 0.031(2) 0.034(2) 0.043(3) 0.019(2) 0.020(2) 0.0127(19)
C60 0.040(3) 0.036(2) 0.064(3) 0.024(2) 0.028(3) 0.011(2)
C61 0.039(3) 0.053(3) 0.046(3) 0.026(2) 0.028(2) 0.019(2)
C62 0.028(2) 0.027(2) 0.039(2) 0.0150(18) 0.0137(19) 0.0127(18)
C63 0.206(9) 0.051(3) 0.036(3) 0.032(3) 0.068(4) 0.063(4)
C64 0.030(2) 0.020(2) 0.052(3) 0.0111(19) 0.013(2) 0.0072(17)
C65 0.030(2) 0.026(2) 0.041(3) -0.0005(19) 0.007(2) 0.0097(18)
C66 0.029(2) 0.029(2) 0.028(2) 0.0028(17) 0.0101(18) 0.0100(18)
C67 0.232(10) 0.058(4) 0.041(3) 0.025(3) 0.074(5) 0.029(5)
C68 0.121(5) 0.062(3) 0.034(3) 0.034(3) 0.038(3) 0.038(4)
C69 0.123(8) 0.208(11) 0.104(7) 0.089(7) 0.079(6) 0.064(8)
C70 0.035(2) 0.031(2) 0.019(2) 0.0013(17) 0.0034(18) 0.0144(19)
C71 0.037(2) 0.046(3) 0.019(2) 0.0103(18) 0.0142(18) 0.023(2)
C72 0.049(3) 0.025(2) 0.051(3) 0.015(2) 0.019(2) 0.000(2)
C73 0.028(2) 0.054(3) 0.051(3) 0.023(2) 0.023(2) 0.017(2)
Bi1 0.02542(9) 0.02073(8) 0.01724(8) 0.00929(6) 0.01035(6) 0.00939(6)
Li1 0.030(4) 0.027(3) 0.020(3) 0.011(3) 0.012(3) 0.008(3)
N1 0.0238(17) 0.0242(16) 0.0188(16) 0.0093(13) 0.0083(13) 0.0093(13)
N2 0.0241(17) 0.0278(16) 0.0163(15) 0.0091(13) 0.0098(13) 0.0113(14)
N3 0.0250(17) 0.0255(16) 0.0214(17) 0.0091(13) 0.0110(14) 0.0097(14)
N4 0.0231(17) 0.0240(16) 0.0190(16) 0.0081(13) 0.0094(13) 0.0116(13)
O1 0.0303(15) 0.0267(14) 0.0171(13) 0.0096(11) 0.0112(11) 0.0063(12)
O2 0.0268(14) 0.0264(13) 0.0155(13) 0.0100(11) 0.0090(11) 0.0080(11)
O3 0.0294(15) 0.0240(13) 0.0234(14) 0.0127(11) 0.0071(12) 0.0068(11)
O4 0.0303(16) 0.0302(15) 0.0224(14) 0.0081(12) 0.0135(12) 0.0016(12)
Cl2A 0.0939(16) 0.0885(14) 0.134(2) 0.0313(14) -0.0195(14) -0.0286(12)
C1A 0.061(4) 0.080(4) 0.073(4) 0.020(4) 0.014(3) 0.021(3)
Cl1C 0.0571(16) 0.0699(17) 0.085(2) 0.0486(15) 0.0307(14) 0.0264(13)
C1B 0.061(4) 0.080(4) 0.073(4) 0.020(4) 0.014(3) 0.021(3)
Cl1A 0.072(3) 0.059(2) 0.076(3) 0.0100(18) 0.039(2) 0.0229(18)
loop_
_atom_type_symbol
_atom_type_description
_atom_type_scat_dispersion_real
_atom_type_scat_dispersion_imag
_atom_type_scat_source
C C 0.0033 0.0016 'International Tables Vol C Tables 4.2.6.8 and 6.1.1.4'
H H 0 0 'International Tables Vol C Tables 4.2.6.8 and 6.1.1.4'
Bi Bi -4.1077 10.2566 'International Tables Vol C Tables 4.2.6.8 and 6.1.1.4'
Li Li -0.0003 0.0001 'International Tables Vol C Tables 4.2.6.8 and 6.1.1.4'
N N 0.0061 0.0033 'International Tables Vol C Tables 4.2.6.8 and 6.1.1.4'
O O 0.0106 0.006 'International Tables Vol C Tables 4.2.6.8 and 6.1.1.4'
Cl Cl 0.1484 0.1585 'International Tables Vol C Tables 4.2.6.8 and 6.1.1.4'
loop_
_geom_angle_atom_site_label_1
_geom_angle_atom_site_label_2
_geom_angle_atom_site_label_3
_geom_angle
_geom_angle_site_symmetry_1
_geom_angle_site_symmetry_3
O1 C1 C6 121.0(3) . .
O1 C1 C2 122.0(3) . .
C6 C1 C2 117.0(3) . .
C3 C2 C1 118.2(4) . .
C3 C2 C21 121.0(3) . .
C1 C2 C21 120.8(3) . .
C2 C3 C4 125.1(4) . .
C2 C3 H3 117.4 . .
C4 C3 H3 117.4 . .
C5 C4 C3 115.9(4) . .
C5 C4 C24 123.8(4) . .
C3 C4 C24 120.2(4) . .
C4 C5 C6 122.3(4) . .
C4 C5 H5 118.8 . .
C6 C5 H5 118.8 . .
C5 C6 C1 120.9(4) . .
C5 C6 C7 115.9(4) . .
C1 C6 C7 123.1(3) . .
N3 C7 C6 125.0(4) . .
N3 C7 H7 117.5 . .
C6 C7 H7 117.5 . .
C62 C8 C9 119.7(4) . .
C62 C8 N3 124.7(4) . .
C9 C8 N3 115.4(3) . .
C66 C9 C8 118.7(4) . .
C66 C9 N4 125.8(4) . .
C8 C9 N4 115.5(3) . .
N4 C10 C11 125.8(4) . .
N4 C10 H10 117.1 . .
C11 C10 H10 117.1 . .
C12 C11 C16 119.9(4) . .
C12 C11 C10 116.1(4) . .
C16 C11 C10 124.0(3) . .
C13 C12 C11 122.1(4) . .
C13 C12 H12 119 . .
C11 C12 H12 119 . .
C12 C13 C14 116.9(4) . .
C12 C13 C63 122.9(4) . .
C14 C13 C63 120.1(4) . .
C15 C14 C13 124.5(4) . .
C15 C14 H14 117.8 . .
C13 C14 H14 117.8 . .
C14 C15 C16 117.7(4) . .
C14 C15 C17 120.6(4) . .
C16 C15 C17 121.7(3) . .
O2 C16 C15 121.4(3) . .
O2 C16 C11 120.6(3) . .
C15 C16 C11 118.0(3) . .
C19 C17 C18 109.8(4) . .
C19 C17 C20 107.5(4) . .
C18 C17 C20 106.4(3) . .
C19 C17 C15 111.8(3) . .
C18 C17 C15 109.2(3) . .
C20 C17 C15 112.0(3) . .
C17 C18 H18A 109.5 . .
C17 C18 H18B 109.5 . .
H18A C18 H18B 109.5 . .
C17 C18 H18C 109.5 . .
H18A C18 H18C 109.5 . .
H18B C18 H18C 109.5 . .
C17 C19 H19A 109.5 . .
C17 C19 H19B 109.5 . .
H19A C19 H19B 109.5 . .
C17 C19 H19C 109.5 . .
H19A C19 H19C 109.5 . .
H19B C19 H19C 109.5 . .
C17 C20 H20A 109.5 . .
C17 C20 H20B 109.5 . .
H20A C20 H20B 109.5 . .
C17 C20 H20C 109.5 . .
H20A C20 H20C 109.5 . .
H20B C20 H20C 109.5 . .
C38 C21 C23 109.9(4) . .
C38 C21 C22 107.3(3) . .
C23 C21 C22 106.5(4) . .
C38 C21 C2 110.5(3) . .
C23 C21 C2 110.2(3) . .
C22 C21 C2 112.3(3) . .
C21 C22 H22A 109.5 . .
C21 C22 H22B 109.5 . .
H22A C22 H22B 109.5 . .
C21 C22 H22C 109.5 . .
H22A C22 H22C 109.5 . .
H22B C22 H22C 109.5 . .
C21 C23 H23A 109.5 . .
C21 C23 H23B 109.5 . .
H23A C23 H23B 109.5 . .
C21 C23 H23C 109.5 . .
H23A C23 H23C 109.5 . .
H23B C23 H23C 109.5 . .
C25 C24 C27 109.5(4) . .
C25 C24 C4 108.9(4) . .
C27 C24 C4 110.5(4) . .
C25 C24 C26 110.3(4) . .
C27 C24 C26 106.6(4) . .
C4 C24 C26 111.1(4) . .
C24 C25 H25A 109.5 . .
C24 C25 H25B 109.5 . .
H25A C25 H25B 109.5 . .
C24 C25 H25C 109.5 . .
H25A C25 H25C 109.5 . .
H25B C25 H25C 109.5 . .
C24 C26 H26A 109.5 . .
C24 C26 H26B 109.5 . .
H26A C26 H26B 109.5 . .
C24 C26 H26C 109.5 . .
H26A C26 H26C 109.5 . .
H26B C26 H26C 109.5 . .
C24 C27 H27A 109.5 . .
C24 C27 H27B 109.5 . .
H27A C27 H27B 109.5 . .
C24 C27 H27C 109.5 . .
H27A C27 H27C 109.5 . .
H27B C27 H27C 109.5 . .
C29 C28 C31 110.0(3) . .
C29 C28 C32 111.0(3) . .
C31 C28 C32 109.0(3) . .
C29 C28 C30 107.3(4) . .
C31 C28 C30 107.5(4) . .
C32 C28 C30 112.0(3) . .
C28 C29 H29A 109.5 . .
C28 C29 H29B 109.5 . .
H29A C29 H29B 109.5 . .
C28 C29 H29C 109.5 . .
H29A C29 H29C 109.5 . .
H29B C29 H29C 109.5 . .
C28 C30 H30A 109.5 . .
C28 C30 H30B 109.5 . .
H30A C30 H30B 109.5 . .
C28 C30 H30C 109.5 . .
H30A C30 H30C 109.5 . .
H30B C30 H30C 109.5 . .
C28 C31 H31A 109.5 . .
C28 C31 H31B 109.5 . .
H31A C31 H31B 109.5 . .
C28 C31 H31C 109.5 . .
H31A C31 H31C 109.5 . .
H31B C31 H31C 109.5 . .
C33 C32 C37 117.6(4) . .
C33 C32 C28 121.7(3) . .
C37 C32 C28 120.7(3) . .
C32 C33 C34 124.8(4) . .
C32 C33 H33 117.6 . .
C34 C33 H33 117.6 . .
C35 C34 C33 116.4(4) . .
C35 C34 C39 123.9(4) . .
C33 C34 C39 119.7(4) . .
C34 C35 C36 122.4(4) . .
C34 C35 H35 118.8 . .
C36 C35 H35 118.8 . .
C35 C36 C43 115.9(3) . .
C35 C36 C37 120.2(3) . .
C43 C36 C37 123.5(3) . .
O3 C37 C36 121.8(3) . .
O3 C37 C32 119.7(3) . .
C36 C37 C32 118.4(3) . .
C21 C38 H38A 109.5 . .
C21 C38 H38B 109.5 . .
H38A C38 H38B 109.5 . .
C21 C38 H38C 109.5 . .
H38A C38 H38C 109.5 . .
H38B C38 H38C 109.5 . .
C41 C39 C42 109.3(4) . .
C41 C39 C34 110.0(4) . .
C42 C39 C34 109.5(4) . .
C41 C39 C72 108.7(4) . .
C42 C39 C72 108.4(4) . .
C34 C39 C72 110.8(4) . .
C39 C41 H41A 109.5 . .
C39 C41 H41B 109.5 . .
H41A C41 H41B 109.5 . .
C39 C41 H41C 109.5 . .
H41A C41 H41C 109.5 . .
H41B C41 H41C 109.5 . .
C39 C42 H42A 109.5 . .
C39 C42 H42B 109.5 . .
H42A C42 H42B 109.5 . .
C39 C42 H42C 109.5 . .
H42A C42 H42C 109.5 . .
H42B C42 H42C 109.5 . .
N1 C43 C36 128.3(3) . .
N1 C43 H43 115.8 . .
C36 C43 H43 115.8 . .
C45 C44 C46 119.6(4) . .
C45 C44 N1 124.9(4) . .
C46 C44 N1 115.6(3) . .
C70 C45 C44 120.1(4) . .
C70 C45 H45 120 . .
C44 C45 H45 120 . .
C47 C46 C44 119.7(4) . .
C47 C46 N2 123.6(4) . .
C44 C46 N2 116.7(3) . .
C71 C47 C46 119.9(4) . .
C71 C47 H47 120 . .
C46 C47 H47 120 . .
N2 C48 C49 130.1(4) . .
N2 C48 H48 115 . .
C49 C48 H48 115 . .
C48 C49 C50 124.3(4) . .
C48 C49 C54 116.0(3) . .
C50 C49 C54 119.5(4) . .
O4 C50 C49 121.1(4) . .
O4 C50 C51 120.3(3) . .
C49 C50 C51 118.6(4) . .
C52 C51 C50 118.1(4) . .
C52 C51 C55 121.5(4) . .
C50 C51 C55 120.3(3) . .
C51 C52 C53 124.7(4) . .
C51 C52 H52 117.7 . .
C53 C52 H52 117.7 . .
C54 C53 C52 116.4(4) . .
C54 C53 C59 124.0(4) . .
C52 C53 C59 119.6(4) . .
C53 C54 C49 122.7(4) . .
C53 C54 H54 118.6 . .
C49 C54 H54 118.6 . .
C56 C55 C51 110.1(3) . .
C56 C55 C58 107.8(4) . .
C51 C55 C58 112.3(4) . .
C56 C55 C57 109.8(4) . .
C51 C55 C57 110.1(3) . .
C58 C55 C57 106.6(4) . .
C55 C56 H56A 109.5 . .
C55 C56 H56B 109.5 . .
H56A C56 H56B 109.5 . .
C55 C56 H56C 109.5 . .
H56A C56 H56C 109.5 . .
H56B C56 H56C 109.5 . .
C55 C57 H57A 109.5 . .
C55 C57 H57B 109.5 . .
H57A C57 H57B 109.5 . .
C55 C57 H57C 109.5 . .
H57A C57 H57C 109.5 . .
H57B C57 H57C 109.5 . .
C55 C58 H58A 109.5 . .
C55 C58 H58B 109.5 . .
H58A C58 H58B 109.5 . .
C55 C58 H58C 109.5 . .
H58A C58 H58C 109.5 . .
H58B C58 H58C 109.5 . .
C61 C59 C53 111.5(4) . .
C61 C59 C60 108.6(4) . .
C53 C59 C60 110.3(3) . .
C61 C59 C73 109.0(4) . .
C53 C59 C73 108.9(3) . .
C60 C59 C73 108.4(4) . .
C59 C60 H60A 109.5 . .
C59 C60 H60B 109.5 . .
H60A C60 H60B 109.5 . .
C59 C60 H60C 109.5 . .
H60A C60 H60C 109.5 . .
H60B C60 H60C 109.5 . .
C59 C61 H61A 109.5 . .
C59 C61 H61B 109.5 . .
H61A C61 H61B 109.5 . .
C59 C61 H61C 109.5 . .
H61A C61 H61C 109.5 . .
H61B C61 H61C 109.5 . .
C64 C62 C8 120.8(4) . .
C64 C62 H62 119.6 . .
C8 C62 H62 119.6 . .
C67 C63 C68 122.5(5) . .
C67 C63 C13 116.1(5) . .
C68 C63 C13 114.3(4) . .
C67 C63 C69 94.0(6) . .
C68 C63 C69 96.7(5) . .
C13 C63 C69 106.5(5) . .
C65 C64 C62 119.5(4) . .
C65 C64 H64 120.2 . .
C62 C64 H64 120.2 . .
C64 C65 C66 120.8(4) . .
C64 C65 Li1 102.4(3) . 2_666
C66 C65 Li1 86.6(3) . 2_666
C64 C65 H65 119.6 . .
C66 C65 H65 119.6 . .
Li1 C65 H65 81 2_666 .
C65 C66 C9 120.5(4) . .
C65 C66 H66 119.7 . .
C9 C66 H66 119.7 . .
C63 C67 H67A 109.5 . .
C63 C67 H67B 109.5 . .
H67A C67 H67B 109.5 . .
C63 C67 H67C 109.5 . .
H67A C67 H67C 109.5 . .
H67B C67 H67C 109.5 . .
C63 C68 H68A 109.5 . .
C63 C68 H68B 109.5 . .
H68A C68 H68B 109.5 . .
C63 C68 H68C 109.5 . .
H68A C68 H68C 109.5 . .
H68B C68 H68C 109.5 . .
C63 C69 H69A 109.5 . .
C63 C69 H69B 109.5 . .
H69A C69 H69B 109.5 . .
C63 C69 H69C 109.5 . .
H69A C69 H69C 109.5 . .
H69B C69 H69C 109.5 . .
C71 C70 C45 120.1(4) . .
C71 C70 H70 119.9 . .
C45 C70 H70 119.9 . .
C70 C71 C47 120.6(4) . .
C70 C71 H71 119.7 . .
C47 C71 H71 119.7 . .
C39 C72 H72A 109.5 . .
C39 C72 H72B 109.5 . .
H72A C72 H72B 109.5 . .
C39 C72 H72C 109.5 . .
H72A C72 H72C 109.5 . .
H72B C72 H72C 109.5 . .
C59 C73 H73A 109.5 . .
C59 C73 H73B 109.5 . .
H73A C73 H73B 109.5 . .
C59 C73 H73C 109.5 . .
H73A C73 H73C 109.5 . .
H73B C73 H73C 109.5 . .
O3 Bi1 O4 82.66(10) . .
O3 Bi1 N1 76.05(10) . .
O4 Bi1 N1 125.59(10) . .
O3 Bi1 N2 112.72(10) . .
O4 Bi1 N2 76.17(10) . .
N1 Bi1 N2 67.51(10) . .
O3 Bi1 O2 148.63(9) . .
O4 Bi1 O2 128.11(9) . .
N1 Bi1 O2 87.62(9) . .
N2 Bi1 O2 84.27(9) . .
O3 Bi1 O1 92.39(9) . .
O4 Bi1 O1 126.82(9) . .
N1 Bi1 O1 103.81(9) . .
N2 Bi1 O1 149.10(9) . .
O2 Bi1 O1 65.39(8) . .
O3 Bi1 Li1 110.57(13) . .
O4 Bi1 Li1 157.39(14) . .
N1 Bi1 Li1 76.42(14) . .
N2 Bi1 Li1 112.83(14) . .
O2 Bi1 Li1 38.58(13) . .
O1 Bi1 Li1 37.98(13) . .
O1 Li1 O2 90.8(3) . .
O1 Li1 N4 157.4(4) . .
O2 Li1 N4 89.0(3) . .
O1 Li1 N3 89.0(3) . .
O2 Li1 N3 149.9(4) . .
N4 Li1 N3 80.1(3) . .
O1 Li1 C65 108.0(3) . 2_666
O2 Li1 C65 101.9(3) . 2_666
N4 Li1 C65 94.1(3) . 2_666
N3 Li1 C65 106.8(3) . 2_666
O1 Li1 Bi1 57.53(18) . .
O2 Li1 Bi1 51.83(17) . .
N4 Li1 Bi1 106.0(3) . .
N3 Li1 Bi1 104.3(3) . .
C65 Li1 Bi1 145.3(3) 2_666 .
C43 N1 C44 121.2(3) . .
C43 N1 Bi1 123.4(2) . .
C44 N1 Bi1 115.4(2) . .
C48 N2 C46 119.0(3) . .
C48 N2 Bi1 127.4(3) . .
C46 N2 Bi1 113.5(2) . .
C7 N3 C8 120.8(3) . .
C7 N3 Li1 125.8(3) . .
C8 N3 Li1 113.3(3) . .
C10 N4 C9 121.3(3) . .
C10 N4 Li1 124.9(3) . .
C9 N4 Li1 113.8(3) . .
C1 O1 Li1 128.0(3) . .
C1 O1 Bi1 128.3(2) . .
Li1 O1 Bi1 84.5(2) . .
C16 O2 Li1 126.6(3) . .
C16 O2 Bi1 131.4(2) . .
Li1 O2 Bi1 89.6(2) . .
C37 O3 Bi1 129.6(2) . .
C50 O4 Bi1 139.2(2) . .
Cl1C C1A Cl2A 106.1(4) . .
Cl1C C1A H1A1 110.5 . .
Cl2A C1A H1A1 110.5 . .
Cl1C C1A H1A2 110.5 . .
Cl2A C1A H1A2 110.5 . .
H1A1 C1A H1A2 108.7 . .
loop_
_geom_bond_atom_site_label_1
_geom_bond_atom_site_label_2
_geom_bond_distance
_geom_bond_site_symmetry_2
C1 O1 1.313(4) .
C1 C6 1.428(5) .
C1 C2 1.435(5) .
C2 C3 1.384(5) .
C2 C21 1.544(5) .
C3 C4 1.411(6) .
C3 H3 0.95 .
C4 C5 1.371(6) .
C4 C24 1.532(5) .
C5 C6 1.407(5) .
C5 H5 0.95 .
C6 C7 1.455(5) .
C7 N3 1.281(5) .
C7 H7 0.95 .
C8 C62 1.390(5) .
C8 C9 1.408(5) .
C8 N3 1.423(5) .
C9 C66 1.394(5) .
C9 N4 1.417(5) .
C10 N4 1.283(5) .
C10 C11 1.447(6) .
C10 H10 0.95 .
C11 C12 1.410(5) .
C11 C16 1.429(5) .
C12 C13 1.373(6) .
C12 H12 0.95 .
C13 C14 1.399(7) .
C13 C63 1.538(6) .
C14 C15 1.394(6) .
C14 H14 0.95 .
C15 C16 1.429(5) .
C15 C17 1.544(6) .
C16 O2 1.319(4) .
C17 C19 1.523(6) .
C17 C18 1.535(6) .
C17 C20 1.541(5) .
C18 H18A 0.98 .
C18 H18B 0.98 .
C18 H18C 0.98 .
C19 H19A 0.98 .
C19 H19B 0.98 .
C19 H19C 0.98 .
C20 H20A 0.98 .
C20 H20B 0.98 .
C20 H20C 0.98 .
C21 C38 1.522(6) .
C21 C23 1.531(6) .
C21 C22 1.540(6) .
C22 H22A 0.98 .
C22 H22B 0.98 .
C22 H22C 0.98 .
C23 H23A 0.98 .
C23 H23B 0.98 .
C23 H23C 0.98 .
C24 C25 1.521(7) .
C24 C27 1.531(7) .
C24 C26 1.542(7) .
C25 H25A 0.98 .
C25 H25B 0.98 .
C25 H25C 0.98 .
C26 H26A 0.98 .
C26 H26B 0.98 .
C26 H26C 0.98 .
C27 H27A 0.98 .
C27 H27B 0.98 .
C27 H27C 0.98 .
C28 C29 1.529(5) .
C28 C31 1.532(6) .
C28 C32 1.536(6) .
C28 C30 1.539(6) .
C29 H29A 0.98 .
C29 H29B 0.98 .
C29 H29C 0.98 .
C30 H30A 0.98 .
C30 H30B 0.98 .
C30 H30C 0.98 .
C31 H31A 0.98 .
C31 H31B 0.98 .
C31 H31C 0.98 .
C32 C33 1.379(5) .
C32 C37 1.433(5) .
C33 C34 1.423(6) .
C33 H33 0.95 .
C34 C35 1.362(6) .
C34 C39 1.538(5) .
C35 C36 1.411(5) .
C35 H35 0.95 .
C36 C43 1.421(5) .
C36 C37 1.426(5) .
C37 O3 1.320(4) .
C38 H38A 0.98 .
C38 H38B 0.98 .
C38 H38C 0.98 .
C39 C41 1.522(7) .
C39 C42 1.525(7) .
C39 C72 1.538(6) .
C41 H41A 0.98 .
C41 H41B 0.98 .
C41 H41C 0.98 .
C42 H42A 0.98 .
C42 H42B 0.98 .
C42 H42C 0.98 .
C43 N1 1.308(5) .
C43 H43 0.95 .
C44 C45 1.391(5) .
C44 C46 1.399(5) .
C44 N1 1.419(5) .
C45 C70 1.389(6) .
C45 H45 0.95 .
C46 C47 1.394(5) .
C46 N2 1.434(5) .
C47 C71 1.381(6) .
C47 H47 0.95 .
C48 N2 1.298(5) .
C48 C49 1.417(5) .
C48 H48 0.95 .
C49 C50 1.421(5) .
C49 C54 1.431(5) .
C50 O4 1.313(5) .
C50 C51 1.431(6) .
C51 C52 1.376(6) .
C51 C55 1.538(6) .
C52 C53 1.425(6) .
C52 H52 0.95 .
C53 C54 1.353(6) .
C53 C59 1.540(6) .
C54 H54 0.95 .
C55 C56 1.527(6) .
C55 C58 1.544(6) .
C55 C57 1.551(6) .
C56 H56A 0.98 .
C56 H56B 0.98 .
C56 H56C 0.98 .
C57 H57A 0.98 .
C57 H57B 0.98 .
C57 H57C 0.98 .
C58 H58A 0.98 .
C58 H58B 0.98 .
C58 H58C 0.98 .
C59 C61 1.523(6) .
C59 C60 1.544(6) .
C59 C73 1.545(6) .
C60 H60A 0.98 .
C60 H60B 0.98 .
C60 H60C 0.98 .
C61 H61A 0.98 .
C61 H61B 0.98 .
C61 H61C 0.98 .
C62 C64 1.381(6) .
C62 H62 0.95 .
C63 C67 1.393(7) .
C63 C68 1.441(6) .
C63 C69 1.712(10) .
C64 C65 1.378(7) .
C64 H64 0.95 .
C65 C66 1.383(6) .
C65 Li1 2.738(8) 2_666
C65 H65 0.95 .
C66 H66 0.95 .
C67 H67A 0.98 .
C67 H67B 0.98 .
C67 H67C 0.98 .
C68 H68A 0.98 .
C68 H68B 0.98 .
C68 H68C 0.98 .
C69 H69A 0.98 .
C69 H69B 0.98 .
C69 H69C 0.98 .
C70 C71 1.374(6) .
C70 H70 0.95 .
C71 H71 0.95 .
C72 H72A 0.98 .
C72 H72B 0.98 .
C72 H72C 0.98 .
C73 H73A 0.98 .
C73 H73B 0.98 .
C73 H73C 0.98 .
Bi1 O3 2.224(2) .
Bi1 O4 2.241(3) .
Bi1 N1 2.381(3) .
Bi1 N2 2.399(3) .
Bi1 O2 2.467(2) .
Bi1 O1 2.659(3) .
Bi1 Li1 3.137(7) .
Li1 O1 1.940(7) .
Li1 O2 1.957(7) .
Li1 N4 2.034(7) .
Li1 N3 2.053(7) .
Li1 C65 2.738(8) 2_666
Cl2A C1A 1.767(7) .
C1A Cl1C 1.639(7) .
C1A H1A1 0.99 .
C1A H1A2 0.99 .
loop_
_platon_squeeze_void_nr
_platon_squeeze_void_average_x
_platon_squeeze_void_average_y
_platon_squeeze_void_average_z
_platon_squeeze_void_volume
_platon_squeeze_void_count_electrons
_platon_squeeze_void_content
1 0.017 0.098 0.782 16 2 ' '
2 -0.017 0.902 0.218 16 2 ' '
3 0.085 0.773 0.406 10 0 ' '
4 0.500 0.500 0.000 456 136 ' '
5 0.915 0.227 0.594 10 0 ' '
