#------------------------------------------------------------------------------
#$Date: 2015-06-07 03:07:39 +0300 (Sun, 07 Jun 2015) $
#$Revision: 138713 $
#$URL: svn://www.crystallography.net/cod/cif/7/03/48/7034893.cif $
#------------------------------------------------------------------------------
#
# This file is available in the Crystallography Open Database (COD),
# http://www.crystallography.net/
#
# All data on this site have been placed in the public domain by the
# contributors.
#
data_7034893
loop_
_publ_author_name
'Kumar, Ravi'
'Chaudhri, Nivedita'
'Sankar, Muniappan'
_publ_section_title
;
 Ratiometric and colorimetric &quot;naked eye&quot; selective detection of
 CN(-) ions by electron deficient Ni(ii) porphyrins and their
 reversibility studies.
;
_journal_issue                   19
_journal_name_full
'Dalton transactions (Cambridge, England : 2003)'
_journal_page_first              9149
_journal_page_last               9157
_journal_paper_doi               10.1039/c5dt00937e
_journal_volume                  44
_journal_year                    2015
_chemical_formula_moiety         'C44 H20 Cl8 N4 Ni'
_chemical_formula_sum            'C44 H20 Cl8 N4 Ni'
_chemical_formula_weight         946.95
_chemical_name_common            Ni-octachloroporphyrin
_chemical_name_systematic
;
 2,3,7,8,12,13,17,18-Octachloroporphyrinato nickel(II)
;
_space_group_crystal_system      monoclinic
_space_group_IT_number           14
_space_group_name_Hall           '-P 2ybc'
_space_group_name_H-M_alt        'P 1 21/c 1'
_symmetry_space_group_name_Hall  '-P 2ybc'
_symmetry_space_group_name_H-M   'P 1 21/c 1'
_atom_sites_solution_hydrogens   mixed
_audit_creation_date             2015-04-03
_audit_creation_method
;
Olex2 1.2-beta
(compiled 2015.01.26 svn.r3150 for OlexSys, GUI svn.r4998)
;
_audit_update_record
;
2015-04-03 deposited with the CCDC.
2015-04-09 downloaded from the CCDC.
;
_cell_angle_alpha                90
_cell_angle_beta                 111.70
_cell_angle_gamma                90
_cell_formula_units_Z            4
_cell_length_a                   14.5050(10)
_cell_length_b                   27.0592(17)
_cell_length_c                   10.7278(7)
_cell_measurement_reflns_used    34311
_cell_measurement_temperature    296(2)
_cell_measurement_theta_max      25.01
_cell_measurement_theta_min      1.51
_cell_volume                     3912.2(4)
_computing_cell_refinement       'APEX II SYSTEM SOFTWARE PROGRAMS'
_computing_data_collection       'APEX II SYSTEM SOFTWARE PROGRAMS'
_computing_data_reduction        'APEXII (WINGX)'
_computing_molecular_graphics    'ORTEP3 (WINGX)'
_computing_publication_material  'ShelXL (Sheldrick, 2008)'
_computing_structure_refinement  'ShelXL (Sheldrick, 2008)'
_computing_structure_solution    'ShelXS (Sheldrick, 1997)'
_diffrn_ambient_temperature      296(2)
_diffrn_measured_fraction_theta_full 0.794
_diffrn_measured_fraction_theta_max 0.791
_diffrn_measurement_device_type  'APEX II DIFFRACTOMETER'
_diffrn_measurement_method       \w
_diffrn_radiation_type           MoK\a
_diffrn_radiation_wavelength     0.71073
_diffrn_reflns_av_R_equivalents  0.0640
_diffrn_reflns_av_unetI/netI     0.0964
_diffrn_reflns_laue_measured_fraction_full 0.794
_diffrn_reflns_laue_measured_fraction_max 0.791
_diffrn_reflns_limit_h_max       16
_diffrn_reflns_limit_h_min       -16
_diffrn_reflns_limit_k_max       31
_diffrn_reflns_limit_k_min       -31
_diffrn_reflns_limit_l_max       12
_diffrn_reflns_limit_l_min       -12
_diffrn_reflns_number            34311
_diffrn_reflns_point_group_measured_fraction_full 0.794
_diffrn_reflns_point_group_measured_fraction_max 0.791
_diffrn_reflns_theta_full        25.000
_diffrn_reflns_theta_max         25.021
_diffrn_reflns_theta_min         2.133
_diffrn_source                   'fine-focus sealed tube'
_diffrn_standards_decay_%        0
_diffrn_standards_interval_count 100
_diffrn_standards_interval_time  1
_diffrn_standards_number         2
_exptl_absorpt_coefficient_mu    1.083
_exptl_absorpt_correction_T_max  0.81
_exptl_absorpt_correction_T_min  0.77
_exptl_absorpt_correction_type   psi-scan
_exptl_absorpt_process_details
;
 North A.C.T., Phillips D.C. & Mathews F.S. (1968) Acta. Cryst. A24, 351
;
_exptl_crystal_colour            Greenish-purple
_exptl_crystal_density_diffrn    1.608
_exptl_crystal_description       Needle
_exptl_crystal_F_000             1904
_exptl_crystal_recrystallization_method
'Re-crystallisation from solvent: Chloroform/hexane'
_exptl_crystal_size_max          0.3
_exptl_crystal_size_mid          0.2
_exptl_crystal_size_min          0.2
_refine_diff_density_max         0.764
_refine_diff_density_min         -0.220
_refine_diff_density_rms         0.058
_refine_ls_extinction_method     none
_refine_ls_goodness_of_fit_ref   0.896
_refine_ls_hydrogen_treatment    constr
_refine_ls_matrix_type           full
_refine_ls_number_parameters     514
_refine_ls_number_reflns         5467
_refine_ls_number_restraints     0
_refine_ls_restrained_S_all      0.896
_refine_ls_R_factor_all          0.0833
_refine_ls_R_factor_gt           0.0421
_refine_ls_shift/su_max          0.002
_refine_ls_shift/su_mean         0.000
_refine_ls_structure_factor_coef Fsqd
_refine_ls_weighting_details
'w=1/[\s^2^(Fo^2^)+(0.0414P)^2^] where P=(Fo^2^+2Fc^2^)/3'
_refine_ls_weighting_scheme      calc
_refine_ls_wR_factor_gt          0.0910
_refine_ls_wR_factor_ref         0.1003
_reflns_Friedel_coverage         0.000
_reflns_number_gt                3281
_reflns_number_total             5467
_reflns_threshold_expression     'I > 2\s(I)'
_iucr_refine_instructions_details
;

    ups2185.res created by SHELXL-2014/7

TITL UPS2185 OLEX2: imported from CIF
CELL 0.71073 14.505 27.0592 10.7278 90 111.7 90
ZERR 4 0.001 0.0017 0.0007 0 0 0
LATT 1
SYMM -X,0.5+Y,0.5-Z
SFAC C H Cl N Ni
DISP C 0.003 0.002
DISP Cl 0.148 0.159
DISP H 0 0
DISP N 0.006 0.003
DISP Ni 0.339 1.112
UNIT 176 80 32 16 4
 
L.S. 10
PLAN  5
SIZE 0.3 0.2 0.2
TEMP 23(2)
MORE -1
BOND $H
CONF
fmap 2 53
acta 50
OMIT 1 1 0
OMIT 0 2 0
OMIT 1 0 0
OMIT -3 14 2
OMIT -1 9 1
OMIT -1 4 1
OMIT -5 11 6
OMIT 5 4 1
REM <olex2.extras>
REM <HklSrc "%.\\1044025.hkl">
REM </olex2.extras>
 
WGHT    0.041400
FVAR       0.09097
NI1   5    0.753629    0.616361    0.748723    11.00000    0.03505    0.02362 =
         0.03549    0.00084    0.01296    0.00306
CL5   3    1.113916    0.546125    0.715956    11.00000    0.06191    0.05982 =
         0.08691   -0.00553    0.04549    0.01148
C1    1    0.430529    0.520411    0.814700    11.00000    0.05361    0.04713 =
         0.06606   -0.00619    0.02943    0.00043
H1    2   10.455200   10.545100   10.879499    11.00000   10.06300
CL2   3    0.336999    0.578198    0.499468    11.00000    0.04529    0.05528 =
         0.07832   -0.00181   -0.00256   -0.01134
CL4   3    0.837090    0.411415    0.869252    11.00000    0.06874    0.03478 =
         0.07627    0.01816    0.02163    0.01603
CL1   3    0.385738    0.682319    0.386831    11.00000    0.05562    0.05665 =
         0.05308    0.00836   -0.00002    0.01144
C25   1    1.103649    0.714126    1.068529    11.00000    0.05225    0.03686 =
         0.04768    0.00145    0.01365    0.01024
H25   2   11.094700   10.687901   11.116400    11.00000   10.05800
CL3   3    0.619798    0.431873    0.874997    11.00000    0.07943    0.03859 =
         0.08203    0.01845    0.04216    0.00245
C5    1    0.437418    0.474432    0.627395    11.00000    0.07586    0.04018 =
         0.06120   -0.01172    0.03923   -0.01789
H5    2   10.469500   10.466599   10.568901    11.00000   10.06600
C18   1    1.044151    0.462055    0.868878    11.00000    0.05009    0.05850 =
         0.05428    0.00359    0.00967    0.02155
H18   2   11.064000   10.480599   10.946899    11.00000   10.06900
CL6   3    1.155681    0.658835    0.820635    11.00000    0.04922    0.05338 =
         0.09035   -0.00055    0.03808   -0.00471
CL7   3    0.897443    0.796376    1.011967    11.00000    0.06665    0.04164 =
         0.05681   -0.01660    0.01947   -0.00374
N3    4    0.893432    0.608111    0.793857    11.00000    0.03908    0.02823 =
         0.03951    0.00286    0.01629    0.00680
C11   1    0.809534    0.510847    0.778181    11.00000    0.04018    0.02515 =
         0.03166   -0.00012    0.00788    0.00310
N1    4    0.613747    0.624597    0.677184    11.00000    0.04095    0.02480 =
         0.03653   -0.00015    0.01533    0.00309
C19   1    0.936880    0.566175    0.765015    11.00000    0.03895    0.03554 =
         0.03630   -0.00172    0.00974    0.00888
C30   1    0.855380    0.708706    0.855368    11.00000    0.03833    0.02856 =
         0.03590    0.00294    0.01374   -0.00166
N4    4    0.770802    0.686136    0.768152    11.00000    0.03654    0.02774 =
         0.03996    0.00161    0.01546    0.00002
C8    1    0.655301    0.524113    0.770771    11.00000    0.04645    0.03123 =
         0.03469   -0.00369    0.01684   -0.00180
N2    4    0.737161    0.546564    0.756475    11.00000    0.03610    0.02864 =
         0.03475   -0.00264    0.00987    0.00419
C20   1    1.032732    0.579937    0.763558    11.00000    0.04039    0.03810 =
         0.04215    0.00022    0.01541    0.00886
C41   1    0.566736    0.665826    0.602905    11.00000    0.03356    0.03260 =
         0.03836    0.00536    0.01727    0.00646
C23   1    0.950105    0.691592    0.876698    11.00000    0.04285    0.03082 =
         0.03240    0.00709    0.01299    0.00417
C37   1    0.508253    0.826377    0.415982    11.00000    0.10499    0.04370 =
         0.06633    0.02357    0.04346    0.01670
H37   2   10.523901   10.844000   10.353001    11.00000   10.07900
C33   1    0.697306    0.721425    0.729359    11.00000    0.03733    0.02489 =
         0.04819    0.00388    0.01955    0.00608
C43   1    0.449732    0.606888    0.563105    11.00000    0.03370    0.03384 =
         0.04211   -0.00707    0.00867    0.00357
C17   1    1.099530    0.420108    0.863720    11.00000    0.05564    0.07582 =
         0.08606    0.02716    0.02120    0.03462
H17   2   11.152000   10.408100   10.936999    11.00000   10.09300
C9    1    0.684109    0.474021    0.822137    11.00000    0.04987    0.02881 =
         0.04039    0.00330    0.01657   -0.00039
C44   1    0.541251    0.589152    0.659211    11.00000    0.04067    0.02596 =
         0.04074   -0.00637    0.01953    0.00122
C22   1    0.963092    0.645016    0.827922    11.00000    0.03056    0.03463 =
         0.03570    0.00511    0.00911   -0.00176
C35   1    0.541611    0.757178    0.566202    11.00000    0.04246    0.02353 =
         0.04751    0.00679    0.01959    0.00888
C14   1    0.939560    0.447981    0.642873    11.00000    0.05620    0.04670 =
         0.05954   -0.01027    0.01865    0.00563
H14   2   10.884700   10.455800   10.566900    11.00000   10.06500
C40   1    0.457039    0.769500    0.592842    11.00000    0.04254    0.03875 =
         0.05579    0.00883    0.02250    0.00672
H40   2   10.438700   10.750200   10.651801    11.00000   10.05200
C12   1    0.900304    0.518694    0.763089    11.00000    0.03910    0.02831 =
         0.03230    0.00108    0.00465    0.00566
C34   1    0.603629    0.713736    0.631723    11.00000    0.03887    0.02841 =
         0.04467    0.00599    0.02080    0.00582
C7    1    0.559574    0.543162    0.721507    11.00000    0.04248    0.03025 =
         0.03932   -0.00332    0.01830   -0.00007
C31   1    0.828524    0.757310    0.887309    11.00000    0.04605    0.03243 =
         0.04731   -0.00357    0.01728   -0.00150
C38   1    0.425289    0.837284    0.441994    11.00000    0.06934    0.03909 =
         0.06233    0.01453    0.02606    0.02639
AFIX  43
H38   2    0.385305    0.863700    0.398499    11.00000   -1.20000
AFIX   0
C36   1    0.567470    0.785708    0.478422    11.00000    0.06309    0.04394 =
         0.06933    0.01355    0.04287    0.01908
H36   2   10.623001   10.777599   10.459900    11.00000   10.06200
C10   1    0.776361    0.466226    0.819403    11.00000    0.05347    0.02879 =
         0.03622    0.00164    0.01181    0.00753
C15   1    0.997549    0.406837    0.639079    11.00000    0.08057    0.04883 =
         0.09159   -0.02537    0.03634    0.01185
H15   2   10.978999   10.386499   10.561301    11.00000   10.08800
C32   1    0.734109    0.765951    0.806213    11.00000    0.04769    0.02421 =
         0.05736   -0.00504    0.02862    0.00136
C42   1    0.466365    0.651649    0.521020    11.00000    0.04360    0.03316 =
         0.03961   -0.00128    0.00963    0.01090
C39   1    0.400600    0.809588    0.531671    11.00000    0.05058    0.03954 =
         0.07125    0.01126    0.02390    0.01325
H39   2   10.345700   10.817700   10.551301    11.00000   10.06100
C13   1    0.962509    0.474974    0.758489    11.00000    0.04403    0.03385 =
         0.04583    0.00017    0.01512    0.00527
C16   1    1.076804    0.393324    0.747641    11.00000    0.08190    0.04416 =
         0.11124   -0.00230    0.04542    0.02334
AFIX  43
H16   2    1.115335    0.366323    0.743803    11.00000   -1.20000
AFIX   0
C21   1    1.050330    0.627727    0.805681    11.00000    0.03745    0.04413 =
         0.04515    0.00610    0.01672    0.00396
C6    1    0.474247    0.512139    0.721643    11.00000    0.04480    0.03087 =
         0.04750    0.00143    0.02138    0.00079
C24   1    1.037917    0.724203    0.940985    11.00000    0.03503    0.03280 =
         0.03793   -0.00234    0.01041    0.00344
C28   1    1.138499    0.793470    0.930323    11.00000    0.05322    0.04816 =
         0.06200   -0.00342    0.02777   -0.00486
H28   2   11.153001   10.818801   10.883400    11.00000   10.06300
C26   1    1.186259    0.744534    1.126701    11.00000    0.04023    0.05780 =
         0.05338   -0.00596    0.00296    0.01048
H26   2   11.231000   10.738300   11.214399    11.00000   10.06400
C29   1    1.055208    0.764413    0.874071    11.00000    0.04891    0.04064 =
         0.04298    0.00220    0.00897   -0.00617
H29   2   11.011600   10.771900   10.788600    11.00000   10.05500
C27   1    1.202649    0.783608    1.057818    11.00000    0.04159    0.05514 =
         0.08029   -0.02213    0.01944   -0.00491
AFIX  43
H27   2    1.257771    0.803700    1.097690    11.00000   -1.20000
AFIX   0
C4    1    0.355829    0.447218    0.624765    11.00000    0.08010    0.04536 =
         0.07325   -0.01100    0.02035   -0.01785
H4    2   10.331800   10.422400   10.560201    11.00000   10.08000
C2    1    0.348971    0.491783    0.812693    11.00000    0.06467    0.07846 =
         0.08793   -0.00603    0.05152   -0.00302
H2    2   10.320301   10.497600   10.875100    11.00000   10.08600
C3    1    0.312951    0.455460    0.716430    11.00000    0.06093    0.05847 =
         0.10630   -0.00076    0.03894   -0.01481
H3    2   10.262500   10.435300   10.716200    11.00000   10.08800
CL8   3    0.669994    0.818631    0.810004    11.00000    0.06361    0.03205 =
         0.09330   -0.01163    0.02583    0.01078
HKLF 4
 
REM  UPS2185 OLEX2: imported from CIF
REM R1 =  0.0421 for    3281 Fo > 4sig(Fo)  and  0.0833 for all    5467 data
REM    514 parameters refined using      0 restraints
 
END  
     
WGHT      0.0414      0.0000 

REM Highest difference peak  0.764,  deepest hole -0.220,  1-sigma level  0.058
Q1    1   1.1604  0.3424  0.8295  11.00000  0.05    0.76
Q2    1   1.2922  0.8197  1.1448  11.00000  0.05    0.42
Q3    1   1.0753  0.6603  0.7860  11.00000  0.05    0.26
Q4    1   0.1992  0.4386  0.6562  11.00000  0.05    0.26
Q5    1   0.3691  0.8774  0.3219  11.00000  0.05    0.24

REM The information below was added by Olex2.
REM
REM R1 = 0.0421 for 3281 Fo > 4sig(Fo) and 0.0833 for all 35008 data
REM n/a parameters refined using n/a restraints
REM Highest difference peak 0.76, deepest hole -0.22
REM Mean Shift 0, Max Shift -0.002.

REM +++ Tabular Listing of Refinement Information +++
REM R1_all = 0.0833
REM R1_gt = 0.0421
REM wR_ref = 0.1003
REM GOOF = 0.896
REM Shift_max = -0.002
REM Shift_mean = 0
REM Reflections_all = 35008
REM Reflections_gt = 3281
REM Parameters = n/a
REM Hole = -0.22
REM Peak = 0.76
REM Flack = n/a

;
_cod_data_source_file            c5dt00937e2.cif
_cod_data_source_block           ups2185
_cod_depositor_comments
;
The following automatic conversions were performed:

'_exptl_absorpt_correction_type' value 'Psi-scan' changed to
'psi-scan' according to
/usr/data/users/saulius/crontab/automatic-downloads/rss-feeds/RSC/lib/dictionaries/cif_core.dic
dictionary named 'cif_core.dic' version 2.4.2 from 2011-04-26.

Automatic conversion script
Id: cif_fix_values 3271 2015-04-21 07:52:19Z andrius 

 Adding full bibliography for 7034889--7034893.cif.
;
_cod_database_code               7034893
_audit_block_doi                 10.5517/cc141d7t
_shelx_space_group_comment
;
The symmetry employed for this shelxl refinement is uniquely defined
by the following loop, which should always be used as a source of
symmetry information in preference to the above space-group names.
They are only intended as comments.
;
_shelx_estimated_absorpt_t_max   0.813
_shelx_estimated_absorpt_t_min   0.737
_olex2_refinement_description
;
1. Fixed Uiso
 At 1.2 times of:
  All C(H) groups
2. Others
 Fixed Uiso: H1(0.063) H25(0.058) H5(0.066) H18(0.069) H37(0.079) H17(0.093)
 H14(0.065) H40(0.052) H36(0.062) H15(0.088) H39(0.061) H28(0.063) H26(0.064)
 H29(0.055) H4(0.08) H2(0.086) H3(0.088)
 Fixed X: H1(0.4552) H25(1.0947) H5(0.4695) H18(1.064) H37(0.523901)
 H17(1.152) H14(0.8847) H40(0.4387) H36(0.623001) H15(0.978999) H39(0.3457)
 H28(1.153001) H26(1.231) H29(1.0116) H4(0.3318) H2(0.320301) H3(0.2625)
 Fixed Y: H1(0.5451) H25(0.687901) H5(0.466599) H18(0.480599) H37(0.844)
 H17(0.4081) H14(0.4558) H40(0.7502) H36(0.777599) H15(0.386499) H39(0.8177)
 H28(0.818801) H26(0.7383) H29(0.7719) H4(0.4224) H2(0.4976) H3(0.4353)
 Fixed Z: H1(0.879499) H25(1.1164) H5(0.568901) H18(0.946899) H37(0.353001)
 H17(0.936999) H14(0.5669) H40(0.651801) H36(0.4599) H15(0.561301)
 H39(0.551301) H28(0.8834) H26(1.214399) H29(0.7886) H4(0.560201) H2(0.8751)
 H3(0.7162)
3.a Aromatic/amide H refined with riding coordinates:
 C38(H38), C16(H16), C27(H27)
;
_shelx_shelxl_version_number     2014/7
_olex2_submission_special_instructions 'No special instructions were received'
loop_
_space_group_symop_operation_xyz
'x, y, z'
'-x, y+1/2, -z+1/2'
'-x, -y, -z'
'x, -y-1/2, z-1/2'
loop_
_atom_site_label
_atom_site_type_symbol
_atom_site_fract_x
_atom_site_fract_y
_atom_site_fract_z
_atom_site_U_iso_or_equiv
_atom_site_adp_type
_atom_site_occupancy
_atom_site_site_symmetry_order
_atom_site_calc_flag
_atom_site_refinement_flags_posn
Ni1 Ni 0.75363(4) 0.61636(2) 0.74872(5) 0.03141(15) Uani 1 1 d .
Cl5 Cl 1.11392(9) 0.54612(4) 0.71596(14) 0.0644(4) Uani 1 1 d .
C1 C 0.4305(3) 0.52041(16) 0.8147(5) 0.0535(12) Uani 1 1 d .
H1 H 0.4552 0.5451 0.8795 0.063 Uiso 1 1 d .
Cl2 Cl 0.33700(9) 0.57820(4) 0.49947(14) 0.0669(4) Uani 1 1 d .
Cl4 Cl 0.83709(10) 0.41142(4) 0.86925(13) 0.0614(4) Uani 1 1 d .
Cl1 Cl 0.38574(9) 0.68232(4) 0.38683(12) 0.0609(4) Uani 1 1 d .
C25 C 1.1036(3) 0.71413(14) 1.0685(4) 0.0470(12) Uani 1 1 d .
H25 H 1.0947 0.6879 1.1164 0.058 Uiso 1 1 d .
Cl3 Cl 0.61980(10) 0.43187(4) 0.87500(14) 0.0632(4) Uani 1 1 d .
C5 C 0.4374(4) 0.47443(15) 0.6274(5) 0.0551(13) Uani 1 1 d .
H5 H 0.4695 0.4666 0.5689 0.066 Uiso 1 1 d .
C18 C 1.0442(3) 0.46205(16) 0.8689(5) 0.0570(13) Uani 1 1 d .
H18 H 1.0640 0.4806 0.9469 0.069 Uiso 1 1 d .
Cl6 Cl 1.15568(9) 0.65883(4) 0.82064(14) 0.0608(3) Uani 1 1 d .
Cl7 Cl 0.89744(9) 0.79638(4) 1.01197(12) 0.0560(3) Uani 1 1 d .
N3 N 0.8934(2) 0.60811(10) 0.7939(3) 0.0351(8) Uani 1 1 d .
C11 C 0.8095(3) 0.51085(12) 0.7782(4) 0.0339(9) Uani 1 1 d .
N1 N 0.6137(2) 0.62460(10) 0.6772(3) 0.0338(8) Uani 1 1 d .
C19 C 0.9369(3) 0.56618(13) 0.7650(4) 0.0381(10) Uani 1 1 d .
C30 C 0.8554(3) 0.70871(13) 0.8554(4) 0.0343(10) Uani 1 1 d .
N4 N 0.7708(2) 0.68614(10) 0.7682(3) 0.0344(8) Uani 1 1 d .
C8 C 0.6553(3) 0.52411(13) 0.7708(4) 0.0369(10) Uani 1 1 d .
N2 N 0.7372(2) 0.54656(10) 0.7565(3) 0.0341(8) Uani 1 1 d .
C20 C 1.0327(3) 0.57994(13) 0.7636(4) 0.0402(10) Uani 1 1 d .
C41 C 0.5667(3) 0.66583(13) 0.6029(4) 0.0337(9) Uani 1 1 d .
C23 C 0.9501(3) 0.69159(13) 0.8767(4) 0.0356(10) Uani 1 1 d .
C37 C 0.5083(5) 0.82638(16) 0.4160(5) 0.0683(15) Uani 1 1 d .
H37 H 0.5239 0.8440 0.3530 0.079 Uiso 1 1 d .
C33 C 0.6973(3) 0.72142(12) 0.7294(4) 0.0357(10) Uani 1 1 d .
C43 C 0.4497(3) 0.60689(13) 0.5631(4) 0.0381(10) Uani 1 1 d .
C17 C 1.0995(4) 0.42011(19) 0.8637(6) 0.0739(17) Uani 1 1 d .
H17 H 1.1520 0.4081 0.9370 0.093 Uiso 1 1 d .
C9 C 0.6841(3) 0.47402(13) 0.8221(4) 0.0397(10) Uani 1 1 d .
C44 C 0.5413(3) 0.58915(12) 0.6592(4) 0.0345(10) Uani 1 1 d .
C22 C 0.9631(3) 0.64502(13) 0.8279(4) 0.0345(10) Uani 1 1 d .
C35 C 0.5416(3) 0.75718(13) 0.5662(4) 0.0370(10) Uani 1 1 d .
C14 C 0.9396(4) 0.44798(15) 0.6429(5) 0.0549(13) Uani 1 1 d .
H14 H 0.8847 0.4558 0.5669 0.065 Uiso 1 1 d .
C40 C 0.4570(3) 0.76950(13) 0.5928(4) 0.0445(11) Uani 1 1 d .
H40 H 0.4387 0.7502 0.6518 0.052 Uiso 1 1 d .
C12 C 0.9003(3) 0.51869(13) 0.7631(4) 0.0357(10) Uani 1 1 d .
C34 C 0.6036(3) 0.71374(13) 0.6317(4) 0.0358(10) Uani 1 1 d .
C7 C 0.5596(3) 0.54316(13) 0.7215(4) 0.0364(10) Uani 1 1 d .
C31 C 0.8285(3) 0.75731(14) 0.8873(4) 0.0419(10) Uani 1 1 d .
C38 C 0.4253(4) 0.83728(15) 0.4420(5) 0.0564(14) Uani 1 1 d .
H38 H 0.3853 0.8637 0.3985 0.068 Uiso 1 1 calc R
C36 C 0.5675(4) 0.78571(15) 0.4784(5) 0.0535(12) Uani 1 1 d .
H36 H 0.6230 0.7776 0.4599 0.062 Uiso 1 1 d .
C10 C 0.7764(3) 0.46623(13) 0.8194(4) 0.0409(10) Uani 1 1 d .
C15 C 0.9975(4) 0.40684(17) 0.6391(6) 0.0724(17) Uani 1 1 d .
H15 H 0.9790 0.3865 0.5613 0.088 Uiso 1 1 d .
C32 C 0.7341(3) 0.76595(12) 0.8062(4) 0.0405(10) Uani 1 1 d .
C42 C 0.4664(3) 0.65165(13) 0.5210(4) 0.0404(11) Uani 1 1 d .
C39 C 0.4006(3) 0.80959(15) 0.5317(5) 0.0534(13) Uani 1 1 d .
H39 H 0.3457 0.8177 0.5513 0.061 Uiso 1 1 d .
C13 C 0.9625(3) 0.47497(13) 0.7585(4) 0.0417(10) Uani 1 1 d .
C16 C 1.0768(5) 0.39332(17) 0.7476(7) 0.0763(17) Uani 1 1 d .
H16 H 1.1153 0.3663 0.7438 0.092 Uiso 1 1 calc R
C21 C 1.0503(3) 0.62773(14) 0.8057(4) 0.0418(10) Uani 1 1 d .
C6 C 0.4742(3) 0.51214(13) 0.7216(4) 0.0398(10) Uani 1 1 d .
C24 C 1.0379(3) 0.72420(13) 0.9410(4) 0.0361(10) Uani 1 1 d .
C28 C 1.1385(4) 0.79347(15) 0.9303(5) 0.0526(12) Uani 1 1 d .
H28 H 1.1530 0.8188 0.8834 0.063 Uiso 1 1 d .
C26 C 1.1863(3) 0.74453(18) 1.1267(4) 0.0546(12) Uani 1 1 d .
H26 H 1.2310 0.7383 1.2144 0.064 Uiso 1 1 d .
C29 C 1.0552(3) 0.76441(14) 0.8741(4) 0.0465(11) Uani 1 1 d .
H29 H 1.0116 0.7719 0.7886 0.055 Uiso 1 1 d .
C27 C 1.2026(3) 0.78361(16) 1.0578(5) 0.0599(14) Uani 1 1 d .
H27 H 1.2578 0.8037 1.0977 0.072 Uiso 1 1 calc R
C4 C 0.3558(4) 0.44722(17) 0.6248(6) 0.0685(16) Uani 1 1 d .
H4 H 0.3318 0.4224 0.5602 0.080 Uiso 1 1 d .
C2 C 0.3490(4) 0.4918(2) 0.8127(6) 0.0704(15) Uani 1 1 d .
H2 H 0.3203 0.4976 0.8751 0.086 Uiso 1 1 d .
C3 C 0.3130(4) 0.45546(19) 0.7164(7) 0.0729(16) Uani 1 1 d .
H3 H 0.2625 0.4353 0.7162 0.088 Uiso 1 1 d .
Cl8 Cl 0.66999(9) 0.81863(4) 0.81000(14) 0.0639(4) Uani 1 1 d .
loop_
_atom_site_aniso_label
_atom_site_aniso_U_11
_atom_site_aniso_U_22
_atom_site_aniso_U_33
_atom_site_aniso_U_23
_atom_site_aniso_U_13
_atom_site_aniso_U_12
Ni1 0.0350(3) 0.0236(2) 0.0355(3) 0.0008(2) 0.0130(2) 0.0031(2)
Cl5 0.0619(8) 0.0598(7) 0.0869(9) -0.0055(6) 0.0455(8) 0.0115(6)
C1 0.054(3) 0.047(3) 0.066(3) -0.006(2) 0.029(3) 0.000(2)
Cl2 0.0453(7) 0.0553(7) 0.0783(8) -0.0018(6) -0.0026(7) -0.0113(5)
Cl4 0.0687(8) 0.0348(6) 0.0763(8) 0.0182(5) 0.0216(7) 0.0160(5)
Cl1 0.0556(8) 0.0567(7) 0.0531(7) 0.0084(5) 0.0000(6) 0.0114(6)
C25 0.052(3) 0.037(2) 0.048(3) 0.001(2) 0.014(2) 0.010(2)
Cl3 0.0794(9) 0.0386(6) 0.0820(9) 0.0185(6) 0.0422(8) 0.0025(6)
C5 0.076(4) 0.040(2) 0.061(3) -0.012(2) 0.039(3) -0.018(2)
C18 0.050(3) 0.059(3) 0.054(3) 0.004(2) 0.010(3) 0.022(2)
Cl6 0.0492(7) 0.0534(7) 0.0903(9) -0.0005(6) 0.0381(7) -0.0047(5)
Cl7 0.0666(8) 0.0416(6) 0.0568(7) -0.0166(5) 0.0195(7) -0.0037(5)
N3 0.039(2) 0.0282(16) 0.0395(18) 0.0029(14) 0.0163(17) 0.0068(14)
C11 0.040(2) 0.025(2) 0.032(2) -0.0001(16) 0.008(2) 0.0031(18)
N1 0.041(2) 0.0248(16) 0.0365(17) -0.0002(14) 0.0153(17) 0.0031(15)
C19 0.039(3) 0.036(2) 0.036(2) -0.0017(18) 0.010(2) 0.0089(19)
C30 0.038(3) 0.029(2) 0.036(2) 0.0029(17) 0.014(2) -0.0017(18)
N4 0.037(2) 0.0277(16) 0.0400(18) 0.0016(14) 0.0155(18) 0.0000(14)
C8 0.046(3) 0.031(2) 0.035(2) -0.0037(18) 0.017(2) -0.0018(19)
N2 0.0361(19) 0.0286(16) 0.0348(17) -0.0026(14) 0.0099(16) 0.0042(15)
C20 0.040(3) 0.038(2) 0.042(2) 0.0002(19) 0.015(2) 0.0089(19)
C41 0.034(2) 0.033(2) 0.038(2) 0.0054(18) 0.017(2) 0.0065(17)
C23 0.043(3) 0.031(2) 0.032(2) 0.0071(17) 0.013(2) 0.0042(18)
C37 0.105(5) 0.044(3) 0.066(3) 0.024(2) 0.043(4) 0.017(3)
C33 0.037(2) 0.0249(19) 0.048(2) 0.0039(18) 0.020(2) 0.0061(18)
C43 0.034(2) 0.034(2) 0.042(2) -0.0071(18) 0.009(2) 0.0036(18)
C17 0.056(3) 0.076(4) 0.086(4) 0.027(3) 0.021(3) 0.035(3)
C9 0.050(3) 0.029(2) 0.040(2) 0.0033(18) 0.017(2) -0.0004(19)
C44 0.041(3) 0.026(2) 0.041(2) -0.0064(17) 0.020(2) 0.0012(18)
C22 0.031(2) 0.035(2) 0.036(2) 0.0051(17) 0.009(2) -0.0018(18)
C35 0.042(2) 0.0235(19) 0.048(2) 0.0068(18) 0.020(2) 0.0089(18)
C14 0.056(3) 0.047(3) 0.060(3) -0.010(2) 0.019(3) 0.006(2)
C40 0.043(3) 0.039(2) 0.056(3) 0.009(2) 0.023(2) 0.0067(19)
C12 0.039(2) 0.028(2) 0.032(2) 0.0011(17) 0.005(2) 0.0057(18)
C34 0.039(3) 0.028(2) 0.045(2) 0.0060(17) 0.021(2) 0.0058(18)
C7 0.042(3) 0.030(2) 0.039(2) -0.0033(18) 0.018(2) -0.0001(19)
C31 0.046(3) 0.032(2) 0.047(2) -0.0036(19) 0.017(2) -0.0015(19)
C38 0.069(4) 0.039(3) 0.062(3) 0.015(2) 0.026(3) 0.026(2)
C36 0.063(3) 0.044(3) 0.069(3) 0.014(2) 0.043(3) 0.019(2)
C10 0.053(3) 0.029(2) 0.036(2) 0.0016(17) 0.012(2) 0.0075(19)
C15 0.081(4) 0.049(3) 0.092(4) -0.025(3) 0.036(4) 0.012(3)
C32 0.048(3) 0.024(2) 0.057(3) -0.0050(19) 0.029(2) 0.0014(18)
C42 0.044(3) 0.033(2) 0.040(2) -0.0013(18) 0.010(2) 0.0109(18)
C39 0.051(3) 0.040(2) 0.071(3) 0.011(2) 0.024(3) 0.013(2)
C13 0.044(3) 0.034(2) 0.046(2) 0.000(2) 0.015(2) 0.0053(19)
C16 0.082(4) 0.044(3) 0.111(5) -0.002(3) 0.045(4) 0.023(3)
C21 0.037(3) 0.044(2) 0.045(2) 0.006(2) 0.017(2) 0.004(2)
C6 0.045(3) 0.031(2) 0.048(2) 0.0014(19) 0.021(2) 0.0008(19)
C24 0.035(2) 0.033(2) 0.038(2) -0.0023(18) 0.010(2) 0.0034(18)
C28 0.053(3) 0.048(3) 0.062(3) -0.003(2) 0.028(3) -0.005(2)
C26 0.040(3) 0.058(3) 0.053(3) -0.006(2) 0.003(2) 0.010(2)
C29 0.049(3) 0.041(2) 0.043(2) 0.002(2) 0.009(2) -0.006(2)
C27 0.042(3) 0.055(3) 0.080(4) -0.022(3) 0.019(3) -0.005(2)
C4 0.080(4) 0.045(3) 0.073(3) -0.011(3) 0.020(4) -0.018(3)
C2 0.065(4) 0.078(4) 0.088(4) -0.006(3) 0.052(3) -0.003(3)
C3 0.061(4) 0.058(3) 0.106(5) -0.001(3) 0.039(4) -0.015(3)
Cl8 0.0636(8) 0.0320(6) 0.0933(9) -0.0116(6) 0.0258(8) 0.0108(5)
loop_
_atom_type_symbol
_atom_type_description
_atom_type_scat_dispersion_real
_atom_type_scat_dispersion_imag
_atom_type_scat_source
C C 0.0030 0.0020 'International Tables Vol C Tables 4.2.6.8 and 6.1.1.4'
H H 0.0000 0.0000 'International Tables Vol C Tables 4.2.6.8 and 6.1.1.4'
Cl Cl 0.1480 0.1590 'International Tables Vol C Tables 4.2.6.8 and 6.1.1.4'
N N 0.0060 0.0030 'International Tables Vol C Tables 4.2.6.8 and 6.1.1.4'
Ni Ni 0.3390 1.1120 'International Tables Vol C Tables 4.2.6.8 and 6.1.1.4'
loop_
_geom_angle_atom_site_label_1
_geom_angle_atom_site_label_2
_geom_angle_atom_site_label_3
_geom_angle
N1 Ni1 N3 171.51(14)
N1 Ni1 N4 90.28(13)
N1 Ni1 N2 90.09(13)
N4 Ni1 N3 90.26(13)
N4 Ni1 N2 171.34(14)
N2 Ni1 N3 90.66(13)
C6 C1 H1 120.0(5)
C6 C1 C2 120.4(4)
C2 C1 H1 119.6(5)
C24 C25 H25 121.6(4)
C24 C25 C26 119.5(4)
C26 C25 H25 118.9(4)
C6 C5 H5 120.0(5)
C4 C5 H5 120.0(5)
C4 C5 C6 119.9(5)
C17 C18 H18 118.9(5)
C13 C18 H18 121.5(4)
C13 C18 C17 119.7(4)
C19 N3 Ni1 124.4(3)
C22 N3 Ni1 126.1(2)
C22 N3 C19 107.7(3)
N2 C11 C12 124.2(3)
N2 C11 C10 108.7(4)
C12 C11 C10 127.0(3)
C41 N1 Ni1 123.3(3)
C44 N1 Ni1 128.2(2)
C44 N1 C41 106.8(3)
N3 C19 C20 108.1(3)
C12 C19 N3 123.9(4)
C12 C19 C20 127.1(4)
N4 C30 C23 122.8(3)
N4 C30 C31 108.2(3)
C23 C30 C31 127.0(4)
C30 N4 Ni1 124.1(2)
C33 N4 Ni1 126.8(3)
C33 N4 C30 107.0(3)
N2 C8 C9 108.0(3)
C7 C8 N2 124.7(3)
C7 C8 C9 126.3(4)
C11 N2 Ni1 126.8(3)
C11 N2 C8 107.6(3)
C8 N2 Ni1 124.2(2)
C19 C20 Cl5 129.5(3)
C21 C20 Cl5 122.8(3)
C21 C20 C19 107.7(4)
N1 C41 C42 107.7(3)
C34 C41 N1 123.5(3)
C34 C41 C42 126.8(3)
C30 C23 C22 120.0(4)
C30 C23 C24 120.2(3)
C22 C23 C24 119.6(4)
C38 C37 H37 120.9(5)
C38 C37 C36 120.1(5)
C36 C37 H37 118.8(6)
N4 C33 C34 123.8(3)
N4 C33 C32 108.9(3)
C34 C33 C32 127.3(3)
C44 C43 Cl2 129.2(3)
C42 C43 Cl2 122.6(3)
C42 C43 C44 108.1(3)
C18 C17 H17 123.5(6)
C16 C17 C18 120.9(5)
C16 C17 H17 115.5(5)
C8 C9 Cl3 129.2(3)
C10 C9 Cl3 124.5(3)
C10 C9 C8 106.3(4)
N1 C44 C43 108.9(3)
N1 C44 C7 123.6(3)
C7 C44 C43 127.5(4)
N3 C22 C23 124.5(4)
N3 C22 C21 108.9(3)
C23 C22 C21 126.6(4)
C40 C35 C34 120.9(4)
C36 C35 C40 119.3(3)
C36 C35 C34 119.8(4)
C15 C14 H14 118.9(5)
C13 C14 H14 121.0(4)
C13 C14 C15 120.1(4)
C35 C40 H40 119.8(4)
C39 C40 C35 120.3(4)
C39 C40 H40 119.9(4)
C11 C12 C13 119.1(3)
C19 C12 C11 120.6(3)
C19 C12 C13 120.0(4)
C41 C34 C35 121.0(3)
C33 C34 C41 119.6(3)
C33 C34 C35 119.3(3)
C8 C7 C44 120.1(4)
C8 C7 C6 120.2(3)
C44 C7 C6 119.4(3)
C30 C31 Cl7 128.1(3)
C32 C31 Cl7 124.1(3)
C32 C31 C30 107.7(3)
C37 C38 H38 119.8
C37 C38 C39 120.4(4)
C39 C38 H38 119.8
C37 C36 H36 120.8(5)
C35 C36 C37 119.6(4)
C35 C36 H36 119.6(4)
C11 C10 Cl4 129.6(3)
C9 C10 Cl4 121.6(3)
C9 C10 C11 108.7(3)
C14 C15 H15 120.4(6)
C16 C15 C14 121.2(5)
C16 C15 H15 118.3(5)
C33 C32 Cl8 128.2(3)
C31 C32 C33 107.3(3)
C31 C32 Cl8 124.2(3)
C41 C42 Cl1 127.5(3)
C43 C42 Cl1 124.9(3)
C43 C42 C41 107.5(3)
C40 C39 H39 119.5(5)
C38 C39 C40 120.3(4)
C38 C39 H39 120.2(4)
C18 C13 C12 120.6(4)
C14 C13 C18 119.2(4)
C14 C13 C12 120.2(4)
C17 C16 H16 120.6
C15 C16 C17 118.8(4)
C15 C16 H16 120.6
C20 C21 Cl6 123.6(3)
C20 C21 C22 107.0(4)
C22 C21 Cl6 129.3(3)
C1 C6 C5 119.1(4)
C1 C6 C7 120.6(4)
C5 C6 C7 120.3(4)
C25 C24 C23 120.1(4)
C25 C24 C29 118.9(4)
C29 C24 C23 121.0(3)
C29 C28 H28 121.7(5)
C27 C28 H28 119.0(5)
C27 C28 C29 119.3(4)
C25 C26 H26 120.2(5)
C27 C26 C25 120.6(4)
C27 C26 H26 119.3(5)
C24 C29 C28 121.4(4)
C24 C29 H29 120.1(4)
C28 C29 H29 118.5(4)
C28 C27 H27 119.9
C26 C27 C28 120.3(4)
C26 C27 H27 119.9
C5 C4 H4 118.6(6)
C3 C4 C5 120.9(4)
C3 C4 H4 120.5(6)
C1 C2 H2 119.8(6)
C3 C2 C1 119.1(5)
C3 C2 H2 121.1(6)
C4 C3 C2 120.6(5)
C4 C3 H3 118.7(6)
C2 C3 H3 120.6(7)
loop_
_geom_bond_atom_site_label_1
_geom_bond_atom_site_label_2
_geom_bond_distance
Ni1 N3 1.916(3)
Ni1 N1 1.898(3)
Ni1 N4 1.906(3)
Ni1 N2 1.909(3)
Cl5 C20 1.711(4)
C1 H1 0.935(4)
C1 C6 1.385(6)
C1 C2 1.408(7)
Cl2 C43 1.708(4)
Cl4 C10 1.707(4)
Cl1 C42 1.698(4)
C25 H25 0.913(4)
C25 C24 1.375(5)
C25 C26 1.396(6)
Cl3 C9 1.698(4)
C5 H5 0.933(5)
C5 C6 1.396(6)
C5 C4 1.385(7)
C18 H18 0.926(5)
C18 C17 1.403(6)
C18 C13 1.375(6)
Cl6 C21 1.699(4)
Cl7 C31 1.708(4)
N3 C19 1.387(5)
N3 C22 1.371(5)
C11 N2 1.382(5)
C11 C12 1.401(6)
C11 C10 1.429(5)
N1 C41 1.394(4)
N1 C44 1.383(5)
C19 C20 1.445(6)
C19 C12 1.387(5)
C30 N4 1.380(5)
C30 C23 1.386(6)
C30 C31 1.448(5)
N4 C33 1.376(5)
C8 N2 1.392(5)
C8 C9 1.465(5)
C8 C7 1.389(5)
C20 C21 1.362(5)
C41 C34 1.393(5)
C41 C42 1.447(6)
C23 C22 1.404(5)
C23 C24 1.492(5)
C37 H37 0.921(5)
C37 C38 1.364(7)
C37 C36 1.404(6)
C33 C34 1.391(5)
C33 C32 1.446(5)
C43 C44 1.429(5)
C43 C42 1.345(5)
C17 H17 0.928(5)
C17 C16 1.372(8)
C9 C10 1.366(6)
C44 C7 1.391(5)
C22 C21 1.449(6)
C35 C40 1.399(6)
C35 C34 1.489(5)
C35 C36 1.373(6)
C14 H14 0.929(5)
C14 C15 1.405(6)
C14 C13 1.370(6)
C40 H40 0.932(4)
C40 C39 1.371(5)
C12 C13 1.500(5)
C7 C6 1.496(6)
C31 C32 1.344(5)
C38 H38 0.9300
C38 C39 1.368(6)
C36 H36 0.925(5)
C15 H15 0.952(5)
C15 C16 1.350(7)
C32 Cl8 1.711(4)
C39 H39 0.922(5)
C16 H16 0.9300
C24 C29 1.377(5)
C28 H28 0.920(5)
C28 C29 1.379(6)
C28 C27 1.366(6)
C26 H26 0.940(4)
C26 C27 1.360(7)
C29 H29 0.924(4)
C27 H27 0.9300
C4 H4 0.935(5)
C4 C3 1.362(8)
C2 H2 0.923(5)
C2 C3 1.381(8)
C3 H3 0.912(5)
loop_
_geom_torsion_atom_site_label_1
_geom_torsion_atom_site_label_2
_geom_torsion_atom_site_label_3
_geom_torsion_atom_site_label_4
_geom_torsion
Ni1 N3 C19 C20 157.5(3)
Ni1 N3 C19 C12 -33.0(5)
Ni1 N3 C22 C23 21.5(5)
Ni1 N3 C22 C21 -158.8(3)
Ni1 N1 C41 C34 -38.1(5)
Ni1 N1 C41 C42 156.9(3)
Ni1 N1 C44 C43 -160.3(3)
Ni1 N1 C44 C7 16.5(6)
Ni1 N4 C33 C34 -22.4(6)
Ni1 N4 C33 C32 157.4(3)
Cl5 C20 C21 Cl6 -1.9(5)
Cl5 C20 C21 C22 176.0(3)
C1 C2 C3 C4 0.2(9)
Cl2 C43 C44 N1 178.1(3)
Cl2 C43 C44 C7 1.4(6)
Cl2 C43 C42 Cl1 -9.0(6)
Cl2 C43 C42 C41 175.9(3)
C25 C24 C29 C28 2.4(6)
C25 C26 C27 C28 -0.3(7)
Cl3 C9 C10 Cl4 0.5(6)
Cl3 C9 C10 C11 -176.0(3)
C5 C4 C3 C2 1.1(9)
C18 C17 C16 C15 -2.5(9)
Cl7 C31 C32 C33 -171.2(3)
Cl7 C31 C32 Cl8 3.1(6)
N3 C19 C20 Cl5 -171.8(3)
N3 C19 C20 C21 6.7(5)
N3 C19 C12 C11 6.3(6)
N3 C19 C12 C13 -167.7(4)
N3 C22 C21 Cl6 175.5(3)
N3 C22 C21 C20 -2.3(4)
C11 C12 C13 C18 -102.4(5)
C11 C12 C13 C14 78.9(5)
N1 C41 C34 C33 7.5(6)
N1 C41 C34 C35 -168.3(4)
N1 C41 C42 Cl1 -164.5(3)
N1 C41 C42 C43 10.5(5)
N1 C44 C7 C8 -20.7(6)
N1 C44 C7 C6 165.9(4)
C19 N3 C22 C23 -173.3(4)
C19 N3 C22 C21 6.5(4)
C19 C20 C21 Cl6 179.4(3)
C19 C20 C21 C22 -2.6(5)
C19 C12 C13 C18 71.6(6)
C19 C12 C13 C14 -107.1(5)
C30 N4 C33 C34 173.7(4)
C30 N4 C33 C32 -6.5(4)
C30 C23 C22 N3 -19.9(6)
C30 C23 C22 C21 160.4(4)
C30 C23 C24 C25 110.2(5)
C30 C23 C24 C29 -70.4(5)
C30 C31 C32 C33 4.5(5)
C30 C31 C32 Cl8 178.9(3)
N4 Ni1 N1 C41 31.0(3)
N4 Ni1 N1 C44 -165.7(3)
N4 C30 C23 C22 -11.6(6)
N4 C30 C23 C24 163.2(3)
N4 C30 C31 Cl7 166.8(3)
N4 C30 C31 C32 -8.7(5)
N4 C33 C34 C41 23.5(6)
N4 C33 C34 C35 -160.6(4)
N4 C33 C32 C31 1.1(5)
N4 C33 C32 Cl8 -172.9(3)
C8 C9 C10 Cl4 -179.0(3)
C8 C9 C10 C11 4.5(5)
C8 C7 C6 C1 104.8(5)
C8 C7 C6 C5 -75.4(5)
N2 Ni1 N1 C41 -157.7(3)
N2 Ni1 N1 C44 5.7(3)
N2 C11 C12 C19 19.9(6)
N2 C11 C12 C13 -166.1(3)
N2 C11 C10 Cl4 -175.7(3)
N2 C11 C10 C9 0.5(4)
N2 C8 C9 Cl3 172.6(3)
N2 C8 C9 C10 -7.9(4)
N2 C8 C7 C44 -3.8(6)
N2 C8 C7 C6 169.5(4)
C20 C19 C12 C11 173.7(4)
C20 C19 C12 C13 -0.2(6)
C41 N1 C44 C43 5.2(4)
C41 N1 C44 C7 -178.0(4)
C23 C30 N4 Ni1 39.7(5)
C23 C30 N4 C33 -155.8(4)
C23 C30 C31 Cl7 -28.9(6)
C23 C30 C31 C32 155.5(4)
C23 C22 C21 Cl6 -4.8(6)
C23 C22 C21 C20 177.4(4)
C23 C24 C29 C28 -177.1(4)
C37 C38 C39 C40 -2.3(8)
C43 C44 C7 C8 155.5(4)
C43 C44 C7 C6 -17.9(6)
C17 C18 C13 C14 -3.2(7)
C17 C18 C13 C12 178.0(5)
C9 C8 N2 Ni1 -159.2(3)
C9 C8 N2 C11 8.2(4)
C9 C8 C7 C44 -171.3(4)
C9 C8 C7 C6 2.0(6)
C44 N1 C41 C34 155.5(4)
C44 N1 C41 C42 -9.5(4)
C44 C43 C42 Cl1 168.0(3)
C44 C43 C42 C41 -7.1(5)
C44 C7 C6 C1 -81.9(5)
C44 C7 C6 C5 98.0(5)
C22 N3 C19 C20 -8.1(4)
C22 N3 C19 C12 161.4(4)
C22 C23 C24 C25 -75.0(5)
C22 C23 C24 C29 104.4(4)
C35 C40 C39 C38 1.4(7)
C14 C15 C16 C17 0.9(9)
C40 C35 C34 C41 66.7(5)
C40 C35 C34 C33 -109.2(5)
C40 C35 C36 C37 -0.6(7)
C12 C11 N2 Ni1 -17.7(5)
C12 C11 N2 C8 175.3(4)
C12 C11 C10 Cl4 3.5(6)
C12 C11 C10 C9 179.6(4)
C12 C19 C20 Cl5 19.1(7)
C12 C19 C20 C21 -162.4(4)
C34 C41 C42 Cl1 31.2(6)
C34 C41 C42 C43 -153.9(4)
C34 C33 C32 C31 -179.1(4)
C34 C33 C32 Cl8 6.9(6)
C34 C35 C40 C39 -179.9(4)
C34 C35 C36 C37 179.4(4)
C7 C8 N2 Ni1 31.4(5)
C7 C8 N2 C11 -161.2(4)
C7 C8 C9 Cl3 -18.3(6)
C7 C8 C9 C10 161.3(4)
C31 C30 N4 Ni1 -155.3(3)
C31 C30 N4 C33 9.2(4)
C31 C30 C23 C22 -173.7(4)
C31 C30 C23 C24 1.1(6)
C38 C37 C36 C35 -0.3(8)
C36 C37 C38 C39 1.8(8)
C36 C35 C40 C39 0.1(7)
C36 C35 C34 C41 -113.4(5)
C36 C35 C34 C33 70.8(5)
C10 C11 N2 Ni1 161.4(3)
C10 C11 N2 C8 -5.5(4)
C10 C11 C12 C19 -159.1(4)
C10 C11 C12 C13 14.9(6)
C15 C14 C13 C18 1.7(7)
C15 C14 C13 C12 -179.6(4)
C32 C33 C34 C41 -156.3(4)
C32 C33 C34 C35 19.6(6)
C42 C41 C34 C33 169.6(4)
C42 C41 C34 C35 -6.2(6)
C42 C43 C44 N1 1.3(4)
C42 C43 C44 C7 -175.3(4)
C13 C18 C17 C16 3.7(9)
C13 C14 C15 C16 -0.5(9)
C6 C1 C2 C3 -0.2(8)
C6 C5 C4 C3 -2.5(8)
C24 C25 C26 C27 -0.7(7)
C24 C23 C22 N3 165.4(3)
C24 C23 C22 C21 -14.4(6)
C26 C25 C24 C23 179.1(4)
C26 C25 C24 C29 -0.4(6)
C29 C28 C27 C26 2.2(7)
C27 C28 C29 C24 -3.3(7)
C4 C5 C6 C1 2.5(7)
C4 C5 C6 C7 -177.4(4)
C2 C1 C6 C5 -1.1(7)
C2 C1 C6 C7 178.7(4)
