#------------------------------------------------------------------------------
#$Date: 2016-04-05 19:52:35 +0300 (Tue, 05 Apr 2016) $
#$Revision: 181696 $
#$URL: svn://www.crystallography.net/cod/cif/7/03/82/7038221.cif $
#------------------------------------------------------------------------------
#
# This file is available in the Crystallography Open Database (COD),
# http://www.crystallography.net/
#
# All data on this site have been placed in the public domain by the
# contributors.
#
data_7038221
loop_
_publ_author_name
'Lai, Ya-Yuan'
'Chang, Yu-Chang'
'Chen, Jyh-Horung'
'Wang, Shin-Shin'
'Tung, Jo-Yu'
_publ_section_title
;
 Axial zero-field splitting in mononuclear Co(ii) 2-N substituted
 N-confused porphyrin: Co(2-NC3H5-21-Y-CH2C6H4CH3-NCTPP)Cl (Y = o, m, p)
 and Co(2-NC3H5-21-CH2C6H5-NCTPP)Cl.
;
_journal_issue                   11
_journal_name_full
'Dalton transactions (Cambridge, England : 2003)'
_journal_page_first              4854
_journal_page_last               4862
_journal_paper_doi               10.1039/c6dt00137h
_journal_volume                  45
_journal_year                    2016
_chemical_formula_moiety         'C47 H33 Cl N4 Zn'
_chemical_formula_sum            'C47 H33 Cl N4 Zn'
_chemical_formula_weight         754.59
_space_group_IT_number           14
_symmetry_cell_setting           monoclinic
_symmetry_Int_Tables_number      14
_symmetry_space_group_name_Hall  '-P 2ybc'
_symmetry_space_group_name_H-M   'P 1 21/c 1'
_atom_sites_solution_hydrogens   geom
_atom_sites_solution_primary     direct
_atom_sites_solution_secondary   difmap
_audit_creation_method           SHELXL-97
_audit_update_record
;
2016-01-28 deposited with the CCDC.
2016-02-01 downloaded from the CCDC.
;
_cell_angle_alpha                90.00
_cell_angle_beta                 115.602(11)
_cell_angle_gamma                90.00
_cell_formula_units_Z            4
_cell_length_a                   15.4231(12)
_cell_length_b                   16.2904(11)
_cell_length_c                   15.8389(14)
_cell_measurement_reflns_used    4812
_cell_measurement_temperature    150(2)
_cell_measurement_theta_max      29.3810
_cell_measurement_theta_min      3.6880
_cell_volume                     3588.8(6)
_computing_cell_refinement
; 
CrysAlis RED, Oxford Diffraction Ltd., 
Version 1.171.32.29 (release 10-06-2008 CrysAlis171 .NET) 
(compiled Jun 10 2008,16:49:55) 
;
_computing_data_collection
; 
CrysAlis CCD, Oxford Diffraction Ltd., 
Version 1.171.32.29 (release 10-06-2008 CrysAlis171 .NET) 
(compiled Jun 10 2008,16:49:55) 
;
_computing_data_reduction
; 
CrysAlis RED, Oxford Diffraction Ltd., 
Version 1.171.32.29 (release 10-06-2008 CrysAlis171 .NET) 
(compiled Jun 10 2008,16:49:55) 
;
_computing_molecular_graphics    'Bruker SHELXTL'
_computing_publication_material  'Bruker SHELXTL'
_computing_structure_refinement  'SHELXL-97 (Sheldrick, 2008)'
_computing_structure_solution    'SHELXS-97 (Sheldrick, 2008)'
_diffrn_ambient_temperature      150(2)
_diffrn_measured_fraction_theta_full 0.999
_diffrn_measured_fraction_theta_max 0.859
_diffrn_measurement_device_type  'CCD detector'
_diffrn_measurement_method       '\w scans'
_diffrn_radiation_monochromator  graphite
_diffrn_radiation_probe          x-ray
_diffrn_radiation_type           MoK\a
_diffrn_radiation_wavelength     0.71073
_diffrn_reflns_av_R_equivalents  0.0279
_diffrn_reflns_av_unetI/netI     0.0470
_diffrn_reflns_limit_h_max       19
_diffrn_reflns_limit_h_min       -20
_diffrn_reflns_limit_k_max       17
_diffrn_reflns_limit_k_min       -20
_diffrn_reflns_limit_l_max       21
_diffrn_reflns_limit_l_min       -20
_diffrn_reflns_number            17264
_diffrn_reflns_theta_full        26.00
_diffrn_reflns_theta_max         29.33
_diffrn_reflns_theta_min         2.85
_diffrn_source                   'fine-focus sealed tube'
_exptl_absorpt_coefficient_mu    0.800
_exptl_absorpt_correction_T_max  1.00000
_exptl_absorpt_correction_T_min  0.96244
_exptl_absorpt_correction_type   multi-scan
_exptl_absorpt_process_details
; 
CrysAlisPro, Agilent Technologies, 
Version 1.171.37.31 (release 14-01-2014 CrysAlis171 .NET) 
(compiled Jan 14 2014,18:38:05) 
Empirical absorption correction using spherical harmonics, 
 implemented in SCALE3 ABSPACK scaling algorithm. 
;
_exptl_crystal_colour            blue
_exptl_crystal_density_diffrn    1.397
_exptl_crystal_density_method    'not measured'
_exptl_crystal_description       parallelepiped
_exptl_crystal_F_000             1560
_exptl_crystal_size_max          0.48
_exptl_crystal_size_mid          0.42
_exptl_crystal_size_min          0.26
_refine_diff_density_max         0.934
_refine_diff_density_min         -0.617
_refine_diff_density_rms         0.077
_refine_ls_extinction_method     none
_refine_ls_goodness_of_fit_ref   1.064
_refine_ls_hydrogen_treatment    mixed
_refine_ls_matrix_type           full
_refine_ls_number_parameters     492
_refine_ls_number_reflns         8447
_refine_ls_number_restraints     0
_refine_ls_restrained_S_all      1.064
_refine_ls_R_factor_all          0.0782
_refine_ls_R_factor_gt           0.0568
_refine_ls_shift/su_max          0.024
_refine_ls_shift/su_mean         0.000
_refine_ls_structure_factor_coef Fsqd
_refine_ls_weighting_details
'calc w=1/[\s^2^(Fo^2^)+(0.0479P)^2^+7.2085P] where P=(Fo^2^+2Fc^2^)/3'
_refine_ls_weighting_scheme      calc
_refine_ls_wR_factor_gt          0.1314
_refine_ls_wR_factor_ref         0.1431
_reflns_number_gt                6567
_reflns_number_total             8447
_reflns_threshold_expression     >2sigma(I)
_cod_data_source_file            c6dt00137h2.cif
_cod_data_source_block           znoac
_cod_depositor_comments
'Adding full bibliography for 7038220--7038225.cif.'
_cod_original_cell_volume        3588.8(5)
_cod_original_sg_symbol_H-M      'P 21/c'
_cod_database_code               7038221
loop_
_symmetry_equiv_pos_as_xyz
'x, y, z'
'-x, y+1/2, -z+1/2'
'-x, -y, -z'
'x, -y-1/2, z-1/2'
loop_
_atom_site_label
_atom_site_type_symbol
_atom_site_fract_x
_atom_site_fract_y
_atom_site_fract_z
_atom_site_U_iso_or_equiv
_atom_site_adp_type
_atom_site_occupancy
_atom_site_symmetry_multiplicity
_atom_site_calc_flag
_atom_site_refinement_flags
_atom_site_disorder_assembly
_atom_site_disorder_group
Zn Zn 0.22552(2) 0.38776(2) 0.97100(2) 0.02281(11) Uani 1 1 d . A .
Cl Cl 0.26504(7) 0.50337(5) 1.05752(6) 0.0371(2) Uani 1 1 d . . .
N1 N 0.07535(18) 0.37470(16) 0.92327(17) 0.0244(5) Uani 1 1 d . . .
N2 N 0.24600(17) 0.27834(16) 1.03438(17) 0.0217(5) Uani 1 1 d . . .
N3 N 0.34320(18) 0.36428(17) 0.93911(17) 0.0255(6) Uani 1 1 d . . .
N4 N 0.2204(3) 0.5872(2) 0.8248(2) 0.0439(8) Uani 1 1 d . . .
C1 C -0.0006(2) 0.4269(2) 0.8694(2) 0.0287(7) Uani 1 1 d . A .
C2 C -0.0887(2) 0.3959(2) 0.8680(2) 0.0333(8) Uani 1 1 d . . .
H2A H -0.1508 0.4192 0.8354 0.040 Uiso 1 1 calc R . .
C3 C -0.0669(2) 0.3284(2) 0.9209(2) 0.0337(8) Uani 1 1 d . . .
H3A H -0.1108 0.2949 0.9329 0.040 Uiso 1 1 calc R . .
C4 C 0.0357(2) 0.3157(2) 0.9568(2) 0.0262(6) Uani 1 1 d . . .
C5 C 0.0841(2) 0.2523(2) 1.0210(2) 0.0275(7) Uani 1 1 d . . .
C6 C 0.1821(2) 0.23662(19) 1.0568(2) 0.0245(6) Uani 1 1 d . . .
C7 C 0.2295(2) 0.1681(2) 1.1168(2) 0.0291(7) Uani 1 1 d . . .
H7A H 0.2019 0.1307 1.1443 0.035 Uiso 1 1 calc R . .
C8 C 0.3210(2) 0.1676(2) 1.1263(2) 0.0280(7) Uani 1 1 d . . .
H8A H 0.3699 0.1296 1.1619 0.034 Uiso 1 1 calc R . .
C9 C 0.3304(2) 0.23546(19) 1.0721(2) 0.0235(6) Uani 1 1 d . . .
C10 C 0.4085(2) 0.2486(2) 1.0513(2) 0.0252(6) Uani 1 1 d . . .
C11 C 0.4102(2) 0.3061(2) 0.9851(2) 0.0267(7) Uani 1 1 d . . .
C12 C 0.4873(2) 0.3094(2) 0.9561(2) 0.0347(8) Uani 1 1 d . . .
H12A H 0.5422 0.2748 0.9776 0.042 Uiso 1 1 calc R . .
C13 C 0.4670(2) 0.3703(2) 0.8933(2) 0.0369(8) Uani 1 1 d . . .
H13A H 0.5042 0.3863 0.8614 0.044 Uiso 1 1 calc R . .
C14 C 0.3776(2) 0.4068(2) 0.8834(2) 0.0304(7) Uani 1 1 d . A .
C15 C 0.3359(2) 0.4758(2) 0.8302(2) 0.0301(7) Uani 1 1 d . . .
C16 C 0.2439(2) 0.5041(2) 0.8202(2) 0.0296(7) Uani 1 1 d . A .
C17 C 0.1651(2) 0.4592(2) 0.8141(2) 0.0250(6) Uani 1 1 d . . .
H17A H 0.150(3) 0.398(2) 0.798(2) 0.032(10) Uiso 1 1 d . . .
C18 C 0.0962(2) 0.5139(2) 0.8170(2) 0.0295(7) Uani 1 1 d . A .
C19 C 0.1347(3) 0.5924(2) 0.8231(3) 0.0382(8) Uani 1 1 d . A .
C20 C 0.0082(2) 0.4965(2) 0.8239(2) 0.0295(7) Uani 1 1 d . . .
C21 C 0.0245(2) 0.1990(3) 1.0526(3) 0.0414(9) Uani 1 1 d . . .
C22 C 0.0199(3) 0.2174(3) 1.1380(3) 0.0567(13) Uani 1 1 d . . .
H22A H 0.0573 0.2615 1.1753 0.068 Uiso 1 1 calc R . .
C23 C -0.0374(3) 0.1730(4) 1.1683(4) 0.0670(15) Uani 1 1 d . . .
H23A H -0.0423 0.1875 1.2242 0.080 Uiso 1 1 calc R . .
C24 C -0.0872(4) 0.1074(3) 1.1154(4) 0.0683(16) Uani 1 1 d . . .
H24A H -0.1259 0.0759 1.1364 0.082 Uiso 1 1 calc R . .
C25 C -0.0835(3) 0.0851(3) 1.0331(4) 0.0631(13) Uani 1 1 d . . .
H25A H -0.1178 0.0386 0.9986 0.076 Uiso 1 1 calc R . .
C26 C -0.0263(3) 0.1341(3) 1.0010(4) 0.0583(12) Uani 1 1 d . . .
H26A H -0.0241 0.1212 0.9435 0.070 Uiso 1 1 calc R . .
C27 C 0.4927(2) 0.1920(2) 1.0972(2) 0.0269(7) Uani 1 1 d . . .
C28 C 0.5526(3) 0.1986(3) 1.1916(3) 0.0431(9) Uani 1 1 d . . .
H28A H 0.5438 0.2422 1.2270 0.052 Uiso 1 1 calc R . .
C29 C 0.6260(3) 0.1417(3) 1.2353(3) 0.0523(11) Uani 1 1 d . . .
H29A H 0.6664 0.1465 1.3004 0.063 Uiso 1 1 calc R . .
C30 C 0.6406(3) 0.0790(3) 1.1856(3) 0.0450(10) Uani 1 1 d . . .
H30A H 0.6911 0.0408 1.2156 0.054 Uiso 1 1 calc R . .
C31 C 0.5814(3) 0.0719(2) 1.0916(3) 0.0422(9) Uani 1 1 d . . .
H31A H 0.5912 0.0288 1.0562 0.051 Uiso 1 1 calc R . .
C32 C 0.5074(2) 0.1275(2) 1.0484(3) 0.0353(8) Uani 1 1 d . . .
H32A H 0.4659 0.1212 0.9838 0.042 Uiso 1 1 calc R . .
C33 C 0.3844(2) 0.5219(2) 0.7818(2) 0.0292(7) Uani 1 1 d . A .
C34 C 0.4812(3) 0.5435(2) 0.8244(3) 0.0367(8) Uani 1 1 d . . .
H34A H 0.5195 0.5290 0.8879 0.044 Uiso 1 1 calc R A .
C35 C 0.5219(3) 0.5860(3) 0.7749(3) 0.0447(10) Uani 1 1 d . A .
H35A H 0.5879 0.6010 0.8050 0.054 Uiso 1 1 calc R . .
C36 C 0.4683(4) 0.6067(3) 0.6832(3) 0.0516(11) Uani 1 1 d . . .
H36A H 0.4971 0.6349 0.6494 0.062 Uiso 1 1 calc R A .
C37 C 0.3726(4) 0.5864(3) 0.6403(3) 0.0529(11) Uani 1 1 d . A .
H37A H 0.3353 0.6011 0.5767 0.063 Uiso 1 1 calc R . .
C38 C 0.3298(3) 0.5449(2) 0.6887(2) 0.0413(9) Uani 1 1 d . . .
H38A H 0.2633 0.5321 0.6584 0.050 Uiso 1 1 calc R A .
C39 C -0.0729(2) 0.5543(2) 0.7817(2) 0.0310(7) Uani 1 1 d . A .
C40 C -0.0919(3) 0.5896(3) 0.6946(3) 0.0448(10) Uani 1 1 d . . .
H40A H -0.0514 0.5773 0.6650 0.054 Uiso 1 1 calc R A .
C41 C -0.1692(3) 0.6421(3) 0.6514(3) 0.0547(12) Uani 1 1 d . A .
H41A H -0.1809 0.6662 0.5929 0.066 Uiso 1 1 calc R . .
C42 C -0.2297(3) 0.6597(3) 0.6930(3) 0.0482(10) Uani 1 1 d . . .
H42A H -0.2838 0.6945 0.6623 0.058 Uiso 1 1 calc R A .
C43 C -0.2110(3) 0.6265(2) 0.7789(3) 0.0376(8) Uani 1 1 d . A .
H43A H -0.2521 0.6388 0.8078 0.045 Uiso 1 1 calc R . .
C44 C -0.1331(2) 0.5753(2) 0.8235(2) 0.0320(7) Uani 1 1 d . . .
H44A H -0.1202 0.5540 0.8836 0.038 Uiso 1 1 calc R A .
C45 C 0.2784(4) 0.6609(4) 0.8394(5) 0.0529(16) Uani 0.674(5) 1 d P A 1
H45A H 0.2631 0.6856 0.7775 0.063 Uiso 0.674(5) 1 calc PR A 1
H45B H 0.3469 0.6443 0.8668 0.063 Uiso 0.674(5) 1 calc PR A 1
C46 C 0.2673(4) 0.7250(4) 0.8997(6) 0.0540(17) Uani 0.674(5) 1 d P A 1
H46A H 0.2645 0.7796 0.8776 0.065 Uiso 0.674(5) 1 calc PR A 1
C47 C 0.2608(5) 0.7183(7) 0.9776(7) 0.071(2) Uani 0.674(5) 1 d P A 1
H47A H 0.2630 0.6656 1.0042 0.085 Uiso 0.674(5) 1 calc PR A 1
H47B H 0.2538 0.7660 1.0085 0.085 Uiso 0.674(5) 1 calc PR A 1
C45' C 0.1281(9) 0.6683(8) 0.8596(11) 0.0529(16) Uani 0.326(5) 1 d P A 2
C46' C 0.2188(11) 0.7054(9) 0.9479(13) 0.0540(17) Uani 0.326(5) 1 d P A 2
H46B H 0.2453 0.6798 1.0077 0.065 Uiso 0.326(5) 1 calc PR A 2
C47' C 0.2556(10) 0.7788(13) 0.9297(14) 0.071(2) Uani 0.326(5) 1 d P A 2
H47C H 0.2270 0.8024 0.8689 0.085 Uiso 0.326(5) 1 calc PR A 2
H47E H 0.3092 0.8047 0.9782 0.085 Uiso 0.326(5) 1 calc PR A 2
loop_
_atom_site_aniso_label
_atom_site_aniso_U_11
_atom_site_aniso_U_22
_atom_site_aniso_U_33
_atom_site_aniso_U_23
_atom_site_aniso_U_13
_atom_site_aniso_U_12
Zn 0.02195(18) 0.02394(19) 0.02145(18) 0.00154(14) 0.00833(14) -0.00164(14)
Cl 0.0458(5) 0.0294(4) 0.0347(4) -0.0079(3) 0.0161(4) -0.0067(4)
N1 0.0234(12) 0.0272(14) 0.0242(12) 0.0055(10) 0.0118(11) 0.0044(11)
N2 0.0199(12) 0.0235(13) 0.0217(12) 0.0006(10) 0.0090(10) -0.0007(10)
N3 0.0193(12) 0.0317(14) 0.0230(12) 0.0042(11) 0.0067(10) -0.0029(11)
N4 0.051(2) 0.0347(17) 0.0456(18) 0.0010(14) 0.0202(16) -0.0087(15)
C1 0.0277(16) 0.0344(18) 0.0260(15) 0.0050(13) 0.0135(14) 0.0077(14)
C2 0.0242(15) 0.042(2) 0.0348(18) 0.0088(15) 0.0142(14) 0.0101(15)
C3 0.0249(16) 0.040(2) 0.0403(19) 0.0095(15) 0.0183(15) 0.0022(14)
C4 0.0214(14) 0.0310(17) 0.0281(15) 0.0039(13) 0.0125(13) -0.0002(13)
C5 0.0252(15) 0.0300(17) 0.0279(16) 0.0038(13) 0.0122(13) -0.0013(13)
C6 0.0251(15) 0.0261(16) 0.0221(14) 0.0025(12) 0.0099(13) -0.0002(12)
C7 0.0247(15) 0.0324(17) 0.0308(16) 0.0114(13) 0.0126(14) 0.0027(13)
C8 0.0244(15) 0.0315(17) 0.0259(15) 0.0068(13) 0.0088(13) 0.0022(13)
C9 0.0214(14) 0.0264(16) 0.0189(13) 0.0000(11) 0.0052(12) 0.0008(12)
C10 0.0186(14) 0.0329(17) 0.0225(14) 0.0008(12) 0.0073(12) -0.0005(12)
C11 0.0218(14) 0.0337(17) 0.0226(14) 0.0019(13) 0.0078(12) -0.0026(13)
C12 0.0244(16) 0.048(2) 0.0340(18) 0.0099(16) 0.0146(14) 0.0045(15)
C13 0.0266(16) 0.055(2) 0.0311(17) 0.0104(16) 0.0141(15) -0.0023(16)
C14 0.0216(15) 0.043(2) 0.0238(15) 0.0062(14) 0.0071(13) -0.0047(14)
C15 0.0219(15) 0.0398(19) 0.0239(15) 0.0062(13) 0.0055(13) -0.0096(14)
C16 0.0270(16) 0.0320(18) 0.0253(15) 0.0058(13) 0.0072(13) -0.0024(14)
C17 0.0211(14) 0.0312(17) 0.0206(14) 0.0053(12) 0.0070(12) 0.0008(13)
C18 0.0334(17) 0.0306(17) 0.0291(16) 0.0074(13) 0.0178(14) 0.0035(14)
C19 0.053(2) 0.0253(18) 0.048(2) 0.0036(15) 0.0328(19) -0.0023(16)
C20 0.0332(17) 0.0336(18) 0.0269(16) 0.0070(13) 0.0177(14) 0.0109(14)
C21 0.0213(16) 0.047(2) 0.055(2) 0.0248(19) 0.0154(16) 0.0059(15)
C22 0.039(2) 0.091(4) 0.043(2) 0.023(2) 0.0200(19) -0.003(2)
C23 0.047(3) 0.099(4) 0.058(3) 0.021(3) 0.026(2) -0.008(3)
C24 0.053(3) 0.080(4) 0.062(3) 0.037(3) 0.015(2) -0.013(3)
C25 0.041(2) 0.073(3) 0.070(3) 0.017(3) 0.020(2) -0.007(2)
C26 0.049(2) 0.052(3) 0.073(3) 0.011(2) 0.025(2) -0.007(2)
C27 0.0185(14) 0.0349(18) 0.0252(15) 0.0059(13) 0.0073(12) 0.0009(13)
C28 0.0350(19) 0.055(2) 0.0301(18) -0.0014(17) 0.0054(16) 0.0095(18)
C29 0.037(2) 0.065(3) 0.036(2) 0.010(2) -0.0016(18) 0.012(2)
C30 0.0273(18) 0.039(2) 0.057(2) 0.0118(18) 0.0083(18) 0.0093(16)
C31 0.0350(19) 0.0298(19) 0.055(2) 0.0006(17) 0.0134(18) 0.0035(16)
C32 0.0297(17) 0.0327(19) 0.0350(18) -0.0008(14) 0.0060(15) -0.0019(14)
C33 0.0317(17) 0.0306(17) 0.0261(15) 0.0010(13) 0.0134(14) -0.0049(14)
C34 0.0325(18) 0.045(2) 0.0354(18) 0.0018(16) 0.0170(16) -0.0083(16)
C35 0.042(2) 0.043(2) 0.062(3) 0.0005(19) 0.035(2) -0.0099(17)
C36 0.076(3) 0.044(2) 0.061(3) 0.009(2) 0.054(3) -0.004(2)
C37 0.078(3) 0.052(3) 0.034(2) 0.0121(18) 0.029(2) -0.001(2)
C38 0.049(2) 0.039(2) 0.0308(18) 0.0051(15) 0.0118(17) -0.0065(18)
C39 0.0345(17) 0.0324(18) 0.0283(16) 0.0071(14) 0.0156(15) 0.0083(14)
C40 0.059(2) 0.049(2) 0.0363(19) 0.0146(17) 0.0296(19) 0.019(2)
C41 0.070(3) 0.057(3) 0.035(2) 0.0217(19) 0.020(2) 0.025(2)
C42 0.046(2) 0.047(2) 0.040(2) 0.0091(18) 0.0080(19) 0.0202(19)
C43 0.0364(19) 0.038(2) 0.0378(19) -0.0021(15) 0.0150(16) 0.0120(16)
C44 0.0355(18) 0.0358(19) 0.0284(16) 0.0036(14) 0.0172(15) 0.0095(15)
C45 0.043(3) 0.042(3) 0.094(5) -0.015(3) 0.048(3) -0.013(2)
C46 0.041(3) 0.036(3) 0.089(5) -0.016(3) 0.032(3) -0.002(3)
C47 0.036(3) 0.094(7) 0.090(6) 0.003(5) 0.034(4) -0.003(4)
C45' 0.043(3) 0.042(3) 0.094(5) -0.015(3) 0.048(3) -0.013(2)
C46' 0.041(3) 0.036(3) 0.089(5) -0.016(3) 0.032(3) -0.002(3)
C47' 0.036(3) 0.094(7) 0.090(6) 0.003(5) 0.034(4) -0.003(4)
loop_
_atom_type_symbol
_atom_type_description
_atom_type_scat_dispersion_real
_atom_type_scat_dispersion_imag
_atom_type_scat_source
C C 0.0033 0.0016 'International Tables Vol C Tables 4.2.6.8 and 6.1.1.4'
H H 0.0000 0.0000 'International Tables Vol C Tables 4.2.6.8 and 6.1.1.4'
N N 0.0061 0.0033 'International Tables Vol C Tables 4.2.6.8 and 6.1.1.4'
Cl Cl 0.1484 0.1585 'International Tables Vol C Tables 4.2.6.8 and 6.1.1.4'
Zn Zn 0.2839 1.4301 'International Tables Vol C Tables 4.2.6.8 and 6.1.1.4'
loop_
_geom_angle_atom_site_label_1
_geom_angle_atom_site_label_2
_geom_angle_atom_site_label_3
_geom_angle
N2 Zn N1 90.04(10)
N2 Zn N3 89.60(10)
N1 Zn N3 144.67(10)
N2 Zn Cl 119.77(7)
N1 Zn Cl 105.57(8)
N3 Zn Cl 105.16(8)
N2 Zn C17 144.42(11)
N1 Zn C17 79.24(10)
N3 Zn C17 80.71(10)
Cl Zn C17 95.80(8)
C4 N1 C1 105.5(3)
C4 N1 Zn 122.6(2)
C1 N1 Zn 131.0(2)
C6 N2 C9 106.9(3)
C6 N2 Zn 126.8(2)
C9 N2 Zn 126.0(2)
C11 N3 C14 106.0(3)
C11 N3 Zn 122.0(2)
C14 N3 Zn 131.4(2)
C19 N4 C16 109.8(3)
C19 N4 C45 119.7(4)
C16 N4 C45 130.2(4)
C20 C1 N1 124.8(3)
C20 C1 C2 125.8(3)
N1 C1 C2 109.4(3)
C3 C2 C1 107.4(3)
C3 C2 H2A 126.3
C1 C2 H2A 126.3
C2 C3 C4 107.5(3)
C2 C3 H3A 126.3
C4 C3 H3A 126.3
N1 C4 C5 127.4(3)
N1 C4 C3 110.1(3)
C5 C4 C3 122.4(3)
C6 C5 C4 124.8(3)
C6 C5 C21 118.2(3)
C4 C5 C21 117.0(3)
N2 C6 C5 125.7(3)
N2 C6 C7 109.8(3)
C5 C6 C7 124.3(3)
C8 C7 C6 106.5(3)
C8 C7 H7A 126.7
C6 C7 H7A 126.7
C7 C8 C9 107.3(3)
C7 C8 H8A 126.3
C9 C8 H8A 126.3
N2 C9 C10 125.1(3)
N2 C9 C8 109.2(3)
C10 C9 C8 125.2(3)
C9 C10 C11 124.8(3)
C9 C10 C27 116.5(3)
C11 C10 C27 118.5(3)
N3 C11 C10 127.2(3)
N3 C11 C12 110.1(3)
C10 C11 C12 122.7(3)
C13 C12 C11 107.6(3)
C13 C12 H12A 126.2
C11 C12 H12A 126.2
C12 C13 C14 106.9(3)
C12 C13 H13A 126.6
C14 C13 H13A 126.6
C15 C14 N3 125.7(3)
C15 C14 C13 124.8(3)
N3 C14 C13 109.4(3)
C14 C15 C16 120.4(3)
C14 C15 C33 121.3(3)
C16 C15 C33 118.3(3)
C17 C16 N4 105.8(3)
C17 C16 C15 129.3(3)
N4 C16 C15 124.6(3)
C16 C17 C18 108.4(3)
C16 C17 Zn 103.6(2)
C18 C17 Zn 102.9(2)
C16 C17 H17A 129(2)
C18 C17 H17A 122(2)
Zn C17 H17A 75(2)
C19 C18 C17 106.2(3)
C19 C18 C20 124.4(3)
C17 C18 C20 129.1(3)
N4 C19 C45' 107.6(6)
N4 C19 C18 109.7(3)
C45' C19 C18 137.7(6)
C1 C20 C18 120.8(3)
C1 C20 C39 120.3(3)
C18 C20 C39 118.9(3)
C26 C21 C22 119.0(4)
C26 C21 C5 121.9(4)
C22 C21 C5 119.1(4)
C23 C22 C21 121.7(5)
C23 C22 H22A 119.2
C21 C22 H22A 119.2
C24 C23 C22 118.0(5)
C24 C23 H23A 121.0
C22 C23 H23A 121.0
C23 C24 C25 123.0(5)
C23 C24 H24A 118.5
C25 C24 H24A 118.5
C24 C25 C26 118.1(5)
C24 C25 H25A 121.0
C26 C25 H25A 121.0
C21 C26 C25 120.2(5)
C21 C26 H26A 119.9
C25 C26 H26A 119.9
C28 C27 C32 118.1(3)
C28 C27 C10 120.8(3)
C32 C27 C10 120.9(3)
C27 C28 C29 120.4(4)
C27 C28 H28A 119.8
C29 C28 H28A 119.8
C30 C29 C28 120.8(4)
C30 C29 H29A 119.6
C28 C29 H29A 119.6
C29 C30 C31 119.3(4)
C29 C30 H30A 120.3
C31 C30 H30A 120.3
C32 C31 C30 120.0(4)
C32 C31 H31A 120.0
C30 C31 H31A 120.0
C31 C32 C27 121.4(3)
C31 C32 H32A 119.3
C27 C32 H32A 119.3
C34 C33 C38 118.3(3)
C34 C33 C15 123.4(3)
C38 C33 C15 118.2(3)
C35 C34 C33 120.4(3)
C35 C34 H34A 119.8
C33 C34 H34A 119.8
C36 C35 C34 120.7(4)
C36 C35 H35A 119.6
C34 C35 H35A 119.6
C37 C36 C35 119.6(4)
C37 C36 H36A 120.2
C35 C36 H36A 120.2
C36 C37 C38 120.8(4)
C36 C37 H37A 119.6
C38 C37 H37A 119.6
C37 C38 C33 120.1(4)
C37 C38 H38A 119.9
C33 C38 H38A 119.9
C44 C39 C40 117.8(3)
C44 C39 C20 123.3(3)
C40 C39 C20 118.8(3)
C41 C40 C39 120.5(4)
C41 C40 H40A 119.8
C39 C40 H40A 119.8
C42 C41 C40 120.5(4)
C42 C41 H41A 119.8
C40 C41 H41A 119.8
C43 C42 C41 119.5(4)
C43 C42 H42A 120.2
C41 C42 H42A 120.2
C42 C43 C44 120.5(4)
C42 C43 H43A 119.7
C44 C43 H43A 119.7
C43 C44 C39 121.1(3)
C43 C44 H44A 119.5
C39 C44 H44A 119.5
N4 C45 C46 116.8(5)
N4 C45 H45A 108.1
C46 C45 H45A 108.1
N4 C45 H45B 108.1
C46 C45 H45B 108.1
H45A C45 H45B 107.3
C47 C46 C45 129.9(8)
C47 C46 H46A 115.0
C45 C46 H46A 115.0
C46 C47 H47A 120.0
C46 C47 H47B 120.0
H47A C47 H47B 120.0
C19 C45' C46' 120.3(11)
C47' C46' C45' 114.7(16)
C47' C46' H46B 122.7
C45' C46' H46B 122.7
C46' C47' H47C 120.0
C46' C47' H47E 120.0
H47C C47' H47E 120.0
loop_
_geom_bond_atom_site_label_1
_geom_bond_atom_site_label_2
_geom_bond_distance
Zn N2 2.003(3)
Zn N1 2.114(3)
Zn N3 2.118(3)
Zn Cl 2.2527(9)
Zn C17 2.529(3)
N1 C4 1.365(4)
N1 C1 1.400(4)
N2 C6 1.365(4)
N2 C9 1.367(4)
N3 C11 1.359(4)
N3 C14 1.395(4)
N4 C19 1.313(5)
N4 C16 1.411(5)
N4 C45 1.455(6)
C1 C20 1.382(5)
C1 C2 1.440(5)
C2 C3 1.334(5)
C2 H2A 0.9500
C3 C4 1.447(4)
C3 H3A 0.9500
C4 C5 1.414(4)
C5 C6 1.389(4)
C5 C21 1.499(5)
C6 C7 1.444(4)
C7 C8 1.353(4)
C7 H7A 0.9500
C8 C9 1.446(4)
C8 H8A 0.9500
C9 C10 1.395(4)
C10 C11 1.416(4)
C10 C27 1.499(4)
C11 C12 1.448(4)
C12 C13 1.342(5)
C12 H12A 0.9500
C13 C14 1.446(5)
C13 H13A 0.9500
C14 C15 1.385(5)
C15 C16 1.434(5)
C15 C33 1.485(4)
C16 C17 1.387(4)
C17 C18 1.403(5)
C17 H17A 1.03(4)
C18 C19 1.396(5)
C18 C20 1.436(5)
C19 C45' 1.387(13)
C20 C39 1.476(4)
C21 C26 1.358(6)
C21 C22 1.417(6)
C22 C23 1.380(6)
C22 H22A 0.9500
C23 C24 1.371(8)
C23 H23A 0.9500
C24 C25 1.376(8)
C24 H24A 0.9500
C25 C26 1.436(6)
C25 H25A 0.9500
C26 H26A 0.9500
C27 C28 1.381(5)
C27 C32 1.381(5)
C28 C29 1.394(5)
C28 H28A 0.9500
C29 C30 1.365(6)
C29 H29A 0.9500
C30 C31 1.375(6)
C30 H30A 0.9500
C31 C32 1.383(5)
C31 H31A 0.9500
C32 H32A 0.9500
C33 C34 1.392(5)
C33 C38 1.397(5)
C34 C35 1.384(5)
C34 H34A 0.9500
C35 C36 1.367(6)
C35 H35A 0.9500
C36 C37 1.372(7)
C36 H36A 0.9500
C37 C38 1.384(6)
C37 H37A 0.9500
C38 H38A 0.9500
C39 C44 1.395(5)
C39 C40 1.404(5)
C40 C41 1.384(6)
C40 H40A 0.9500
C41 C42 1.384(6)
C41 H41A 0.9500
C42 C43 1.375(5)
C42 H42A 0.9500
C43 C44 1.380(5)
C43 H43A 0.9500
C44 H44A 0.9500
C45 C46 1.474(9)
C45 H45A 0.9900
C45 H45B 0.9900
C46 C47 1.284(11)
C46 H46A 0.9500
C47 H47A 0.9500
C47 H47B 0.9500
C45' C46' 1.61(2)
C46' C47' 1.41(3)
C46' H46B 0.9500
C47' H47C 0.9500
C47' H47E 0.9500
