#------------------------------------------------------------------------------
#$Date: 2016-04-05 19:52:35 +0300 (Tue, 05 Apr 2016) $
#$Revision: 181696 $
#$URL: svn://www.crystallography.net/cod/cif/7/03/82/7038224.cif $
#------------------------------------------------------------------------------
#
# This file is available in the Crystallography Open Database (COD),
# http://www.crystallography.net/
#
# All data on this site have been placed in the public domain by the
# contributors.
#
data_7038224
loop_
_publ_author_name
'Lai, Ya-Yuan'
'Chang, Yu-Chang'
'Chen, Jyh-Horung'
'Wang, Shin-Shin'
'Tung, Jo-Yu'
_publ_section_title
;
 Axial zero-field splitting in mononuclear Co(ii) 2-N substituted
 N-confused porphyrin: Co(2-NC3H5-21-Y-CH2C6H4CH3-NCTPP)Cl (Y = o, m, p)
 and Co(2-NC3H5-21-CH2C6H5-NCTPP)Cl.
;
_journal_issue                   11
_journal_name_full
'Dalton transactions (Cambridge, England : 2003)'
_journal_page_first              4854
_journal_page_last               4862
_journal_paper_doi               10.1039/c6dt00137h
_journal_volume                  45
_journal_year                    2016
_chemical_formula_moiety         'C55 H41 Cl Co N4'
_chemical_formula_sum            'C55 H41 Cl Co N4'
_chemical_formula_weight         852.30
_space_group_IT_number           15
_symmetry_cell_setting           monoclinic
_symmetry_Int_Tables_number      15
_symmetry_space_group_name_Hall  '-C 2yc'
_symmetry_space_group_name_H-M   'C 1 2/c 1'
_atom_sites_solution_hydrogens   geom
_atom_sites_solution_primary     direct
_atom_sites_solution_secondary   difmap
_audit_creation_method           SHELXL-97
_audit_update_record
;
2016-01-28 deposited with the CCDC.
2016-02-01 downloaded from the CCDC.
;
_cell_angle_alpha                90.00
_cell_angle_beta                 109.587(4)
_cell_angle_gamma                90.00
_cell_formula_units_Z            8
_cell_length_a                   33.5360(12)
_cell_length_b                   13.7306(7)
_cell_length_c                   25.4256(10)
_cell_measurement_reflns_used    5751
_cell_measurement_temperature    150(2)
_cell_measurement_theta_max      29.2048
_cell_measurement_theta_min      2.8265
_cell_volume                     11030.2(9)
_computing_cell_refinement
; 
CrysAlis RED, Oxford Diffraction Ltd., 
Version 1.171.32.29 (release 10-06-2008 CrysAlis171 .NET) 
(compiled Jun 10 2008,16:49:55) 
;
_computing_data_collection
; 
CrysAlis CCD, Oxford Diffraction Ltd., 
Version 1.171.32.29 (release 10-06-2008 CrysAlis171 .NET) 
(compiled Jun 10 2008,16:49:55) 
;
_computing_data_reduction
; 
CrysAlis RED, Oxford Diffraction Ltd., 
Version 1.171.32.29 (release 10-06-2008 CrysAlis171 .NET) 
(compiled Jun 10 2008,16:49:55) 
;
_computing_molecular_graphics    'Bruker SHELXTL'
_computing_publication_material  'Bruker SHELXTL'
_computing_structure_refinement  'SHELXL-97 (Sheldrick, 2008)'
_computing_structure_solution    'SHELXS-97 (Sheldrick, 2008)'
_diffrn_ambient_temperature      150(2)
_diffrn_measured_fraction_theta_full 0.999
_diffrn_measured_fraction_theta_max 0.835
_diffrn_measurement_device_type  'CCD detector'
_diffrn_measurement_method       '\w scans'
_diffrn_radiation_monochromator  graphite
_diffrn_radiation_probe          x-ray
_diffrn_radiation_type           MoK\a
_diffrn_radiation_wavelength     0.71073
_diffrn_reflns_av_R_equivalents  0.0331
_diffrn_reflns_av_unetI/netI     0.0595
_diffrn_reflns_limit_h_max       25
_diffrn_reflns_limit_h_min       -43
_diffrn_reflns_limit_k_max       18
_diffrn_reflns_limit_k_min       -8
_diffrn_reflns_limit_l_max       33
_diffrn_reflns_limit_l_min       -33
_diffrn_reflns_number            24396
_diffrn_reflns_theta_full        26.00
_diffrn_reflns_theta_max         29.27
_diffrn_reflns_theta_min         2.83
_diffrn_source                   'fine-focus sealed tube'
_exptl_absorpt_coefficient_mu    0.393
_exptl_absorpt_correction_T_max  1.00000
_exptl_absorpt_correction_T_min  0.95699
_exptl_absorpt_correction_type   multi-scan
_exptl_absorpt_process_details
; 
CrysAlisPro, Agilent Technologies, 
Version 1.171.35.21 (release 20-01-2012 CrysAlis171 .NET) 
(compiled Jan 23 2012,18:06:46) 
Empirical absorption correction using spherical harmonics, 
 implemented in SCALE3 ABSPACK scaling algorithm. 
;
_exptl_crystal_colour            blue
_exptl_crystal_density_diffrn    1.026
_exptl_crystal_density_method    'not measured'
_exptl_crystal_description       parallelepiped
_exptl_crystal_F_000             3544
_exptl_crystal_size_max          0.48
_exptl_crystal_size_mid          0.45
_exptl_crystal_size_min          0.20
_platon_squeeze_details          ' '
_refine_diff_density_max         0.762
_refine_diff_density_min         -0.597
_refine_diff_density_rms         0.070
_refine_ls_extinction_method     none
_refine_ls_goodness_of_fit_ref   1.105
_refine_ls_hydrogen_treatment    constr
_refine_ls_matrix_type           full
_refine_ls_number_parameters     554
_refine_ls_number_reflns         12545
_refine_ls_number_restraints     1
_refine_ls_restrained_S_all      1.107
_refine_ls_R_factor_all          0.0816
_refine_ls_R_factor_gt           0.0535
_refine_ls_shift/su_max          0.001
_refine_ls_shift/su_mean         0.000
_refine_ls_structure_factor_coef Fsqd
_refine_ls_weighting_details
'calc w=1/[\s^2^(Fo^2^)+(0.0869P)^2^+1.8348P] where P=(Fo^2^+2Fc^2^)/3'
_refine_ls_weighting_scheme      calc
_refine_ls_wR_factor_gt          0.1527
_refine_ls_wR_factor_ref         0.1673
_reflns_number_gt                8903
_reflns_number_total             12545
_reflns_threshold_expression     >2sigma(I)
_cod_data_source_file            c6dt00137h2.cif
_cod_data_source_block           com
_cod_depositor_comments
'Adding full bibliography for 7038220--7038225.cif.'
_cod_original_cell_volume        11030.2(8)
_cod_original_sg_symbol_H-M      'C 2/c'
_cod_database_code               7038224
loop_
_symmetry_equiv_pos_as_xyz
'x, y, z'
'-x, y, -z+1/2'
'x+1/2, y+1/2, z'
'-x+1/2, y+1/2, -z+1/2'
'-x, -y, -z'
'x, -y, z-1/2'
'-x+1/2, -y+1/2, -z'
'x+1/2, -y+1/2, z-1/2'
loop_
_atom_site_label
_atom_site_type_symbol
_atom_site_fract_x
_atom_site_fract_y
_atom_site_fract_z
_atom_site_U_iso_or_equiv
_atom_site_adp_type
_atom_site_occupancy
_atom_site_symmetry_multiplicity
_atom_site_calc_flag
_atom_site_refinement_flags
_atom_site_disorder_assembly
_atom_site_disorder_group
Co Co 0.147672(9) 0.51380(3) 0.472615(12) 0.02177(11) Uani 1 1 d . . .
Cl Cl 0.12260(2) 0.64765(5) 0.41862(3) 0.03242(17) Uani 1 1 d . . .
N1 N 0.20908(6) 0.55704(16) 0.52249(8) 0.0220(4) Uani 1 1 d . . .
N2 N 0.13272(6) 0.49146(16) 0.54190(8) 0.0225(4) Uani 1 1 d . . .
N3 N 0.10651(6) 0.39960(17) 0.43366(8) 0.0253(5) Uani 1 1 d . . .
N4 N 0.15994(7) 0.5215(2) 0.32948(9) 0.0380(6) Uani 1 1 d U . .
C1 C 0.24540(7) 0.5764(2) 0.50849(10) 0.0242(5) Uani 1 1 d . A .
C2 C 0.27951(8) 0.6045(2) 0.55818(10) 0.0303(6) Uani 1 1 d . . .
H2A H 0.3076 0.6204 0.5603 0.036 Uiso 1 1 calc R . .
C3 C 0.26427(7) 0.6042(2) 0.60088(11) 0.0297(6) Uani 1 1 d . . .
H3A H 0.2795 0.6198 0.6387 0.036 Uiso 1 1 calc R . .
C4 C 0.22019(7) 0.5755(2) 0.57820(10) 0.0243(5) Uani 1 1 d . . .
C5 C 0.19365(7) 0.56873(19) 0.61159(9) 0.0224(5) Uani 1 1 d . . .
C6 C 0.15305(7) 0.5308(2) 0.59379(10) 0.0234(5) Uani 1 1 d . . .
C7 C 0.12707(8) 0.5178(2) 0.62863(10) 0.0281(6) Uani 1 1 d . . .
H7A H 0.1335 0.5403 0.6659 0.034 Uiso 1 1 calc R . .
C8 C 0.09212(8) 0.4679(2) 0.59876(10) 0.0290(6) Uani 1 1 d . . .
H8A H 0.0693 0.4494 0.6108 0.035 Uiso 1 1 calc R . .
C9 C 0.09619(7) 0.4481(2) 0.54446(10) 0.0245(5) Uani 1 1 d . . .
C10 C 0.06980(7) 0.3882(2) 0.50393(10) 0.0238(5) Uani 1 1 d . . .
C11 C 0.07707(7) 0.3606(2) 0.45394(10) 0.0246(5) Uani 1 1 d . . .
C12 C 0.05404(7) 0.2834(2) 0.41829(11) 0.0305(6) Uani 1 1 d . . .
H12A H 0.0327 0.2440 0.4243 0.037 Uiso 1 1 calc R . .
C13 C 0.06836(8) 0.2774(2) 0.37477(11) 0.0344(7) Uani 1 1 d . . .
H13A H 0.0591 0.2330 0.3445 0.041 Uiso 1 1 calc R . .
C14 C 0.10062(7) 0.3518(2) 0.38303(10) 0.0303(6) Uani 1 1 d . A .
C15 C 0.12037(7) 0.3762(2) 0.34527(10) 0.0297(6) Uani 1 1 d . . .
C16 C 0.15578(7) 0.4411(2) 0.36136(10) 0.0260(6) Uani 1 1 d . A .
C17 C 0.18922(7) 0.44559(19) 0.41291(9) 0.0203(5) Uani 1 1 d . . .
C18 C 0.21240(7) 0.5299(2) 0.41099(10) 0.0240(5) Uani 1 1 d . A .
C19 C 0.19341(7) 0.57356(19) 0.35888(9) 0.0226(5) Uani 1 1 d U A .
C20 C 0.24708(7) 0.57271(19) 0.45490(10) 0.0236(5) Uani 1 1 d . . .
C21 C 0.21277(7) 0.5961(2) 0.67182(10) 0.0266(6) Uani 1 1 d . . .
C22 C 0.22218(8) 0.6920(2) 0.68839(11) 0.0360(7) Uani 1 1 d . . .
H22A H 0.2166 0.7425 0.6613 0.043 Uiso 1 1 calc R . .
C23 C 0.23992(9) 0.7140(3) 0.74514(13) 0.0458(8) Uani 1 1 d . . .
H23A H 0.2460 0.7799 0.7564 0.055 Uiso 1 1 calc R . .
C24 C 0.24871(9) 0.6421(3) 0.78492(12) 0.0437(8) Uani 1 1 d . . .
H24A H 0.2610 0.6582 0.8233 0.052 Uiso 1 1 calc R . .
C25 C 0.23966(9) 0.5466(3) 0.76893(11) 0.0437(8) Uani 1 1 d . . .
H25A H 0.2458 0.4964 0.7962 0.052 Uiso 1 1 calc R . .
C26 C 0.22139(9) 0.5239(2) 0.71230(11) 0.0351(6) Uani 1 1 d . . .
H26A H 0.2148 0.4581 0.7014 0.042 Uiso 1 1 calc R . .
C27 C 0.03253(7) 0.3424(2) 0.51467(10) 0.0271(6) Uani 1 1 d . . .
C28 C 0.03779(8) 0.2762(3) 0.55701(13) 0.0406(7) Uani 1 1 d . . .
H28A H 0.0655 0.2583 0.5799 0.049 Uiso 1 1 calc R . .
C29 C 0.00282(9) 0.2351(3) 0.56674(14) 0.0475(8) Uani 1 1 d . . .
H29A H 0.0069 0.1894 0.5961 0.057 Uiso 1 1 calc R . .
C30 C -0.03763(9) 0.2606(2) 0.53382(13) 0.0408(7) Uani 1 1 d . . .
H30A H -0.0615 0.2323 0.5402 0.049 Uiso 1 1 calc R . .
C31 C -0.04309(8) 0.3272(2) 0.49194(13) 0.0385(7) Uani 1 1 d . . .
H31A H -0.0709 0.3458 0.4695 0.046 Uiso 1 1 calc R . .
C32 C -0.00842(8) 0.3678(2) 0.48191(12) 0.0333(6) Uani 1 1 d . . .
H32A H -0.0127 0.4133 0.4524 0.040 Uiso 1 1 calc R . .
C33 C 0.10501(8) 0.3384(2) 0.28714(10) 0.0313(6) Uani 1 1 d . A .
C34 C 0.06235(8) 0.3380(3) 0.25513(12) 0.0453(9) Uani 1 1 d . . .
H34A H 0.0421 0.3612 0.2708 0.054 Uiso 1 1 calc R A .
C35 C 0.04890(9) 0.3043(3) 0.20086(12) 0.0540(10) Uani 1 1 d . A .
H35A H 0.0197 0.3059 0.1793 0.065 Uiso 1 1 calc R . .
C36 C 0.07754(9) 0.2686(3) 0.17782(12) 0.0464(8) Uani 1 1 d . . .
H36A H 0.0680 0.2434 0.1409 0.056 Uiso 1 1 calc R A .
C37 C 0.12004(9) 0.2693(3) 0.20839(11) 0.0395(7) Uani 1 1 d . A .
H37A H 0.1399 0.2447 0.1924 0.047 Uiso 1 1 calc R . .
C38 C 0.13412(8) 0.3057(2) 0.26246(11) 0.0312(6) Uani 1 1 d . . .
H38A H 0.1636 0.3085 0.2828 0.037 Uiso 1 1 calc R A .
C39 C 0.28482(7) 0.6072(2) 0.44192(10) 0.0253(5) Uani 1 1 d . A .
C40 C 0.29952(8) 0.5514(2) 0.40615(10) 0.0275(6) Uani 1 1 d . . .
H40A H 0.2843 0.4948 0.3892 0.033 Uiso 1 1 calc R A .
C41 C 0.33565(8) 0.5770(2) 0.39513(11) 0.0329(6) Uani 1 1 d . A .
H41A H 0.3450 0.5385 0.3705 0.039 Uiso 1 1 calc R . .
C42 C 0.35816(8) 0.6582(2) 0.41980(11) 0.0349(7) Uani 1 1 d . . .
H42A H 0.3835 0.6746 0.4131 0.042 Uiso 1 1 calc R A .
C43 C 0.34404(8) 0.7157(2) 0.45420(11) 0.0318(6) Uani 1 1 d . A .
H43A H 0.3593 0.7727 0.4705 0.038 Uiso 1 1 calc R . .
C44 C 0.30742(8) 0.6907(2) 0.46526(11) 0.0299(6) Uani 1 1 d . . .
H44A H 0.2978 0.7309 0.4889 0.036 Uiso 1 1 calc R A .
C45' C 0.19869(18) 0.6653(5) 0.3402(3) 0.0528(12) Uani 0.555(5) 1 d P A 1
H45A H 0.2193 0.6610 0.3201 0.063 Uiso 0.555(5) 1 calc PR A 1
H45B H 0.2112 0.7079 0.3731 0.063 Uiso 0.555(5) 1 calc PR A 1
C46' C 0.15871(19) 0.7134(5) 0.3021(3) 0.0528(12) Uani 0.555(5) 1 d P A 1
H46A H 0.1362 0.7219 0.3166 0.063 Uiso 0.555(5) 1 calc PR A 1
C47' C 0.1525(2) 0.7430(5) 0.2534(3) 0.0528(12) Uani 0.555(5) 1 d P A 1
H47A H 0.1740 0.7362 0.2371 0.063 Uiso 0.555(5) 1 calc PR A 1
H47B H 0.1262 0.7723 0.2328 0.063 Uiso 0.555(5) 1 calc PR A 1
C45 C 0.1301(2) 0.5686(6) 0.2812(3) 0.0460(13) Uani 0.445(5) 1 d P A 2
H45C H 0.1013 0.5570 0.2825 0.055 Uiso 0.445(5) 1 calc PR A 2
H45D H 0.1317 0.5353 0.2475 0.055 Uiso 0.445(5) 1 calc PR A 2
C46 C 0.1347(2) 0.6760(6) 0.2736(3) 0.0460(13) Uani 0.445(5) 1 d P A 2
H46B H 0.1328 0.7187 0.3022 0.055 Uiso 0.445(5) 1 calc PR A 2
C47 C 0.1410(2) 0.7140(7) 0.2303(3) 0.0460(13) Uani 0.445(5) 1 d P A 2
H47C H 0.1430 0.6732 0.2011 0.055 Uiso 0.445(5) 1 calc PR A 2
H47D H 0.1437 0.7826 0.2277 0.055 Uiso 0.445(5) 1 calc PR A 2
C48 C 0.20484(7) 0.36069(19) 0.45219(10) 0.0210(5) Uani 1 1 d . A .
H48A H 0.1804 0.3207 0.4528 0.025 Uiso 1 1 calc R . .
H48B H 0.2193 0.3853 0.4905 0.025 Uiso 1 1 calc R . .
C49 C 0.23503(8) 0.2985(2) 0.43425(10) 0.0252(5) Uani 1 1 d . . .
C50 C 0.27747(8) 0.3245(2) 0.45002(11) 0.0325(6) Uani 1 1 d . A .
H50A H 0.2871 0.3796 0.4734 0.039 Uiso 1 1 calc R . .
C51 C 0.30623(9) 0.2719(3) 0.43252(13) 0.0436(8) Uani 1 1 d . . .
C52 C 0.29138(12) 0.1915(3) 0.39876(14) 0.0529(9) Uani 1 1 d . A .
H52A H 0.3103 0.1550 0.3859 0.063 Uiso 1 1 calc R . .
C53 C 0.24961(12) 0.1636(3) 0.38357(13) 0.0488(8) Uani 1 1 d . . .
H53A H 0.2401 0.1073 0.3611 0.059 Uiso 1 1 calc R A .
C54 C 0.22138(10) 0.2175(2) 0.40107(11) 0.0367(7) Uani 1 1 d . A .
H54A H 0.1925 0.1985 0.3901 0.044 Uiso 1 1 calc R . .
C55 C 0.35165(10) 0.3027(3) 0.44959(19) 0.0731(13) Uani 1 1 d . A .
H55A H 0.3672 0.2577 0.4337 0.110 Uiso 1 1 calc R . .
H55B H 0.3641 0.3020 0.4904 0.110 Uiso 1 1 calc R . .
H55C H 0.3533 0.3687 0.4358 0.110 Uiso 1 1 calc R . .
loop_
_atom_site_aniso_label
_atom_site_aniso_U_11
_atom_site_aniso_U_22
_atom_site_aniso_U_33
_atom_site_aniso_U_23
_atom_site_aniso_U_13
_atom_site_aniso_U_12
Co 0.01901(16) 0.0311(2) 0.01538(17) -0.00008(13) 0.00607(13) 0.00122(13)
Cl 0.0359(3) 0.0371(4) 0.0247(3) 0.0043(3) 0.0108(3) 0.0120(3)
N1 0.0262(10) 0.0257(12) 0.0164(10) -0.0015(8) 0.0100(8) -0.0007(9)
N2 0.0190(9) 0.0322(13) 0.0170(9) -0.0013(8) 0.0072(8) 0.0020(8)
N3 0.0180(9) 0.0392(14) 0.0194(10) -0.0016(9) 0.0071(8) -0.0014(9)
N4 0.0322(11) 0.0575(18) 0.0261(12) 0.0080(11) 0.0119(9) 0.0075(10)
C1 0.0250(11) 0.0279(14) 0.0223(12) -0.0030(10) 0.0113(10) -0.0027(10)
C2 0.0262(12) 0.0391(17) 0.0270(13) -0.0071(12) 0.0106(11) -0.0064(11)
C3 0.0234(12) 0.0432(18) 0.0220(12) -0.0061(11) 0.0068(10) -0.0039(11)
C4 0.0258(11) 0.0281(14) 0.0192(12) -0.0005(10) 0.0075(10) 0.0011(10)
C5 0.0256(11) 0.0271(14) 0.0162(11) -0.0006(10) 0.0090(9) 0.0022(10)
C6 0.0235(11) 0.0307(15) 0.0177(11) -0.0008(10) 0.0092(9) 0.0024(10)
C7 0.0294(12) 0.0388(16) 0.0192(12) -0.0022(11) 0.0120(10) 0.0014(11)
C8 0.0269(12) 0.0386(17) 0.0264(13) 0.0007(11) 0.0157(11) 0.0005(11)
C9 0.0203(11) 0.0343(15) 0.0214(12) 0.0019(10) 0.0101(10) 0.0043(10)
C10 0.0171(10) 0.0328(15) 0.0225(12) 0.0041(10) 0.0079(9) 0.0016(10)
C11 0.0169(10) 0.0371(16) 0.0191(12) 0.0019(10) 0.0050(9) 0.0021(10)
C12 0.0210(11) 0.0412(17) 0.0292(14) -0.0069(12) 0.0085(10) -0.0051(11)
C13 0.0244(12) 0.0493(19) 0.0291(14) -0.0125(13) 0.0082(11) -0.0074(12)
C14 0.0162(11) 0.0515(19) 0.0225(13) -0.0057(12) 0.0053(10) -0.0020(11)
C15 0.0170(11) 0.0549(19) 0.0157(11) -0.0037(11) 0.0035(9) 0.0031(11)
C16 0.0195(11) 0.0436(17) 0.0163(11) 0.0040(11) 0.0079(9) 0.0041(11)
C17 0.0188(10) 0.0270(14) 0.0171(11) -0.0009(9) 0.0086(9) 0.0030(10)
C18 0.0285(12) 0.0293(15) 0.0170(11) -0.0003(10) 0.0112(10) 0.0025(11)
C19 0.0297(11) 0.0254(14) 0.0152(11) 0.0065(9) 0.0109(9) 0.0076(10)
C20 0.0283(12) 0.0228(14) 0.0234(12) -0.0025(10) 0.0132(10) -0.0025(10)
C21 0.0238(11) 0.0411(17) 0.0152(11) -0.0052(11) 0.0068(10) 0.0001(11)
C22 0.0351(14) 0.0440(19) 0.0262(14) -0.0056(12) 0.0067(12) 0.0016(13)
C23 0.0473(17) 0.048(2) 0.0373(17) -0.0203(15) 0.0079(14) -0.0005(15)
C24 0.0399(15) 0.068(2) 0.0189(13) -0.0119(14) 0.0046(12) 0.0014(15)
C25 0.0471(16) 0.062(2) 0.0192(13) 0.0011(14) 0.0078(13) -0.0037(16)
C26 0.0410(15) 0.0422(18) 0.0217(13) -0.0016(12) 0.0101(12) -0.0033(13)
C27 0.0245(12) 0.0328(16) 0.0276(13) -0.0021(11) 0.0132(10) -0.0003(11)
C28 0.0276(13) 0.052(2) 0.0446(17) 0.0142(15) 0.0148(12) 0.0016(13)
C29 0.0443(16) 0.052(2) 0.054(2) 0.0158(16) 0.0269(15) -0.0009(15)
C30 0.0317(14) 0.0411(19) 0.059(2) -0.0023(15) 0.0279(14) -0.0078(13)
C31 0.0226(12) 0.0380(18) 0.0573(19) -0.0011(15) 0.0164(13) -0.0015(12)
C32 0.0229(12) 0.0373(17) 0.0399(15) 0.0023(13) 0.0109(11) -0.0020(11)
C33 0.0245(12) 0.0497(19) 0.0187(12) -0.0049(11) 0.0060(10) -0.0027(12)
C34 0.0228(12) 0.085(3) 0.0270(14) -0.0156(15) 0.0066(11) 0.0048(14)
C35 0.0297(14) 0.098(3) 0.0272(15) -0.0179(17) 0.0002(12) -0.0053(17)
C36 0.0440(16) 0.075(3) 0.0207(13) -0.0119(14) 0.0111(13) -0.0109(16)
C37 0.0403(15) 0.057(2) 0.0274(14) -0.0102(13) 0.0196(12) -0.0056(14)
C38 0.0243(12) 0.0448(18) 0.0252(13) -0.0020(12) 0.0089(10) -0.0031(12)
C39 0.0293(12) 0.0286(15) 0.0212(12) 0.0013(10) 0.0124(10) -0.0032(11)
C40 0.0344(13) 0.0285(15) 0.0213(12) 0.0001(10) 0.0117(11) -0.0018(11)
C41 0.0363(14) 0.0413(18) 0.0276(13) 0.0018(12) 0.0192(12) 0.0049(13)
C42 0.0311(13) 0.0459(19) 0.0326(15) 0.0052(13) 0.0174(12) -0.0051(13)
C43 0.0347(13) 0.0296(16) 0.0324(14) 0.0039(12) 0.0127(12) -0.0077(12)
C44 0.0350(13) 0.0276(15) 0.0320(14) -0.0027(11) 0.0176(12) -0.0028(11)
C45' 0.049(2) 0.050(2) 0.044(2) 0.0166(17) -0.0043(17) -0.0080(17)
C46' 0.049(2) 0.050(2) 0.044(2) 0.0166(17) -0.0043(17) -0.0080(17)
C47' 0.049(2) 0.050(2) 0.044(2) 0.0166(17) -0.0043(17) -0.0080(17)
C45 0.054(3) 0.045(3) 0.028(2) 0.0045(19) 0.0004(19) -0.004(2)
C46 0.054(3) 0.045(3) 0.028(2) 0.0045(19) 0.0004(19) -0.004(2)
C47 0.054(3) 0.045(3) 0.028(2) 0.0045(19) 0.0004(19) -0.004(2)
C48 0.0193(10) 0.0247(13) 0.0203(11) 0.0026(10) 0.0081(9) -0.0016(9)
C49 0.0319(12) 0.0274(14) 0.0178(11) 0.0069(10) 0.0105(10) 0.0090(11)
C50 0.0345(13) 0.0333(16) 0.0334(14) 0.0111(12) 0.0163(12) 0.0099(12)
C51 0.0431(16) 0.048(2) 0.0480(18) 0.0254(16) 0.0267(14) 0.0224(15)
C52 0.078(2) 0.049(2) 0.0457(19) 0.0176(16) 0.0388(18) 0.0347(19)
C53 0.080(2) 0.0362(19) 0.0333(16) 0.0030(13) 0.0233(17) 0.0157(17)
C54 0.0500(16) 0.0309(16) 0.0290(14) 0.0024(12) 0.0128(13) 0.0055(13)
C55 0.0444(18) 0.084(3) 0.103(3) 0.038(3) 0.040(2) 0.028(2)
loop_
_atom_type_symbol
_atom_type_description
_atom_type_scat_dispersion_real
_atom_type_scat_dispersion_imag
_atom_type_scat_source
C C 0.0033 0.0016 'International Tables Vol C Tables 4.2.6.8 and 6.1.1.4'
H H 0.0000 0.0000 'International Tables Vol C Tables 4.2.6.8 and 6.1.1.4'
N N 0.0061 0.0033 'International Tables Vol C Tables 4.2.6.8 and 6.1.1.4'
Cl Cl 0.1484 0.1585 'International Tables Vol C Tables 4.2.6.8 and 6.1.1.4'
Co Co 0.3494 0.9721 'International Tables Vol C Tables 4.2.6.8 and 6.1.1.4'
loop_
_geom_angle_atom_site_label_1
_geom_angle_atom_site_label_2
_geom_angle_atom_site_label_3
_geom_angle
N2 Co N3 88.95(8)
N2 Co N1 89.78(7)
N3 Co N1 147.86(8)
N2 Co Cl 120.06(6)
N3 Co Cl 105.43(6)
N1 Co Cl 102.93(6)
C4 N1 C1 105.69(19)
C4 N1 Co 123.29(15)
C1 N1 Co 130.98(15)
C6 N2 C9 106.60(19)
C6 N2 Co 126.25(16)
C9 N2 Co 126.30(16)
C11 N3 C14 105.4(2)
C11 N3 Co 123.86(16)
C14 N3 Co 130.60(16)
C19 N4 C16 109.1(2)
C19 N4 C45 116.8(4)
C16 N4 C45 131.7(4)
C20 C1 N1 124.6(2)
C20 C1 C2 126.1(2)
N1 C1 C2 109.2(2)
C3 C2 C1 107.5(2)
C3 C2 H2A 126.2
C1 C2 H2A 126.2
C2 C3 C4 107.0(2)
C2 C3 H3A 126.5
C4 C3 H3A 126.5
N1 C4 C5 126.9(2)
N1 C4 C3 110.5(2)
C5 C4 C3 122.6(2)
C6 C5 C4 124.9(2)
C6 C5 C21 117.8(2)
C4 C5 C21 117.0(2)
N2 C6 C5 125.3(2)
N2 C6 C7 109.4(2)
C5 C6 C7 125.1(2)
C8 C7 C6 107.8(2)
C8 C7 H7A 126.1
C6 C7 H7A 126.1
C7 C8 C9 106.8(2)
C7 C8 H8A 126.6
C9 C8 H8A 126.6
C10 C9 N2 125.2(2)
C10 C9 C8 125.3(2)
N2 C9 C8 109.2(2)
C9 C10 C11 124.4(2)
C9 C10 C27 118.5(2)
C11 C10 C27 116.9(2)
N3 C11 C10 126.5(2)
N3 C11 C12 110.7(2)
C10 C11 C12 122.8(2)
C13 C12 C11 107.3(2)
C13 C12 H12A 126.3
C11 C12 H12A 126.3
C12 C13 C14 107.0(2)
C12 C13 H13A 126.5
C14 C13 H13A 126.5
C15 C14 N3 125.0(2)
C15 C14 C13 125.4(2)
N3 C14 C13 109.4(2)
C14 C15 C16 120.0(2)
C14 C15 C33 121.3(2)
C16 C15 C33 118.7(2)
C17 C16 N4 107.5(2)
C17 C16 C15 128.1(2)
N4 C16 C15 123.9(2)
C16 C17 C18 106.3(2)
C16 C17 C48 124.9(2)
C18 C17 C48 125.9(2)
C19 C18 C17 107.7(2)
C19 C18 C20 123.6(2)
C17 C18 C20 128.5(2)
N4 C19 C45' 118.6(3)
N4 C19 C18 109.5(2)
C45' C19 C18 130.4(3)
C1 C20 C18 119.3(2)
C1 C20 C39 121.7(2)
C18 C20 C39 118.9(2)
C22 C21 C26 118.9(2)
C22 C21 C5 121.7(2)
C26 C21 C5 119.4(3)
C21 C22 C23 119.6(3)
C21 C22 H22A 120.2
C23 C22 H22A 120.2
C24 C23 C22 121.2(3)
C24 C23 H23A 119.4
C22 C23 H23A 119.4
C23 C24 C25 119.7(3)
C23 C24 H24A 120.1
C25 C24 H24A 120.1
C24 C25 C26 119.6(3)
C24 C25 H25A 120.2
C26 C25 H25A 120.2
C21 C26 C25 121.0(3)
C21 C26 H26A 119.5
C25 C26 H26A 119.5
C32 C27 C28 118.4(2)
C32 C27 C10 120.1(2)
C28 C27 C10 121.5(2)
C27 C28 C29 120.8(3)
C27 C28 H28A 119.6
C29 C28 H28A 119.6
C30 C29 C28 120.2(3)
C30 C29 H29A 119.9
C28 C29 H29A 119.9
C31 C30 C29 119.3(3)
C31 C30 H30A 120.3
C29 C30 H30A 120.3
C30 C31 C32 120.6(3)
C30 C31 H31A 119.7
C32 C31 H31A 119.7
C27 C32 C31 120.6(3)
C27 C32 H32A 119.7
C31 C32 H32A 119.7
C34 C33 C38 118.2(2)
C34 C33 C15 122.0(2)
C38 C33 C15 119.8(2)
C33 C34 C35 121.0(3)
C33 C34 H34A 119.5
C35 C34 H34A 119.5
C36 C35 C34 120.4(3)
C36 C35 H35A 119.8
C34 C35 H35A 119.8
C35 C36 C37 119.8(3)
C35 C36 H36A 120.1
C37 C36 H36A 120.1
C36 C37 C38 120.4(3)
C36 C37 H37A 119.8
C38 C37 H37A 119.8
C37 C38 C33 120.2(2)
C37 C38 H38A 119.9
C33 C38 H38A 119.9
C44 C39 C40 117.9(2)
C44 C39 C20 123.3(2)
C40 C39 C20 118.7(2)
C41 C40 C39 121.2(3)
C41 C40 H40A 119.4
C39 C40 H40A 119.4
C42 C41 C40 120.0(3)
C42 C41 H41A 120.0
C40 C41 H41A 120.0
C41 C42 C43 120.2(2)
C41 C42 H42A 119.9
C43 C42 H42A 119.9
C42 C43 C44 120.1(3)
C42 C43 H43A 119.9
C44 C43 H43A 119.9
C39 C44 C43 120.5(2)
C39 C44 H44A 119.7
C43 C44 H44A 119.7
C19 C45' C46' 115.5(5)
C19 C45' H45A 108.4
C46' C45' H45A 108.4
C19 C45' H45B 108.4
C46' C45' H45B 108.4
H45A C45' H45B 107.5
C47' C46' C45' 126.3(7)
C47' C46' H46A 116.8
C45' C46' H46A 116.8
C46' C47' H47A 120.0
C46' C47' H47B 120.0
H47A C47' H47B 120.0
N4 C45 C46 118.3(6)
N4 C45 H45C 107.7
C46 C45 H45C 107.7
N4 C45 H45D 107.7
C46 C45 H45D 107.7
H45C C45 H45D 107.1
C47 C46 C45 123.7(8)
C47 C46 H46B 118.1
C45 C46 H46B 118.1
C46 C47 H47C 120.0
C46 C47 H47D 120.0
H47C C47 H47D 120.0
C17 C48 C49 110.89(18)
C17 C48 H48A 109.5
C49 C48 H48A 109.5
C17 C48 H48B 109.5
C49 C48 H48B 109.5
H48A C48 H48B 108.0
C54 C49 C50 118.8(2)
C54 C49 C48 121.6(2)
C50 C49 C48 119.6(2)
C49 C50 C51 121.8(3)
C49 C50 H50A 119.1
C51 C50 H50A 119.1
C52 C51 C50 117.9(3)
C52 C51 C55 121.6(3)
C50 C51 C55 120.4(4)
C51 C52 C53 121.1(3)
C51 C52 H52A 119.4
C53 C52 H52A 119.4
C52 C53 C54 120.1(3)
C52 C53 H53A 120.0
C54 C53 H53A 120.0
C49 C54 C53 120.3(3)
C49 C54 H54A 119.8
C53 C54 H54A 119.8
C51 C55 H55A 109.5
C51 C55 H55B 109.5
H55A C55 H55B 109.5
C51 C55 H55C 109.5
H55A C55 H55C 109.5
H55B C55 H55C 109.5
loop_
_geom_bond_atom_site_label_1
_geom_bond_atom_site_label_2
_geom_bond_distance
Co N2 2.0102(19)
Co N3 2.104(2)
Co N1 2.1097(19)
Co Cl 2.2794(7)
N1 C4 1.362(3)
N1 C1 1.404(3)
N2 C6 1.376(3)
N2 C9 1.383(3)
N3 C11 1.367(3)
N3 C14 1.399(3)
N4 C19 1.329(4)
N4 C16 1.404(4)
N4 C45 1.450(7)
C1 C20 1.384(3)
C1 C2 1.444(3)
C2 C3 1.346(3)
C2 H2A 0.9500
C3 C4 1.450(3)
C3 H3A 0.9500
C4 C5 1.424(3)
C5 C6 1.384(3)
C5 C21 1.496(3)
C6 C7 1.447(3)
C7 C8 1.350(4)
C7 H7A 0.9500
C8 C9 1.458(3)
C8 H8A 0.9500
C9 C10 1.382(4)
C10 C11 1.424(3)
C10 C27 1.503(3)
C11 C12 1.439(4)
C12 C13 1.348(4)
C12 H12A 0.9500
C13 C14 1.450(4)
C13 H13A 0.9500
C14 C15 1.378(3)
C15 C16 1.430(4)
C15 C33 1.487(3)
C16 C17 1.412(3)
C17 C18 1.405(4)
C17 C48 1.510(3)
C18 C19 1.398(3)
C18 C20 1.440(3)
C19 C45' 1.378(7)
C20 C39 1.488(3)
C21 C22 1.387(4)
C21 C26 1.387(4)
C22 C23 1.397(4)
C22 H22A 0.9500
C23 C24 1.373(5)
C23 H23A 0.9500
C24 C25 1.376(5)
C24 H24A 0.9500
C25 C26 1.398(4)
C25 H25A 0.9500
C26 H26A 0.9500
C27 C32 1.391(3)
C27 C28 1.374(4)
C28 C29 1.396(4)
C28 H28A 0.9500
C29 C30 1.379(4)
C29 H29A 0.9500
C30 C31 1.368(4)
C30 H30A 0.9500
C31 C32 1.388(4)
C31 H31A 0.9500
C32 H32A 0.9500
C33 C34 1.389(4)
C33 C38 1.399(4)
C34 C35 1.380(4)
C34 H34A 0.9500
C35 C36 1.373(4)
C35 H35A 0.9500
C36 C37 1.376(4)
C36 H36A 0.9500
C37 C38 1.388(4)
C37 H37A 0.9500
C38 H38A 0.9500
C39 C44 1.393(4)
C39 C40 1.400(3)
C40 C41 1.378(3)
C40 H40A 0.9500
C41 C42 1.374(4)
C41 H41A 0.9500
C42 C43 1.375(4)
C42 H42A 0.9500
C43 C44 1.392(3)
C43 H43A 0.9500
C44 H44A 0.9500
C45' C46' 1.517(8)
C45' H45A 0.9900
C45' H45B 0.9900
C46' C47' 1.252(8)
C46' H46A 0.9500
C47' H47A 0.9500
C47' H47B 0.9500
C45 C46 1.503(11)
C45 H45C 0.9900
C45 H45D 0.9900
C46 C47 1.300(10)
C46 H46B 0.9500
C47 H47C 0.9500
C47 H47D 0.9500
C48 C49 1.507(3)
C48 H48A 0.9900
C48 H48B 0.9900
C49 C54 1.379(4)
C49 C50 1.390(4)
C50 C51 1.392(4)
C50 H50A 0.9500
C51 C52 1.384(5)
C51 C55 1.499(5)
C52 C53 1.377(5)
C52 H52A 0.9500
C53 C54 1.387(4)
C53 H53A 0.9500
C54 H54A 0.9500
C55 H55A 0.9800
C55 H55B 0.9800
C55 H55C 0.9800
loop_
_platon_squeeze_void_nr
_platon_squeeze_void_average_x
_platon_squeeze_void_average_y
_platon_squeeze_void_average_z
_platon_squeeze_void_volume
_platon_squeeze_void_count_electrons
_platon_squeeze_void_content
1 0.000 0.000 -0.002 1899 208 ' '
2 0.500 0.500 0.223 1899 208 ' '
