#------------------------------------------------------------------------------
#$Date: 2017-02-04 16:06:38 +0200 (Sat, 04 Feb 2017) $
#$Revision: 191685 $
#$URL: file:///home/coder/svn-repositories/cod/cif/7/04/12/7041267.cif $
#------------------------------------------------------------------------------
#
# This file is available in the Crystallography Open Database (COD),
# http://www.crystallography.net/
#
# All data on this site have been placed in the public domain by the
# contributors.
#
data_7041267
loop_
_publ_author_name
'Ide, Yuki'
'Murai, Nami'
'Ishimae, Hiroki'
'Suzuki, Masaaki'
'Mori, Shigeki'
'Takahashi, Masashi'
'Nakamura, Mikio'
'Yoshino, Katsumi'
'Ikeue, Takahisa'
_publ_section_title
;
 Spin-crossover between high-spin (S = 5/2) and low-spin (S = 1/2) states
 in six-coordinate iron(iii) porphyrin complexes having two pyridine-N
 oxide derivatives.
;
_journal_issue                   1
_journal_name_full
'Dalton transactions (Cambridge, England : 2003)'
_journal_page_first              242
_journal_page_last               249
_journal_paper_doi               10.1039/c6dt03859j
_journal_volume                  46
_journal_year                    2016
_chemical_formula_moiety         'C70 H72 Fe N8 O2, 2(C7 H8), B F4'
_chemical_formula_sum            'C84 H88 B F4 Fe N8 O2'
_chemical_formula_weight         1384.28
_chemical_name_systematic        FeTMPDMAPNO2BF4
_space_group_crystal_system      triclinic
_space_group_IT_number           2
_space_group_name_Hall           '-P 1'
_space_group_name_H-M_alt        'P -1'
_symmetry_space_group_name_Hall  '-P 1'
_symmetry_space_group_name_H-M   'P -1'
_atom_sites_solution_hydrogens   geom
_atom_sites_solution_primary     direct
_atom_sites_solution_secondary   difmap
_audit_creation_method           SHELXL-2014/7
_audit_update_record
;
2016-06-23 deposited with the CCDC.
2016-11-28 downloaded from the CCDC.
;
_cell_angle_alpha                70.093(8)
_cell_angle_beta                 76.760(9)
_cell_angle_gamma                77.769(9)
_cell_formula_units_Z            2
_cell_length_a                   14.352(2)
_cell_length_b                   15.273(2)
_cell_length_c                   18.230(3)
_cell_measurement_reflns_used    6416
_cell_measurement_temperature    100(2)
_cell_measurement_theta_max      31.16
_cell_measurement_theta_min      1.90
_cell_volume                     3618.0(9)
_computing_cell_refinement       CrystalClear
_computing_data_collection       'CrystalClear (Rigaku Inc., 2008)'
_computing_data_reduction        CrystalClear
_computing_molecular_graphics    'CrystalStructure 4.1.1 (Rigaku, 2015)'
_computing_publication_material  'CrystalStructure 4.1.1'
_computing_structure_refinement  'SHELXL-2014/7 (Sheldrick, 2014)'
_computing_structure_solution    'SIR2011 (Burla, et al., 2012)'
_diffrn_ambient_temperature      100(2)
_diffrn_detector_area_resol_mean 7.111
_diffrn_measured_fraction_theta_full 0.999
_diffrn_measured_fraction_theta_max 0.999
_diffrn_measurement_device_type  'Rigaku Saturn724'
_diffrn_measurement_method       \w
_diffrn_radiation_type           MoK\a
_diffrn_radiation_wavelength     0.71075
_diffrn_reflns_av_R_equivalents  0.0938
_diffrn_reflns_av_unetI/netI     0.1015
_diffrn_reflns_Laue_measured_fraction_full 0.999
_diffrn_reflns_Laue_measured_fraction_max 0.999
_diffrn_reflns_limit_h_max       18
_diffrn_reflns_limit_h_min       -18
_diffrn_reflns_limit_k_max       19
_diffrn_reflns_limit_k_min       -19
_diffrn_reflns_limit_l_max       22
_diffrn_reflns_limit_l_min       -22
_diffrn_reflns_number            56693
_diffrn_reflns_point_group_measured_fraction_full 0.999
_diffrn_reflns_point_group_measured_fraction_max 0.999
_diffrn_reflns_theta_full        25.242
_diffrn_reflns_theta_max         26.499
_diffrn_reflns_theta_min         1.900
_diffrn_source                   'Varimax 50 kV 24 mA Rotating anode'
_exptl_absorpt_coefficient_mu    0.273
_exptl_absorpt_correction_T_max  0.995
_exptl_absorpt_correction_T_min  0.928
_exptl_absorpt_correction_type   multi-scan
_exptl_absorpt_process_details   'REQAB (Rigaku, 1998)'
_exptl_crystal_colour            black
_exptl_crystal_density_diffrn    1.271
_exptl_crystal_density_method    'not measured'
_exptl_crystal_description       block
_exptl_crystal_F_000             1462
_exptl_crystal_size_max          0.200
_exptl_crystal_size_mid          0.050
_exptl_crystal_size_min          0.020
_refine_diff_density_max         0.556
_refine_diff_density_min         -0.457
_refine_diff_density_rms         0.074
_refine_ls_extinction_method     none
_refine_ls_goodness_of_fit_ref   1.141
_refine_ls_hydrogen_treatment    constr
_refine_ls_matrix_type           full
_refine_ls_number_parameters     922
_refine_ls_number_reflns         14974
_refine_ls_number_restraints     0
_refine_ls_restrained_S_all      1.141
_refine_ls_R_factor_all          0.1382
_refine_ls_R_factor_gt           0.0977
_refine_ls_shift/su_max          0.000
_refine_ls_shift/su_mean         0.000
_refine_ls_structure_factor_coef Fsqd
_refine_ls_weighting_details
'w=1/[\s^2^(Fo^2^)+(0.0600P)^2^+3.9000P] where P=(Fo^2^+2Fc^2^)/3'
_refine_ls_weighting_scheme      calc
_refine_ls_wR_factor_gt          0.1846
_refine_ls_wR_factor_ref         0.2062
_reflns_Friedel_coverage         0.000
_reflns_number_gt                10409
_reflns_number_total             14974
_reflns_threshold_expression     'I > 2\s(I)'
_cod_data_source_file            c6dt03859j3.cif
_cod_data_source_block           shelxl
_cod_depositor_comments
'Adding full bibliography for 7041264--7041268.cif.'
_cod_original_cell_volume        3618.0(10)
_cod_database_code               7041267
_shelx_shelxl_version_number     2014/7
_shelx_space_group_comment
;
The symmetry employed for this shelxl refinement is uniquely defined
by the following loop, which should always be used as a source of
symmetry information in preference to the above space-group names.
They are only intended as comments.
;
_shelx_estimated_absorpt_t_min   0.947
_shelx_estimated_absorpt_t_max   0.995
_shelx_res_file
;

    shelxl.res created by SHELXL-2014/7

TITL ProfIkeue
CELL  0.71075 14.35210 15.27320 18.22950 70.09350 76.76020 77.76870
ZERR  2 0.00230 0.00230 0.00270 0.00780 0.00890 0.00860
LATT 1
SFAC C H B F FE N O
UNIT 168 176 2 8 2 16 4
SHEL 99999.000000 0.796448
L.S. 10
FMAP 2
PLAN 5
WPDB -2
HTAB
BOND $H
CONF
LIST 4
TEMP -173.0
ACTA
SIZE 0.200 0.050 0.020
WGHT    0.060000    3.900000
FVAR       0.73610
FE1   5    0.000000    0.500000    0.000000    10.50000    0.02246    0.02475 =
         0.02009   -0.00292   -0.00551   -0.00512
FE2   5    0.500000    1.000000    0.500000    10.50000    0.02194    0.02156 =
         0.02335   -0.00229   -0.00264   -0.00384
F1    4    0.523126    0.757514    0.003018    11.00000    0.09478    0.05544 =
         0.09316   -0.01521   -0.02933   -0.00284
F2    4    0.520974    0.810627   -0.127470    11.00000    0.13894    0.05700 =
         0.07932   -0.02661    0.04505   -0.02752
F3    4    0.391255    0.752186   -0.042521    11.00000    0.09560    0.08266 =
         0.09239   -0.03583    0.01003   -0.04932
F4    4    0.425563    0.892094   -0.047673    11.00000    0.06255    0.04685 =
         0.05198   -0.01409   -0.00503   -0.00803
O1    7    0.126158    0.525701   -0.053991    11.00000    0.02475    0.03873 =
         0.02130   -0.00419   -0.00956   -0.00767
O2    7    0.584031    0.952265    0.420638    11.00000    0.02380    0.03385 =
         0.02713   -0.01006   -0.00475   -0.00318
N1    6    0.049349    0.385828    0.081993    11.00000    0.02462    0.02054 =
         0.02208   -0.00440   -0.00479   -0.00509
N2    6   -0.007437    0.576377    0.071843    11.00000    0.02396    0.02660 =
         0.02246   -0.00296   -0.00689   -0.00620
N3    6    0.195603    0.515957   -0.010243    11.00000    0.02395    0.02933 =
         0.02077   -0.00385   -0.00794   -0.00571
N4    6    0.418171    0.492419    0.106136    11.00000    0.02990    0.05056 =
         0.03580   -0.00938   -0.01161   -0.01192
N5    6    0.606583    1.070424    0.488634    11.00000    0.02464    0.02162 =
         0.02349   -0.00181   -0.00535   -0.00244
N6    6    0.437439    1.107788    0.418737    11.00000    0.02081    0.02429 =
         0.02338   -0.00186   -0.00399   -0.00627
N7    6    0.549362    0.931753    0.365915    11.00000    0.02550    0.02884 =
         0.02552   -0.00830   -0.00264   -0.00482
N8    6    0.479999    0.856920    0.188940    11.00000    0.03791    0.04193 =
         0.03880   -0.01797   -0.00688   -0.00580
C1    1    0.074895    0.296052    0.076429    11.00000    0.02520    0.02416 =
         0.02196   -0.00320   -0.00768   -0.00558
C2    1    0.105697    0.231750    0.148218    11.00000    0.03509    0.02227 =
         0.02392   -0.00091   -0.00875   -0.00385
AFIX  43
H2    2    0.129217    0.166483    0.158289    11.00000   -1.20000
AFIX   0
C3    1    0.094579    0.282402    0.198258    11.00000    0.03307    0.02670 =
         0.02408   -0.00181   -0.00996   -0.00567
AFIX  43
H3    2    0.107727    0.259110    0.250819    11.00000   -1.20000
AFIX   0
C4    1    0.059409    0.377494    0.157746    11.00000    0.02458    0.02481 =
         0.01813   -0.00039   -0.00689   -0.00460
C5    1    0.037746    0.450752    0.191248    11.00000    0.01992    0.02969 =
         0.02145   -0.00297   -0.00262   -0.00832
C6    1    0.009734    0.544484    0.148606    11.00000    0.02585    0.02778 =
         0.02092   -0.00101   -0.00820   -0.00613
C7    1   -0.007012    0.621446    0.180343    11.00000    0.03110    0.02811 =
         0.02428   -0.00475   -0.00853   -0.00451
AFIX  43
H7    2   -0.000938    0.617935    0.232117    11.00000   -1.20000
AFIX   0
C8    1   -0.033104    0.699923    0.122329    11.00000    0.03080    0.02920 =
         0.02877   -0.00933   -0.00678   -0.00355
AFIX  43
H8    2   -0.046896    0.762437    0.125179    11.00000   -1.20000
AFIX   0
C9    1   -0.036175    0.671846    0.056030    11.00000    0.02318    0.02630 =
         0.02087   -0.00534   -0.00218   -0.00445
C10   1   -0.068257    0.732692   -0.012712    11.00000    0.02431    0.02470 =
         0.02312   -0.00395   -0.00445   -0.00257
C11   1    0.039308    0.427532    0.278087    11.00000    0.02745    0.02422 =
         0.01873   -0.00339   -0.00825   -0.00260
C12   1    0.122813    0.426487    0.305641    11.00000    0.02665    0.02347 =
         0.02085   -0.00512   -0.00460   -0.00479
C13   1    0.118625    0.410401    0.386166    11.00000    0.02599    0.02829 =
         0.02644   -0.00530   -0.00618   -0.00297
AFIX  43
H13   2    0.175252    0.410832    0.404607    11.00000   -1.20000
AFIX   0
C14   1    0.033516    0.393688    0.440392    11.00000    0.03402    0.02522 =
         0.02333   -0.00858   -0.00578   -0.00197
C15   1   -0.047878    0.391495    0.412551    11.00000    0.03025    0.02684 =
         0.02918   -0.00411   -0.00310   -0.00320
AFIX  43
H15   2   -0.106035    0.378861    0.449014    11.00000   -1.20000
AFIX   0
C16   1   -0.046419    0.407428    0.332122    11.00000    0.02836    0.03080 =
         0.02495   -0.00522   -0.00398   -0.00802
C17   1    0.215626    0.444360    0.248446    11.00000    0.02989    0.04045 =
         0.02753   -0.00674   -0.00711   -0.00638
AFIX 137
H17A  2    0.206639    0.507535    0.210456    11.00000   -1.20000
H17B  2    0.233809    0.397493    0.220023    11.00000   -1.20000
H17C  2    0.266933    0.439702    0.277573    11.00000   -1.20000
AFIX   0
C18   1    0.028819    0.378835    0.527655    11.00000    0.04042    0.04104 =
         0.02426   -0.01035   -0.00714   -0.00130
AFIX 137
H18A  2    0.070009    0.418700    0.533702    11.00000   -1.20000
H18B  2    0.051542    0.312627    0.553943    11.00000   -1.20000
H18C  2   -0.038129    0.395576    0.551731    11.00000   -1.20000
AFIX   0
C19   1   -0.135688    0.401991    0.304513    11.00000    0.03402    0.05817 =
         0.03160   -0.00764   -0.00782   -0.01649
AFIX 137
H19A  2   -0.190850    0.398614    0.348025    11.00000   -1.20000
H19B  2   -0.125166    0.345693    0.287648    11.00000   -1.20000
H19C  2   -0.149105    0.458131    0.259910    11.00000   -1.20000
AFIX   0
C20   1   -0.098826    0.835745   -0.021422    11.00000    0.03094    0.02417 =
         0.01959   -0.00299   -0.00715   -0.00444
C21   1   -0.031528    0.898804   -0.059873    11.00000    0.03448    0.02733 =
         0.02395   -0.00151   -0.00463   -0.01024
C22   1   -0.062927    0.995480   -0.073545    11.00000    0.04073    0.02794 =
         0.03079   -0.00581   -0.00772   -0.01186
AFIX  43
H22   2   -0.017364    1.038074   -0.099190    11.00000   -1.20000
AFIX   0
C23   1   -0.158289    1.030773   -0.050821    11.00000    0.04395    0.02420 =
         0.03554   -0.00708   -0.00635   -0.00578
C24   1   -0.223010    0.967223   -0.010479    11.00000    0.03664    0.02920 =
         0.03433   -0.00779   -0.00600   -0.00286
AFIX  43
H24   2   -0.288121    0.990290    0.007366    11.00000   -1.20000
AFIX   0
C25   1   -0.194907    0.870308    0.004547    11.00000    0.03606    0.02547 =
         0.03041   -0.00287   -0.00356   -0.00562
C26   1    0.072392    0.864535   -0.087397    11.00000    0.03608    0.03524 =
         0.04760   -0.00909   -0.00519   -0.01072
AFIX 137
H26A  2    0.075740    0.829685   -0.124431    11.00000   -1.20000
H26B  2    0.101726    0.823069   -0.041711    11.00000   -1.20000
H26C  2    0.107523    0.918489   -0.114010    11.00000   -1.20000
AFIX   0
C27   1   -0.192856    1.135885   -0.069853    11.00000    0.05405    0.02413 =
         0.04694   -0.00284   -0.00865   -0.00638
AFIX 137
H27A  2   -0.226011    1.157479   -0.115658    11.00000   -1.20000
H27B  2   -0.137190    1.169201   -0.082064    11.00000   -1.20000
H27C  2   -0.237674    1.148810   -0.024121    11.00000   -1.20000
AFIX   0
C28   1   -0.269310    0.804854    0.046669    11.00000    0.03464    0.02705 =
         0.06161   -0.00909    0.00097   -0.00412
AFIX 137
H28A  2   -0.300024    0.795536    0.007626    11.00000   -1.20000
H28B  2   -0.318569    0.832487    0.082760    11.00000   -1.20000
H28C  2   -0.237592    0.744087    0.076940    11.00000   -1.20000
AFIX   0
C29   1    0.254378    0.433441    0.009924    11.00000    0.02694    0.02942 =
         0.02623   -0.00853   -0.00119   -0.00801
AFIX  43
H29   2    0.243310    0.381179   -0.002269    11.00000   -1.20000
AFIX   0
C30   1    0.330102    0.423596    0.047854    11.00000    0.02720    0.02784 =
         0.02494   -0.00529   -0.00165   -0.00488
AFIX  43
H30   2    0.371789    0.365309    0.060958    11.00000   -1.20000
AFIX   0
C31   1    0.345487    0.500766    0.067205    11.00000    0.02619    0.03968 =
         0.02450   -0.00557   -0.00428   -0.01302
C32   1    0.282379    0.586625    0.044329    11.00000    0.03226    0.03270 =
         0.03244   -0.00911   -0.00367   -0.01310
AFIX  43
H32   2    0.290987    0.640481    0.055528    11.00000   -1.20000
AFIX   0
C33   1    0.209696    0.591314    0.006375    11.00000    0.02522    0.02968 =
         0.02821   -0.00565   -0.00061   -0.00704
AFIX  43
H33   2    0.167674    0.649016   -0.008892    11.00000   -1.20000
AFIX   0
C34   1    0.488997    0.407800    0.119438    11.00000    0.03561    0.06762 =
         0.04647   -0.00270   -0.02194   -0.00374
AFIX 137
H34A  2    0.523543    0.400492    0.068384    11.00000   -1.20000
H34B  2    0.456057    0.353021    0.149480    11.00000   -1.20000
H34C  2    0.535229    0.412735    0.149434    11.00000   -1.20000
AFIX   0
C35   1    0.430483    0.567897    0.132625    11.00000    0.04958    0.06948 =
         0.03940   -0.01409   -0.01172   -0.02944
AFIX 137
H35A  2    0.366876    0.600843    0.149198    11.00000   -1.20000
H35B  2    0.467362    0.612224    0.089182    11.00000   -1.20000
H35C  2    0.465540    0.541694    0.177417    11.00000   -1.20000
AFIX   0
C36   1    0.687345    1.041012    0.524671    11.00000    0.02320    0.02971 =
         0.02188   -0.00197   -0.00323   -0.00135
C37   1    0.749414    1.111459    0.495379    11.00000    0.02653    0.02846 =
         0.02640   -0.00377   -0.00361   -0.00829
AFIX  43
H37   2    0.808805    1.108034    0.511584    11.00000   -1.20000
AFIX   0
C38   1    0.708288    1.183529    0.440633    11.00000    0.02963    0.02648 =
         0.02714   -0.00178   -0.00189   -0.01228
AFIX  43
H38   2    0.733022    1.240637    0.410766    11.00000   -1.20000
AFIX   0
C39   1    0.619691    1.157764    0.435852    11.00000    0.02153    0.02239 =
         0.02304   -0.00248   -0.00103   -0.00497
C40   1    0.557165    1.215899    0.384220    11.00000    0.02533    0.02571 =
         0.02335   -0.00484    0.00138   -0.00643
C41   1    0.472037    1.191682    0.377683    11.00000    0.02499    0.02324 =
         0.03078   -0.00462   -0.00594   -0.00251
C42   1    0.405684    1.252573    0.327429    11.00000    0.02122    0.02383 =
         0.03690    0.00499   -0.00894   -0.00120
AFIX  43
H42   2    0.412581    1.314627    0.293562    11.00000   -1.20000
AFIX   0
C43   1    0.332159    1.206159    0.336846    11.00000    0.02832    0.03127 =
         0.03179    0.00486   -0.01194   -0.00532
AFIX  43
H43   2    0.277521    1.229017    0.310873    11.00000   -1.20000
AFIX   0
C44   1    0.351556    1.115355    0.393607    11.00000    0.02316    0.02653 =
         0.02386   -0.00319   -0.00380   -0.00180
C45   1    0.291576    1.046395    0.419349    11.00000    0.02281    0.02696 =
         0.02544   -0.00595   -0.00455   -0.00625
C46   1    0.586453    1.309595    0.332368    11.00000    0.02094    0.02356 =
         0.02606    0.00204   -0.00462   -0.00856
C47   1    0.649351    1.315562    0.260051    11.00000    0.01874    0.02918 =
         0.02627   -0.00114   -0.00758   -0.00302
C48   1    0.679783    1.402502    0.214784    11.00000    0.02719    0.03672 =
         0.02245    0.00098   -0.00724   -0.01334
AFIX  43
H48   2    0.723091    1.406592    0.166153    11.00000   -1.20000
AFIX   0
C49   1    0.648979    1.482615    0.238417    11.00000    0.02431    0.02898 =
         0.03052    0.00116   -0.00887   -0.00914
C50   1    0.587483    1.474875    0.309894    11.00000    0.03595    0.02187 =
         0.03733   -0.00431   -0.00262   -0.00594
AFIX  43
H50   2    0.565440    1.528984    0.327142    11.00000   -1.20000
AFIX   0
C51   1    0.557035    1.389637    0.357263    11.00000    0.03189    0.02752 =
         0.03156   -0.00036    0.00231   -0.00343
C52   1    0.683036    1.231609    0.229972    11.00000    0.03553    0.03901 =
         0.02905   -0.00514   -0.00194   -0.01115
AFIX 137
H52A  2    0.702863    1.176287    0.273059    11.00000   -1.20000
H52B  2    0.738059    1.244365    0.186631    11.00000   -1.20000
H52C  2    0.630081    1.219604    0.210676    11.00000   -1.20000
AFIX   0
C53   1    0.681829    1.574734    0.187067    11.00000    0.03903    0.02972 =
         0.03655    0.00211   -0.00774   -0.01123
AFIX 137
H53A  2    0.643240    1.603861    0.144637    11.00000   -1.20000
H53B  2    0.750278    1.563618    0.163898    11.00000   -1.20000
H53C  2    0.673382    1.616771    0.219191    11.00000   -1.20000
AFIX   0
C54   1    0.492824    1.383994    0.437337    11.00000    0.07329    0.02770 =
         0.04942   -0.00981    0.02181   -0.01131
AFIX 137
H54A  2    0.472996    1.447353    0.442581    11.00000   -1.20000
H54B  2    0.528836    1.344428    0.479660    11.00000   -1.20000
H54C  2    0.435318    1.356570    0.441297    11.00000   -1.20000
AFIX   0
C55   1    0.197820    1.063606    0.388757    11.00000    0.02503    0.02012 =
         0.02408   -0.00077   -0.00754   -0.00406
C56   1    0.195170    1.032272    0.325495    11.00000    0.03135    0.02274 =
         0.02637    0.00040   -0.00518   -0.00267
C57   1    0.105678    1.039616    0.303808    11.00000    0.03834    0.02490 =
         0.02671   -0.00366   -0.00847   -0.00915
AFIX  43
H57   2    0.103523    1.016183    0.262267    11.00000   -1.20000
AFIX   0
C58   1    0.020432    1.079660    0.340568    11.00000    0.02480    0.03304 =
         0.02771    0.00208   -0.00639   -0.00866
C59   1    0.025449    1.112791    0.401133    11.00000    0.02503    0.03104 =
         0.03219   -0.00440   -0.00258   -0.00305
AFIX  43
H59   2   -0.032079    1.142524    0.425949    11.00000   -1.20000
AFIX   0
C60   1    0.111829    1.104009    0.426847    11.00000    0.02552    0.02685 =
         0.02447   -0.00350   -0.00348   -0.00491
C61   1    0.284621    0.990784    0.281435    11.00000    0.03767    0.04367 =
         0.03463   -0.01436   -0.00912   -0.00259
AFIX 137
H61A  2    0.317291    0.936693    0.318534    11.00000   -1.20000
H61B  2    0.328018    1.038229    0.255250    11.00000   -1.20000
H61C  2    0.267331    0.970168    0.241568    11.00000   -1.20000
AFIX   0
C62   1   -0.074068    1.089847    0.312844    11.00000    0.02994    0.05962 =
         0.04418   -0.01358   -0.01054   -0.00605
AFIX 137
H62A  2   -0.067852    1.046046    0.282687    11.00000   -1.20000
H62B  2   -0.089770    1.154499    0.279050    11.00000   -1.20000
H62C  2   -0.125779    1.075593    0.358841    11.00000   -1.20000
AFIX   0
C63   1    0.112025    1.138385    0.495412    11.00000    0.03479    0.03472 =
         0.03558   -0.01093   -0.00769   -0.00431
AFIX 137
H63A  2    0.045219    1.156163    0.519190    11.00000   -1.20000
H63B  2    0.146255    1.193183    0.476270    11.00000   -1.20000
H63C  2    0.144729    1.088086    0.535206    11.00000   -1.20000
AFIX   0
C64   1    0.551944    0.992841    0.291895    11.00000    0.02922    0.02939 =
         0.02444   -0.00526    0.00012   -0.00847
AFIX  43
H64   2    0.569432    1.053176    0.281055    11.00000   -1.20000
AFIX   0
C65   1    0.530070    0.969915    0.232538    11.00000    0.03362    0.03469 =
         0.02586   -0.00686   -0.00343   -0.00634
AFIX  43
H65   2    0.532801    1.014149    0.181011    11.00000   -1.20000
AFIX   0
C66   1    0.503329    0.880894    0.246863    11.00000    0.02615    0.03644 =
         0.03369   -0.01432   -0.00498   -0.00191
C67   1    0.501378    0.818927    0.325140    11.00000    0.02667    0.03215 =
         0.03895   -0.01009   -0.00224   -0.00620
AFIX  43
H67   2    0.483561    0.758281    0.338164    11.00000   -1.20000
AFIX   0
C68   1    0.524738    0.845502    0.381597    11.00000    0.02255    0.02551 =
         0.02844   -0.00353   -0.00323    0.00048
AFIX  43
H68   2    0.523828    0.802527    0.433547    11.00000   -1.20000
AFIX   0
C69   1    0.470239    0.926809    0.111570    11.00000    0.05269    0.06446 =
         0.03874   -0.01968   -0.01174   -0.00468
AFIX 137
H69A  2    0.530244    0.954239    0.088718    11.00000   -1.20000
H69B  2    0.416381    0.976605    0.118085    11.00000   -1.20000
H69C  2    0.457570    0.896291    0.076197    11.00000   -1.20000
AFIX   0
C70   1    0.445218    0.768028    0.206132    11.00000    0.06203    0.05592 =
         0.05309   -0.02671   -0.01130   -0.01752
AFIX 137
H70A  2    0.382115    0.768278    0.240976    11.00000   -1.20000
H70B  2    0.491383    0.716152    0.232387    11.00000   -1.20000
H70C  2    0.438729    0.759773    0.156614    11.00000   -1.20000
AFIX   0
C71   1    0.154889    0.739693    0.321006    11.00000    0.05517    0.04393 =
         0.04405   -0.01711    0.00625   -0.02108
C72   1    0.202128    0.656807    0.305095    11.00000    0.06271    0.05534 =
         0.05499   -0.02793    0.00306   -0.01840
AFIX  43
H72   2    0.181784    0.637058    0.267923    11.00000   -1.20000
AFIX   0
C73   1    0.278877    0.602332    0.342916    11.00000    0.06627    0.04164 =
         0.07839   -0.02993   -0.00174   -0.01136
AFIX  43
H73   2    0.310336    0.546063    0.331334    11.00000   -1.20000
AFIX   0
C74   1    0.308802    0.629927    0.396632    11.00000    0.05658    0.04723 =
         0.06358   -0.02066   -0.00517   -0.00794
AFIX  43
H74   2    0.360536    0.592754    0.422927    11.00000   -1.20000
AFIX   0
C75   1    0.262844    0.712677    0.412275    11.00000    0.07140    0.05465 =
         0.04441   -0.02184   -0.00412   -0.02001
AFIX  43
H75   2    0.283865    0.732784    0.448909    11.00000   -1.20000
AFIX   0
C76   1    0.187223    0.765767    0.375248    11.00000    0.05879    0.04150 =
         0.04341   -0.01405    0.00184   -0.01456
AFIX  43
H76   2    0.156271    0.821938    0.387214    11.00000   -1.20000
AFIX   0
C77   1    0.069747    0.795737    0.282085    11.00000    0.08137    0.06160 =
         0.04890   -0.00987   -0.00781   -0.01784
AFIX 137
H77A  2    0.044992    0.756520    0.260264    11.00000   -1.20000
H77B  2    0.090174    0.851106    0.239311    11.00000   -1.20000
H77C  2    0.018690    0.816042    0.321363    11.00000   -1.20000
AFIX   0
C78   1   -0.221478    0.807170    0.298178    11.00000    0.03031    0.05910 =
         0.06620   -0.02971   -0.00447   -0.00436
C79   1   -0.225387    0.724559    0.285774    11.00000    0.04621    0.06610 =
         0.05798   -0.02746    0.00612   -0.01724
AFIX  43
H79   2   -0.213373    0.721036    0.233322    11.00000   -1.20000
AFIX   0
C80   1   -0.246831    0.645892    0.349502    11.00000    0.04976    0.05386 =
         0.06232   -0.02691    0.00024   -0.01612
AFIX  43
H80   2   -0.247408    0.588284    0.340539    11.00000   -1.20000
AFIX   0
C81   1   -0.267171    0.651090    0.425308    11.00000    0.03171    0.06116 =
         0.06057   -0.01600   -0.01098   -0.00133
AFIX  43
H81   2   -0.283138    0.597750    0.468898    11.00000   -1.20000
AFIX   0
C82   1   -0.264142    0.735316    0.437580    11.00000    0.03230    0.06961 =
         0.05881   -0.03602   -0.01107    0.00225
AFIX  43
H82   2   -0.278470    0.740072    0.489731    11.00000   -1.20000
AFIX   0
C83   1   -0.240190    0.812177    0.373585    11.00000    0.02918    0.04760 =
         0.05907   -0.02260   -0.00966   -0.00546
AFIX  43
H83   2   -0.236716    0.869236    0.382241    11.00000   -1.20000
AFIX   0
C84   1   -0.194954    0.892427    0.227785    11.00000    0.03832    0.06712 =
         0.08122   -0.01493    0.00176   -0.00925
AFIX 137
H84A  2   -0.124535    0.885929    0.211271    11.00000   -1.20000
H84B  2   -0.217803    0.949873    0.243218    11.00000   -1.20000
H84C  2   -0.225517    0.896149    0.183727    11.00000   -1.20000
AFIX   0
B1    3    0.464293    0.803256   -0.054820    11.00000    0.07583    0.03462 =
         0.03531   -0.00552    0.00341   -0.01791
HKLF 4

REM  ProfIkeue
REM R1 =  0.0977 for   10409 Fo > 4sig(Fo)  and  0.1382 for all   14974 data
REM    922 parameters refined using      0 restraints

END

WGHT      0.0600      3.9002

REM Instructions for potential hydrogen bonds
EQIV $1 -x+1, -y+1, -z
HTAB C30 F1_$1
HTAB C32 F3
HTAB C34 F3_$1
HTAB C34 F2_$1
HTAB C35 F1
EQIV $2 -x+1, -y+2, -z
HTAB C65 F2_$2
HTAB C65 F4_$2
HTAB C69 F4_$2
HTAB C69 F4

REM Highest difference peak  0.556,  deepest hole -0.457,  1-sigma level  0.074
Q1    1   0.4330  0.7513  0.0281  11.00000  0.05    0.56
Q2    1   0.3974  0.8256 -0.1007  11.00000  0.05    0.49
Q3    1  -0.2136  0.9086  0.3237  11.00000  0.05    0.37
Q4    1   0.5583  0.7989 -0.0614  11.00000  0.05    0.37
Q5    1   0.4596  0.7036 -0.0675  11.00000  0.05    0.33
;
_shelx_res_checksum              85337
loop_
_space_group_symop_operation_xyz
'x, y, z'
'-x, -y, -z'
loop_
_atom_site_label
_atom_site_type_symbol
_atom_site_fract_x
_atom_site_fract_y
_atom_site_fract_z
_atom_site_U_iso_or_equiv
_atom_site_adp_type
_atom_site_occupancy
_atom_site_site_symmetry_order
_atom_site_calc_flag
_atom_site_refinement_flags_posn
_atom_site_refinement_flags_adp
_atom_site_refinement_flags_occupancy
Fe1 Fe 0.0000 0.5000 0.0000 0.0229(2) Uani 1 2 d S . P
Fe2 Fe 0.5000 1.0000 0.5000 0.0236(2) Uani 1 2 d S . P
F1 F 0.5231(3) 0.7575(2) 0.0030(2) 0.0821(11) Uani 1 1 d . . .
F2 F 0.5210(3) 0.8106(3) -0.1275(2) 0.0991(14) Uani 1 1 d . . .
F3 F 0.3913(3) 0.7522(3) -0.0425(2) 0.0866(12) Uani 1 1 d . . .
F4 F 0.4256(2) 0.8921(2) -0.04767(17) 0.0549(8) Uani 1 1 d . . .
O1 O 0.12616(19) 0.5257(2) -0.05399(15) 0.0281(7) Uani 1 1 d . . .
O2 O 0.58403(19) 0.9523(2) 0.42064(16) 0.0282(7) Uani 1 1 d . . .
N1 N 0.0493(2) 0.3858(2) 0.08199(18) 0.0226(7) Uani 1 1 d . . .
N2 N -0.0074(2) 0.5764(2) 0.07184(19) 0.0246(8) Uani 1 1 d . . .
N3 N 0.1956(2) 0.5160(2) -0.01024(19) 0.0247(8) Uani 1 1 d . . .
N4 N 0.4182(3) 0.4924(3) 0.1061(2) 0.0378(9) Uani 1 1 d . . .
N5 N 0.6066(2) 1.0704(2) 0.48863(19) 0.0245(8) Uani 1 1 d . . .
N6 N 0.4374(2) 1.1078(2) 0.41874(19) 0.0238(7) Uani 1 1 d . . .
N7 N 0.5494(2) 0.9318(2) 0.3659(2) 0.0268(8) Uani 1 1 d . . .
N8 N 0.4800(3) 0.8569(3) 0.1889(2) 0.0380(9) Uani 1 1 d . . .
C1 C 0.0749(3) 0.2961(3) 0.0764(2) 0.0239(9) Uani 1 1 d . . .
C2 C 0.1057(3) 0.2317(3) 0.1482(2) 0.0281(9) Uani 1 1 d . . .
H2 H 0.1292 0.1665 0.1583 0.034 Uiso 1 1 calc R U .
C3 C 0.0946(3) 0.2824(3) 0.1983(2) 0.0285(9) Uani 1 1 d . . .
H3 H 0.1077 0.2591 0.2508 0.034 Uiso 1 1 calc R U .
C4 C 0.0594(3) 0.3775(3) 0.1577(2) 0.0234(9) Uani 1 1 d . . .
C5 C 0.0377(3) 0.4508(3) 0.1912(2) 0.0244(9) Uani 1 1 d . . .
C6 C 0.0097(3) 0.5445(3) 0.1486(2) 0.0255(9) Uani 1 1 d . . .
C7 C -0.0070(3) 0.6214(3) 0.1803(2) 0.0280(9) Uani 1 1 d . . .
H7 H -0.0009 0.6179 0.2321 0.034 Uiso 1 1 calc R U .
C8 C -0.0331(3) 0.6999(3) 0.1223(2) 0.0293(10) Uani 1 1 d . . .
H8 H -0.0469 0.7624 0.1252 0.035 Uiso 1 1 calc R U .
C9 C -0.0362(3) 0.6718(3) 0.0560(2) 0.0241(9) Uani 1 1 d . . .
C10 C -0.0683(3) 0.7327(3) -0.0127(2) 0.0250(9) Uani 1 1 d . . .
C11 C 0.0393(3) 0.4275(3) 0.2781(2) 0.0238(9) Uani 1 1 d . . .
C12 C 0.1228(3) 0.4265(3) 0.3056(2) 0.0238(9) Uani 1 1 d . . .
C13 C 0.1186(3) 0.4104(3) 0.3862(2) 0.0276(9) Uani 1 1 d . . .
H13 H 0.1753 0.4108 0.4046 0.033 Uiso 1 1 calc R U .
C14 C 0.0335(3) 0.3937(3) 0.4404(2) 0.0274(9) Uani 1 1 d . . .
C15 C -0.0479(3) 0.3915(3) 0.4126(2) 0.0304(10) Uani 1 1 d . . .
H15 H -0.1060 0.3789 0.4490 0.037 Uiso 1 1 calc R U .
C16 C -0.0464(3) 0.4074(3) 0.3321(2) 0.0284(9) Uani 1 1 d . . .
C17 C 0.2156(3) 0.4444(3) 0.2484(2) 0.0330(10) Uani 1 1 d . . .
H17A H 0.2066 0.5075 0.2105 0.040 Uiso 1 1 calc R U .
H17B H 0.2338 0.3975 0.2200 0.040 Uiso 1 1 calc R U .
H17C H 0.2669 0.4397 0.2776 0.040 Uiso 1 1 calc R U .
C18 C 0.0288(3) 0.3788(3) 0.5277(2) 0.0356(11) Uani 1 1 d . . .
H18A H 0.0700 0.4187 0.5337 0.043 Uiso 1 1 calc R U .
H18B H 0.0515 0.3126 0.5539 0.043 Uiso 1 1 calc R U .
H18C H -0.0381 0.3956 0.5517 0.043 Uiso 1 1 calc R U .
C19 C -0.1357(3) 0.4020(4) 0.3045(3) 0.0410(12) Uani 1 1 d . . .
H19A H -0.1908 0.3986 0.3480 0.049 Uiso 1 1 calc R U .
H19B H -0.1252 0.3457 0.2876 0.049 Uiso 1 1 calc R U .
H19C H -0.1491 0.4581 0.2599 0.049 Uiso 1 1 calc R U .
C20 C -0.0988(3) 0.8357(3) -0.0214(2) 0.0253(9) Uani 1 1 d . . .
C21 C -0.0315(3) 0.8988(3) -0.0599(2) 0.0294(10) Uani 1 1 d . . .
C22 C -0.0629(3) 0.9955(3) -0.0735(3) 0.0326(10) Uani 1 1 d . . .
H22 H -0.0174 1.0381 -0.0992 0.039 Uiso 1 1 calc R U .
C23 C -0.1583(3) 1.0308(3) -0.0508(3) 0.0351(11) Uani 1 1 d . . .
C24 C -0.2230(3) 0.9672(3) -0.0105(3) 0.0342(10) Uani 1 1 d . . .
H24 H -0.2881 0.9903 0.0074 0.041 Uiso 1 1 calc R U .
C25 C -0.1949(3) 0.8703(3) 0.0045(3) 0.0323(10) Uani 1 1 d . . .
C26 C 0.0724(3) 0.8645(3) -0.0874(3) 0.0401(12) Uani 1 1 d . . .
H26A H 0.0757 0.8297 -0.1244 0.048 Uiso 1 1 calc R U .
H26B H 0.1017 0.8231 -0.0417 0.048 Uiso 1 1 calc R U .
H26C H 0.1075 0.9185 -0.1140 0.048 Uiso 1 1 calc R U .
C27 C -0.1929(4) 1.1359(3) -0.0699(3) 0.0437(12) Uani 1 1 d . . .
H27A H -0.2260 1.1575 -0.1157 0.052 Uiso 1 1 calc R U .
H27B H -0.1372 1.1692 -0.0821 0.052 Uiso 1 1 calc R U .
H27C H -0.2377 1.1488 -0.0241 0.052 Uiso 1 1 calc R U .
C28 C -0.2693(3) 0.8049(3) 0.0467(3) 0.0439(12) Uani 1 1 d . . .
H28A H -0.3000 0.7955 0.0076 0.053 Uiso 1 1 calc R U .
H28B H -0.3186 0.8325 0.0828 0.053 Uiso 1 1 calc R U .
H28C H -0.2376 0.7441 0.0769 0.053 Uiso 1 1 calc R U .
C29 C 0.2544(3) 0.4334(3) 0.0099(2) 0.0275(9) Uani 1 1 d . . .
H29 H 0.2433 0.3812 -0.0023 0.033 Uiso 1 1 calc R U .
C30 C 0.3301(3) 0.4236(3) 0.0479(2) 0.0277(9) Uani 1 1 d . . .
H30 H 0.3718 0.3653 0.0610 0.033 Uiso 1 1 calc R U .
C31 C 0.3455(3) 0.5008(3) 0.0672(2) 0.0300(10) Uani 1 1 d . . .
C32 C 0.2824(3) 0.5866(3) 0.0443(3) 0.0317(10) Uani 1 1 d . . .
H32 H 0.2910 0.6405 0.0555 0.038 Uiso 1 1 calc R U .
C33 C 0.2097(3) 0.5913(3) 0.0064(2) 0.0288(10) Uani 1 1 d . . .
H33 H 0.1677 0.6490 -0.0089 0.035 Uiso 1 1 calc R U .
C34 C 0.4890(4) 0.4078(4) 0.1194(3) 0.0518(14) Uani 1 1 d . . .
H34A H 0.5235 0.4005 0.0684 0.062 Uiso 1 1 calc R U .
H34B H 0.4561 0.3530 0.1495 0.062 Uiso 1 1 calc R U .
H34C H 0.5352 0.4127 0.1494 0.062 Uiso 1 1 calc R U .
C35 C 0.4305(4) 0.5679(4) 0.1326(3) 0.0495(14) Uani 1 1 d . . .
H35A H 0.3669 0.6008 0.1492 0.059 Uiso 1 1 calc R U .
H35B H 0.4674 0.6122 0.0892 0.059 Uiso 1 1 calc R U .
H35C H 0.4655 0.5417 0.1774 0.059 Uiso 1 1 calc R U .
C36 C 0.6873(3) 1.0410(3) 0.5247(2) 0.0270(9) Uani 1 1 d . . .
C37 C 0.7494(3) 1.1115(3) 0.4954(2) 0.0278(9) Uani 1 1 d . . .
H37 H 0.8088 1.1080 0.5116 0.033 Uiso 1 1 calc R U .
C38 C 0.7083(3) 1.1835(3) 0.4406(2) 0.0287(10) Uani 1 1 d . . .
H38 H 0.7330 1.2406 0.4108 0.034 Uiso 1 1 calc R U .
C39 C 0.6197(3) 1.1578(3) 0.4359(2) 0.0237(9) Uani 1 1 d . . .
C40 C 0.5572(3) 1.2159(3) 0.3842(2) 0.0260(9) Uani 1 1 d . . .
C41 C 0.4720(3) 1.1917(3) 0.3777(2) 0.0273(9) Uani 1 1 d . . .
C42 C 0.4057(3) 1.2526(3) 0.3274(3) 0.0307(10) Uani 1 1 d . . .
H42 H 0.4126 1.3146 0.2936 0.037 Uiso 1 1 calc R U .
C43 C 0.3322(3) 1.2062(3) 0.3368(3) 0.0330(10) Uani 1 1 d . . .
H43 H 0.2775 1.2290 0.3109 0.040 Uiso 1 1 calc R U .
C44 C 0.3516(3) 1.1154(3) 0.3936(2) 0.0260(9) Uani 1 1 d . . .
C45 C 0.2916(3) 1.0464(3) 0.4193(2) 0.0251(9) Uani 1 1 d . . .
C46 C 0.5865(3) 1.3096(3) 0.3324(2) 0.0251(9) Uani 1 1 d . . .
C47 C 0.6494(3) 1.3156(3) 0.2601(2) 0.0261(9) Uani 1 1 d . . .
C48 C 0.6798(3) 1.4025(3) 0.2148(2) 0.0296(10) Uani 1 1 d . . .
H48 H 0.7231 1.4066 0.1662 0.035 Uiso 1 1 calc R U .
C49 C 0.6490(3) 1.4826(3) 0.2384(2) 0.0291(10) Uani 1 1 d . . .
C50 C 0.5875(3) 1.4749(3) 0.3099(3) 0.0333(10) Uani 1 1 d . . .
H50 H 0.5654 1.5290 0.3271 0.040 Uiso 1 1 calc R U .
C51 C 0.5570(3) 1.3896(3) 0.3573(3) 0.0341(11) Uani 1 1 d . . .
C52 C 0.6830(3) 1.2316(3) 0.2300(3) 0.0356(11) Uani 1 1 d . . .
H52A H 0.7029 1.1763 0.2731 0.043 Uiso 1 1 calc R U .
H52B H 0.7381 1.2444 0.1866 0.043 Uiso 1 1 calc R U .
H52C H 0.6301 1.2196 0.2107 0.043 Uiso 1 1 calc R U .
C53 C 0.6818(3) 1.5747(3) 0.1871(3) 0.0371(11) Uani 1 1 d . . .
H53A H 0.6432 1.6039 0.1446 0.045 Uiso 1 1 calc R U .
H53B H 0.7503 1.5636 0.1639 0.045 Uiso 1 1 calc R U .
H53C H 0.6734 1.6168 0.2192 0.045 Uiso 1 1 calc R U .
C54 C 0.4928(4) 1.3840(3) 0.4373(3) 0.0556(15) Uani 1 1 d . . .
H54A H 0.4730 1.4474 0.4426 0.067 Uiso 1 1 calc R U .
H54B H 0.5288 1.3444 0.4797 0.067 Uiso 1 1 calc R U .
H54C H 0.4353 1.3566 0.4413 0.067 Uiso 1 1 calc R U .
C55 C 0.1978(3) 1.0636(3) 0.3888(2) 0.0240(9) Uani 1 1 d . . .
C56 C 0.1952(3) 1.0323(3) 0.3255(2) 0.0291(10) Uani 1 1 d . . .
C57 C 0.1057(3) 1.0396(3) 0.3038(2) 0.0299(10) Uani 1 1 d . . .
H57 H 0.1035 1.0162 0.2623 0.036 Uiso 1 1 calc R U .
C58 C 0.0204(3) 1.0797(3) 0.3406(2) 0.0305(10) Uani 1 1 d . . .
C59 C 0.0254(3) 1.1128(3) 0.4011(3) 0.0314(10) Uani 1 1 d . . .
H59 H -0.0321 1.1425 0.4259 0.038 Uiso 1 1 calc R U .
C60 C 0.1118(3) 1.1040(3) 0.4268(2) 0.0267(9) Uani 1 1 d . . .
C61 C 0.2846(3) 0.9908(3) 0.2814(3) 0.0381(11) Uani 1 1 d . . .
H61A H 0.3173 0.9367 0.3185 0.046 Uiso 1 1 calc R U .
H61B H 0.3280 1.0382 0.2552 0.046 Uiso 1 1 calc R U .
H61C H 0.2673 0.9702 0.2416 0.046 Uiso 1 1 calc R U .
C62 C -0.0741(3) 1.0898(4) 0.3128(3) 0.0446(12) Uani 1 1 d . . .
H62A H -0.0679 1.0460 0.2827 0.053 Uiso 1 1 calc R U .
H62B H -0.0898 1.1545 0.2791 0.053 Uiso 1 1 calc R U .
H62C H -0.1258 1.0756 0.3588 0.053 Uiso 1 1 calc R U .
C63 C 0.1120(3) 1.1384(3) 0.4954(3) 0.0348(10) Uani 1 1 d . . .
H63A H 0.0452 1.1562 0.5192 0.042 Uiso 1 1 calc R U .
H63B H 0.1463 1.1932 0.4763 0.042 Uiso 1 1 calc R U .
H63C H 0.1447 1.0881 0.5352 0.042 Uiso 1 1 calc R U .
C64 C 0.5519(3) 0.9928(3) 0.2919(2) 0.0286(9) Uani 1 1 d . . .
H64 H 0.5694 1.0532 0.2811 0.034 Uiso 1 1 calc R U .
C65 C 0.5301(3) 0.9699(3) 0.2325(3) 0.0321(10) Uani 1 1 d . . .
H65 H 0.5328 1.0141 0.1810 0.039 Uiso 1 1 calc R U .
C66 C 0.5033(3) 0.8809(3) 0.2469(3) 0.0316(10) Uani 1 1 d . . .
C67 C 0.5014(3) 0.8189(3) 0.3251(3) 0.0331(10) Uani 1 1 d . . .
H67 H 0.4836 0.7583 0.3382 0.040 Uiso 1 1 calc R U .
C68 C 0.5247(3) 0.8455(3) 0.3816(3) 0.0276(9) Uani 1 1 d . . .
H68 H 0.5238 0.8025 0.4335 0.033 Uiso 1 1 calc R U .
C69 C 0.4702(4) 0.9268(4) 0.1116(3) 0.0509(14) Uani 1 1 d . . .
H69A H 0.5302 0.9542 0.0887 0.061 Uiso 1 1 calc R U .
H69B H 0.4164 0.9766 0.1181 0.061 Uiso 1 1 calc R U .
H69C H 0.4576 0.8963 0.0762 0.061 Uiso 1 1 calc R U .
C70 C 0.4452(4) 0.7680(4) 0.2061(3) 0.0527(14) Uani 1 1 d . . .
H70A H 0.3821 0.7683 0.2410 0.063 Uiso 1 1 calc R U .
H70B H 0.4914 0.7162 0.2324 0.063 Uiso 1 1 calc R U .
H70C H 0.4387 0.7598 0.1566 0.063 Uiso 1 1 calc R U .
C71 C 0.1549(4) 0.7397(4) 0.3210(3) 0.0471(13) Uani 1 1 d . . .
C72 C 0.2021(4) 0.6568(4) 0.3051(3) 0.0555(15) Uani 1 1 d . . .
H72 H 0.1818 0.6371 0.2679 0.067 Uiso 1 1 calc R U .
C73 C 0.2789(4) 0.6023(4) 0.3429(4) 0.0603(16) Uani 1 1 d . . .
H73 H 0.3103 0.5461 0.3313 0.072 Uiso 1 1 calc R U .
C74 C 0.3088(4) 0.6299(4) 0.3966(3) 0.0556(15) Uani 1 1 d . . .
H74 H 0.3605 0.5928 0.4229 0.067 Uiso 1 1 calc R U .
C75 C 0.2628(4) 0.7127(4) 0.4123(3) 0.0544(15) Uani 1 1 d . . .
H75 H 0.2839 0.7328 0.4489 0.065 Uiso 1 1 calc R U .
C76 C 0.1872(4) 0.7658(4) 0.3752(3) 0.0483(13) Uani 1 1 d . . .
H76 H 0.1563 0.8219 0.3872 0.058 Uiso 1 1 calc R U .
C77 C 0.0697(5) 0.7957(4) 0.2821(3) 0.0652(17) Uani 1 1 d . . .
H77A H 0.0450 0.7565 0.2603 0.078 Uiso 1 1 calc R U .
H77B H 0.0902 0.8511 0.2393 0.078 Uiso 1 1 calc R U .
H77C H 0.0187 0.8160 0.3214 0.078 Uiso 1 1 calc R U .
C78 C -0.2215(4) 0.8072(4) 0.2982(3) 0.0501(14) Uani 1 1 d . . .
C79 C -0.2254(4) 0.7246(4) 0.2858(4) 0.0557(15) Uani 1 1 d . . .
H79 H -0.2134 0.7210 0.2333 0.067 Uiso 1 1 calc R U .
C80 C -0.2468(4) 0.6459(4) 0.3495(3) 0.0532(14) Uani 1 1 d . . .
H80 H -0.2474 0.5883 0.3405 0.064 Uiso 1 1 calc R U .
C81 C -0.2672(4) 0.6511(4) 0.4253(3) 0.0522(14) Uani 1 1 d . . .
H81 H -0.2831 0.5977 0.4689 0.063 Uiso 1 1 calc R U .
C82 C -0.2641(3) 0.7353(4) 0.4376(3) 0.0502(14) Uani 1 1 d . . .
H82 H -0.2785 0.7401 0.4897 0.060 Uiso 1 1 calc R U .
C83 C -0.2402(3) 0.8122(4) 0.3736(3) 0.0433(12) Uani 1 1 d . . .
H83 H -0.2367 0.8692 0.3822 0.052 Uiso 1 1 calc R U .
C84 C -0.1950(4) 0.8924(4) 0.2278(4) 0.0661(17) Uani 1 1 d . . .
H84A H -0.1245 0.8859 0.2113 0.079 Uiso 1 1 calc R U .
H84B H -0.2178 0.9499 0.2432 0.079 Uiso 1 1 calc R U .
H84C H -0.2255 0.8961 0.1837 0.079 Uiso 1 1 calc R U .
B1 B 0.4643(5) 0.8033(4) -0.0548(4) 0.0506(16) Uani 1 1 d . . .
loop_
_atom_site_aniso_label
_atom_site_aniso_U_11
_atom_site_aniso_U_22
_atom_site_aniso_U_33
_atom_site_aniso_U_23
_atom_site_aniso_U_13
_atom_site_aniso_U_12
Fe1 0.0225(4) 0.0247(5) 0.0201(4) -0.0029(3) -0.0055(3) -0.0051(3)
Fe2 0.0219(4) 0.0216(4) 0.0234(4) -0.0023(3) -0.0026(3) -0.0038(3)
F1 0.095(3) 0.055(2) 0.093(3) -0.015(2) -0.029(2) -0.003(2)
F2 0.139(4) 0.057(2) 0.079(3) -0.027(2) 0.045(2) -0.028(2)
F3 0.096(3) 0.083(3) 0.092(3) -0.036(2) 0.010(2) -0.049(2)
F4 0.063(2) 0.0468(19) 0.0520(19) -0.0141(15) -0.0050(15) -0.0080(15)
O1 0.0247(15) 0.0387(18) 0.0213(15) -0.0042(13) -0.0096(12) -0.0077(13)
O2 0.0238(15) 0.0339(17) 0.0271(16) -0.0101(13) -0.0047(12) -0.0032(12)
N1 0.0246(18) 0.0205(18) 0.0221(18) -0.0044(14) -0.0048(14) -0.0051(14)
N2 0.0240(18) 0.0266(19) 0.0225(18) -0.0030(15) -0.0069(14) -0.0062(14)
N3 0.0240(18) 0.029(2) 0.0208(18) -0.0039(15) -0.0079(14) -0.0057(15)
N4 0.030(2) 0.051(3) 0.036(2) -0.0094(19) -0.0116(17) -0.0119(18)
N5 0.0246(18) 0.0216(18) 0.0235(18) -0.0018(14) -0.0054(14) -0.0024(14)
N6 0.0208(18) 0.0243(19) 0.0234(18) -0.0019(15) -0.0040(14) -0.0063(14)
N7 0.0255(19) 0.029(2) 0.0255(19) -0.0083(16) -0.0026(15) -0.0048(15)
N8 0.038(2) 0.042(2) 0.039(2) -0.0180(19) -0.0069(18) -0.0058(18)
C1 0.025(2) 0.024(2) 0.022(2) -0.0032(17) -0.0077(17) -0.0056(17)
C2 0.035(2) 0.022(2) 0.024(2) -0.0009(18) -0.0087(18) -0.0039(18)
C3 0.033(2) 0.027(2) 0.024(2) -0.0018(18) -0.0100(18) -0.0057(18)
C4 0.025(2) 0.025(2) 0.018(2) -0.0004(17) -0.0069(16) -0.0046(17)
C5 0.020(2) 0.030(2) 0.021(2) -0.0030(17) -0.0026(16) -0.0083(17)
C6 0.026(2) 0.028(2) 0.021(2) -0.0010(18) -0.0082(17) -0.0061(18)
C7 0.031(2) 0.028(2) 0.024(2) -0.0047(18) -0.0085(18) -0.0045(18)
C8 0.031(2) 0.029(2) 0.029(2) -0.0093(19) -0.0068(18) -0.0035(19)
C9 0.023(2) 0.026(2) 0.021(2) -0.0053(17) -0.0022(16) -0.0044(17)
C10 0.024(2) 0.025(2) 0.023(2) -0.0040(17) -0.0044(17) -0.0026(17)
C11 0.027(2) 0.024(2) 0.019(2) -0.0034(17) -0.0082(17) -0.0026(17)
C12 0.027(2) 0.023(2) 0.021(2) -0.0051(17) -0.0046(17) -0.0048(17)
C13 0.026(2) 0.028(2) 0.026(2) -0.0053(18) -0.0062(18) -0.0030(18)
C14 0.034(2) 0.025(2) 0.023(2) -0.0086(18) -0.0058(18) -0.0020(18)
C15 0.030(2) 0.027(2) 0.029(2) -0.0041(19) -0.0031(19) -0.0032(18)
C16 0.028(2) 0.031(2) 0.025(2) -0.0052(19) -0.0040(17) -0.0080(18)
C17 0.030(2) 0.040(3) 0.028(2) -0.007(2) -0.0071(19) -0.006(2)
C18 0.040(3) 0.041(3) 0.024(2) -0.010(2) -0.007(2) -0.001(2)
C19 0.034(3) 0.058(3) 0.032(3) -0.008(2) -0.008(2) -0.016(2)
C20 0.031(2) 0.024(2) 0.020(2) -0.0030(17) -0.0071(17) -0.0044(18)
C21 0.034(2) 0.027(2) 0.024(2) -0.0015(18) -0.0046(18) -0.0102(19)
C22 0.041(3) 0.028(2) 0.031(2) -0.0058(19) -0.008(2) -0.012(2)
C23 0.044(3) 0.024(2) 0.036(3) -0.007(2) -0.006(2) -0.006(2)
C24 0.037(3) 0.029(2) 0.034(3) -0.008(2) -0.006(2) -0.003(2)
C25 0.036(3) 0.025(2) 0.030(2) -0.0029(19) -0.0036(19) -0.0056(19)
C26 0.036(3) 0.035(3) 0.048(3) -0.009(2) -0.005(2) -0.011(2)
C27 0.054(3) 0.024(3) 0.047(3) -0.003(2) -0.009(2) -0.006(2)
C28 0.035(3) 0.027(3) 0.062(3) -0.009(2) 0.001(2) -0.004(2)
C29 0.027(2) 0.029(2) 0.026(2) -0.0085(18) -0.0012(18) -0.0080(18)
C30 0.027(2) 0.028(2) 0.025(2) -0.0053(18) -0.0017(18) -0.0049(18)
C31 0.026(2) 0.040(3) 0.025(2) -0.0056(19) -0.0043(18) -0.0130(19)
C32 0.032(2) 0.033(3) 0.032(2) -0.009(2) -0.0037(19) -0.013(2)
C33 0.025(2) 0.030(2) 0.028(2) -0.0056(19) -0.0006(18) -0.0070(18)
C34 0.036(3) 0.068(4) 0.046(3) -0.003(3) -0.022(2) -0.004(3)
C35 0.050(3) 0.069(4) 0.039(3) -0.014(3) -0.012(2) -0.029(3)
C36 0.023(2) 0.030(2) 0.022(2) -0.0020(18) -0.0032(17) -0.0014(18)
C37 0.027(2) 0.028(2) 0.026(2) -0.0038(18) -0.0036(18) -0.0083(18)
C38 0.030(2) 0.026(2) 0.027(2) -0.0018(18) -0.0019(18) -0.0123(18)
C39 0.022(2) 0.022(2) 0.023(2) -0.0025(17) -0.0010(16) -0.0050(16)
C40 0.025(2) 0.026(2) 0.023(2) -0.0048(18) 0.0014(17) -0.0064(17)
C41 0.025(2) 0.023(2) 0.031(2) -0.0046(18) -0.0059(18) -0.0025(17)
C42 0.021(2) 0.024(2) 0.037(3) 0.0050(19) -0.0089(18) -0.0012(17)
C43 0.028(2) 0.031(2) 0.032(2) 0.005(2) -0.0119(19) -0.0053(19)
C44 0.023(2) 0.027(2) 0.024(2) -0.0032(18) -0.0038(17) -0.0018(17)
C45 0.023(2) 0.027(2) 0.025(2) -0.0060(18) -0.0045(17) -0.0063(17)
C46 0.021(2) 0.024(2) 0.026(2) 0.0020(17) -0.0046(17) -0.0086(17)
C47 0.019(2) 0.029(2) 0.026(2) -0.0011(18) -0.0076(17) -0.0030(17)
C48 0.027(2) 0.037(3) 0.022(2) 0.0010(19) -0.0072(17) -0.0133(19)
C49 0.024(2) 0.029(2) 0.031(2) 0.0012(19) -0.0089(18) -0.0091(18)
C50 0.036(3) 0.022(2) 0.037(3) -0.0043(19) -0.003(2) -0.0059(19)
C51 0.032(2) 0.028(2) 0.032(2) -0.0004(19) 0.0023(19) -0.0034(19)
C52 0.036(3) 0.039(3) 0.029(2) -0.005(2) -0.002(2) -0.011(2)
C53 0.039(3) 0.030(3) 0.037(3) 0.002(2) -0.008(2) -0.011(2)
C54 0.073(4) 0.028(3) 0.049(3) -0.010(2) 0.022(3) -0.011(3)
C55 0.025(2) 0.020(2) 0.024(2) -0.0008(17) -0.0075(17) -0.0041(16)
C56 0.031(2) 0.023(2) 0.026(2) 0.0004(18) -0.0052(18) -0.0027(18)
C57 0.038(3) 0.025(2) 0.027(2) -0.0037(18) -0.0085(19) -0.0091(19)
C58 0.025(2) 0.033(3) 0.028(2) 0.0021(19) -0.0064(18) -0.0087(19)
C59 0.025(2) 0.031(2) 0.032(2) -0.004(2) -0.0026(18) -0.0031(18)
C60 0.026(2) 0.027(2) 0.024(2) -0.0035(18) -0.0035(17) -0.0049(18)
C61 0.038(3) 0.044(3) 0.035(3) -0.014(2) -0.009(2) -0.003(2)
C62 0.030(3) 0.060(3) 0.044(3) -0.014(3) -0.011(2) -0.006(2)
C63 0.035(3) 0.035(3) 0.036(3) -0.011(2) -0.008(2) -0.004(2)
C64 0.029(2) 0.029(2) 0.024(2) -0.0053(18) 0.0001(18) -0.0085(18)
C65 0.034(3) 0.035(3) 0.026(2) -0.007(2) -0.0034(19) -0.006(2)
C66 0.026(2) 0.036(3) 0.034(3) -0.014(2) -0.0050(19) -0.0019(19)
C67 0.027(2) 0.032(3) 0.039(3) -0.010(2) -0.0022(19) -0.0062(19)
C68 0.023(2) 0.026(2) 0.028(2) -0.0035(18) -0.0032(17) 0.0005(17)
C69 0.053(3) 0.064(4) 0.039(3) -0.020(3) -0.012(2) -0.005(3)
C70 0.062(4) 0.056(4) 0.053(3) -0.027(3) -0.011(3) -0.018(3)
C71 0.055(3) 0.044(3) 0.044(3) -0.017(3) 0.006(3) -0.021(3)
C72 0.063(4) 0.055(4) 0.055(4) -0.028(3) 0.003(3) -0.018(3)
C73 0.066(4) 0.042(3) 0.078(4) -0.030(3) -0.002(3) -0.011(3)
C74 0.057(4) 0.047(3) 0.064(4) -0.021(3) -0.005(3) -0.008(3)
C75 0.071(4) 0.055(4) 0.044(3) -0.022(3) -0.004(3) -0.020(3)
C76 0.059(4) 0.041(3) 0.043(3) -0.014(3) 0.002(3) -0.015(3)
C77 0.081(5) 0.062(4) 0.049(4) -0.010(3) -0.008(3) -0.018(3)
C78 0.030(3) 0.059(4) 0.066(4) -0.030(3) -0.004(3) -0.004(2)
C79 0.046(3) 0.066(4) 0.058(4) -0.027(3) 0.006(3) -0.017(3)
C80 0.050(3) 0.054(4) 0.062(4) -0.027(3) 0.000(3) -0.016(3)
C81 0.032(3) 0.061(4) 0.061(4) -0.016(3) -0.011(3) -0.001(2)
C82 0.032(3) 0.070(4) 0.059(4) -0.036(3) -0.011(2) 0.002(3)
C83 0.029(3) 0.048(3) 0.059(3) -0.023(3) -0.010(2) -0.005(2)
C84 0.038(3) 0.067(4) 0.081(5) -0.015(3) 0.002(3) -0.009(3)
B1 0.076(5) 0.035(3) 0.035(3) -0.006(3) 0.003(3) -0.018(3)
loop_
_atom_type_symbol
_atom_type_description
_atom_type_scat_dispersion_real
_atom_type_scat_dispersion_imag
_atom_type_scat_source
C C 0.0033 0.0016 'International Tables Vol C Tables 4.2.6.8 and 6.1.1.4'
H H 0.0000 0.0000 'International Tables Vol C Tables 4.2.6.8 and 6.1.1.4'
B B 0.0013 0.0007 'International Tables Vol C Tables 4.2.6.8 and 6.1.1.4'
F F 0.0171 0.0103 'International Tables Vol C Tables 4.2.6.8 and 6.1.1.4'
Fe Fe 0.3463 0.8444 'International Tables Vol C Tables 4.2.6.8 and 6.1.1.4'
N N 0.0061 0.0033 'International Tables Vol C Tables 4.2.6.8 and 6.1.1.4'
O O 0.0106 0.0060 'International Tables Vol C Tables 4.2.6.8 and 6.1.1.4'
loop_
_geom_angle_atom_site_label_1
_geom_angle_atom_site_label_2
_geom_angle_atom_site_label_3
_geom_angle
_geom_angle_site_symmetry_1
_geom_angle_site_symmetry_3
O1 Fe1 O1 180.0 . 2_565
O1 Fe1 N1 86.38(12) . 2_565
O1 Fe1 N1 93.62(12) 2_565 2_565
O1 Fe1 N1 93.61(12) . .
O1 Fe1 N1 86.38(12) 2_565 .
N1 Fe1 N1 180.0 2_565 .
O1 Fe1 N2 86.47(12) . 2_565
O1 Fe1 N2 93.53(13) 2_565 2_565
N1 Fe1 N2 89.22(13) 2_565 2_565
N1 Fe1 N2 90.78(13) . 2_565
O1 Fe1 N2 93.53(13) . .
O1 Fe1 N2 86.47(12) 2_565 .
N1 Fe1 N2 90.78(13) 2_565 .
N1 Fe1 N2 89.22(13) . .
N2 Fe1 N2 180.00(14) 2_565 .
O2 Fe2 O2 180.0 . 2_676
O2 Fe2 N5 84.59(13) . .
O2 Fe2 N5 95.41(13) 2_676 .
O2 Fe2 N5 95.41(13) . 2_676
O2 Fe2 N5 84.59(13) 2_676 2_676
N5 Fe2 N5 180.0 . 2_676
O2 Fe2 N6 87.97(13) . 2_676
O2 Fe2 N6 92.03(13) 2_676 2_676
N5 Fe2 N6 88.53(13) . 2_676
N5 Fe2 N6 91.47(13) 2_676 2_676
O2 Fe2 N6 92.03(13) . .
O2 Fe2 N6 87.97(13) 2_676 .
N5 Fe2 N6 91.47(13) . .
N5 Fe2 N6 88.53(13) 2_676 .
N6 Fe2 N6 180.0 2_676 .
N3 O1 Fe1 118.7(2) . .
N7 O2 Fe2 121.7(2) . .
C1 N1 C4 105.0(3) . .
C1 N1 Fe1 126.5(3) . .
C4 N1 Fe1 128.3(3) . .
C9 N2 C6 105.4(3) . .
C9 N2 Fe1 126.8(3) . .
C6 N2 Fe1 127.7(3) . .
C29 N3 C33 120.7(3) . .
C29 N3 O1 119.5(3) . .
C33 N3 O1 119.6(3) . .
C31 N4 C35 121.8(4) . .
C31 N4 C34 120.1(4) . .
C35 N4 C34 118.1(4) . .
C39 N5 C36 104.8(3) . .
C39 N5 Fe2 126.0(3) . .
C36 N5 Fe2 128.9(3) . .
C41 N6 C44 105.7(3) . .
C41 N6 Fe2 125.9(3) . .
C44 N6 Fe2 128.4(3) . .
C64 N7 C68 119.4(4) . .
C64 N7 O2 119.6(3) . .
C68 N7 O2 120.4(3) . .
C66 N8 C70 120.9(4) . .
C66 N8 C69 120.7(4) . .
C70 N8 C69 117.3(4) . .
N1 C1 C10 126.3(4) . 2_565
N1 C1 C2 110.5(3) . .
C10 C1 C2 123.2(4) 2_565 .
C3 C2 C1 106.5(4) . .
C3 C2 H2 126.7 . .
C1 C2 H2 126.7 . .
C2 C3 C4 107.4(4) . .
C2 C3 H3 126.3 . .
C4 C3 H3 126.3 . .
N1 C4 C5 125.5(4) . .
N1 C4 C3 110.4(4) . .
C5 C4 C3 124.1(4) . .
C4 C5 C6 122.9(4) . .
C4 C5 C11 118.8(4) . .
C6 C5 C11 118.2(4) . .
N2 C6 C5 125.9(4) . .
N2 C6 C7 110.3(3) . .
C5 C6 C7 123.9(4) . .
C8 C7 C6 106.6(4) . .
C8 C7 H7 126.7 . .
C6 C7 H7 126.7 . .
C7 C8 C9 107.5(4) . .
C7 C8 H8 126.2 . .
C9 C8 H8 126.2 . .
N2 C9 C10 125.7(4) . .
N2 C9 C8 110.2(3) . .
C10 C9 C8 124.0(4) . .
C9 C10 C1 123.8(4) . 2_565
C9 C10 C20 119.9(4) . .
C1 C10 C20 116.3(3) 2_565 .
C12 C11 C16 119.9(4) . .
C12 C11 C5 121.7(4) . .
C16 C11 C5 118.4(3) . .
C13 C12 C11 119.3(4) . .
C13 C12 C17 120.6(4) . .
C11 C12 C17 120.1(3) . .
C12 C13 C14 121.7(4) . .
C12 C13 H13 119.2 . .
C14 C13 H13 119.2 . .
C15 C14 C13 118.3(4) . .
C15 C14 C18 120.3(4) . .
C13 C14 C18 121.4(4) . .
C14 C15 C16 121.6(4) . .
C14 C15 H15 119.2 . .
C16 C15 H15 119.2 . .
C15 C16 C11 119.1(4) . .
C15 C16 C19 120.0(4) . .
C11 C16 C19 120.9(4) . .
C12 C17 H17A 109.5 . .
C12 C17 H17B 109.5 . .
H17A C17 H17B 109.5 . .
C12 C17 H17C 109.5 . .
H17A C17 H17C 109.5 . .
H17B C17 H17C 109.5 . .
C14 C18 H18A 109.5 . .
C14 C18 H18B 109.5 . .
H18A C18 H18B 109.5 . .
C14 C18 H18C 109.5 . .
H18A C18 H18C 109.5 . .
H18B C18 H18C 109.5 . .
C16 C19 H19A 109.5 . .
C16 C19 H19B 109.5 . .
H19A C19 H19B 109.5 . .
C16 C19 H19C 109.5 . .
H19A C19 H19C 109.5 . .
H19B C19 H19C 109.5 . .
C25 C20 C21 119.6(4) . .
C25 C20 C10 120.8(4) . .
C21 C20 C10 119.6(4) . .
C22 C21 C20 119.0(4) . .
C22 C21 C26 119.8(4) . .
C20 C21 C26 121.3(4) . .
C23 C22 C21 122.0(4) . .
C23 C22 H22 119.0 . .
C21 C22 H22 119.0 . .
C22 C23 C24 118.2(4) . .
C22 C23 C27 121.7(4) . .
C24 C23 C27 120.2(4) . .
C23 C24 C25 121.7(4) . .
C23 C24 H24 119.1 . .
C25 C24 H24 119.1 . .
C24 C25 C20 119.4(4) . .
C24 C25 C28 119.3(4) . .
C20 C25 C28 121.3(4) . .
C21 C26 H26A 109.5 . .
C21 C26 H26B 109.5 . .
H26A C26 H26B 109.5 . .
C21 C26 H26C 109.5 . .
H26A C26 H26C 109.5 . .
H26B C26 H26C 109.5 . .
C23 C27 H27A 109.5 . .
C23 C27 H27B 109.5 . .
H27A C27 H27B 109.5 . .
C23 C27 H27C 109.5 . .
H27A C27 H27C 109.5 . .
H27B C27 H27C 109.5 . .
C25 C28 H28A 109.5 . .
C25 C28 H28B 109.5 . .
H28A C28 H28B 109.5 . .
C25 C28 H28C 109.5 . .
H28A C28 H28C 109.5 . .
H28B C28 H28C 109.5 . .
N3 C29 C30 121.0(4) . .
N3 C29 H29 119.5 . .
C30 C29 H29 119.5 . .
C29 C30 C31 119.5(4) . .
C29 C30 H30 120.3 . .
C31 C30 H30 120.3 . .
N4 C31 C30 120.7(4) . .
N4 C31 C32 121.6(4) . .
C30 C31 C32 117.7(4) . .
C33 C32 C31 119.5(4) . .
C33 C32 H32 120.2 . .
C31 C32 H32 120.2 . .
N3 C33 C32 121.6(4) . .
N3 C33 H33 119.2 . .
C32 C33 H33 119.2 . .
N4 C34 H34A 109.5 . .
N4 C34 H34B 109.5 . .
H34A C34 H34B 109.5 . .
N4 C34 H34C 109.5 . .
H34A C34 H34C 109.5 . .
H34B C34 H34C 109.5 . .
N4 C35 H35A 109.5 . .
N4 C35 H35B 109.5 . .
H35A C35 H35B 109.5 . .
N4 C35 H35C 109.5 . .
H35A C35 H35C 109.5 . .
H35B C35 H35C 109.5 . .
N5 C36 C45 125.7(4) . 2_676
N5 C36 C37 110.6(4) . .
C45 C36 C37 123.7(4) 2_676 .
C38 C37 C36 107.2(4) . .
C38 C37 H37 126.4 . .
C36 C37 H37 126.4 . .
C37 C38 C39 106.9(4) . .
C37 C38 H38 126.6 . .
C39 C38 H38 126.6 . .
N5 C39 C40 126.4(4) . .
N5 C39 C38 110.4(3) . .
C40 C39 C38 123.2(4) . .
C41 C40 C39 124.1(4) . .
C41 C40 C46 119.1(4) . .
C39 C40 C46 116.8(3) . .
N6 C41 C40 126.0(4) . .
N6 C41 C42 109.7(3) . .
C40 C41 C42 124.3(4) . .
C43 C42 C41 107.7(4) . .
C43 C42 H42 126.2 . .
C41 C42 H42 126.2 . .
C42 C43 C44 107.1(4) . .
C42 C43 H43 126.5 . .
C44 C43 H43 126.5 . .
N6 C44 C45 125.7(4) . .
N6 C44 C43 109.8(4) . .
C45 C44 C43 124.5(4) . .
C44 C45 C36 122.8(4) . 2_676
C44 C45 C55 120.9(4) . .
C36 C45 C55 116.3(3) 2_676 .
C51 C46 C47 119.2(4) . .
C51 C46 C40 121.1(4) . .
C47 C46 C40 119.6(4) . .
C46 C47 C48 118.6(4) . .
C46 C47 C52 121.5(4) . .
C48 C47 C52 119.9(4) . .
C49 C48 C47 122.4(4) . .
C49 C48 H48 118.8 . .
C47 C48 H48 118.8 . .
C50 C49 C48 117.9(4) . .
C50 C49 C53 121.6(4) . .
C48 C49 C53 120.5(4) . .
C49 C50 C51 121.5(4) . .
C49 C50 H50 119.3 . .
C51 C50 H50 119.3 . .
C50 C51 C46 120.4(4) . .
C50 C51 C54 119.3(4) . .
C46 C51 C54 120.3(4) . .
C47 C52 H52A 109.5 . .
C47 C52 H52B 109.5 . .
H52A C52 H52B 109.5 . .
C47 C52 H52C 109.5 . .
H52A C52 H52C 109.5 . .
H52B C52 H52C 109.5 . .
C49 C53 H53A 109.5 . .
C49 C53 H53B 109.5 . .
H53A C53 H53B 109.5 . .
C49 C53 H53C 109.5 . .
H53A C53 H53C 109.5 . .
H53B C53 H53C 109.5 . .
C51 C54 H54A 109.5 . .
C51 C54 H54B 109.5 . .
H54A C54 H54B 109.5 . .
C51 C54 H54C 109.5 . .
H54A C54 H54C 109.5 . .
H54B C54 H54C 109.5 . .
C60 C55 C56 119.4(4) . .
C60 C55 C45 120.7(4) . .
C56 C55 C45 119.7(4) . .
C57 C56 C55 118.7(4) . .
C57 C56 C61 119.4(4) . .
C55 C56 C61 121.9(4) . .
C58 C57 C56 122.4(4) . .
C58 C57 H57 118.8 . .
C56 C57 H57 118.8 . .
C57 C58 C59 117.7(4) . .
C57 C58 C62 120.6(4) . .
C59 C58 C62 121.7(4) . .
C58 C59 C60 122.1(4) . .
C58 C59 H59 118.9 . .
C60 C59 H59 118.9 . .
C59 C60 C55 119.5(4) . .
C59 C60 C63 119.6(4) . .
C55 C60 C63 120.8(4) . .
C56 C61 H61A 109.5 . .
C56 C61 H61B 109.5 . .
H61A C61 H61B 109.5 . .
C56 C61 H61C 109.5 . .
H61A C61 H61C 109.5 . .
H61B C61 H61C 109.5 . .
C58 C62 H62A 109.5 . .
C58 C62 H62B 109.5 . .
H62A C62 H62B 109.5 . .
C58 C62 H62C 109.5 . .
H62A C62 H62C 109.5 . .
H62B C62 H62C 109.5 . .
C60 C63 H63A 109.5 . .
C60 C63 H63B 109.5 . .
H63A C63 H63B 109.5 . .
C60 C63 H63C 109.5 . .
H63A C63 H63C 109.5 . .
H63B C63 H63C 109.5 . .
N7 C64 C65 121.5(4) . .
N7 C64 H64 119.2 . .
C65 C64 H64 119.2 . .
C64 C65 C66 120.6(4) . .
C64 C65 H65 119.7 . .
C66 C65 H65 119.7 . .
N8 C66 C65 121.7(4) . .
N8 C66 C67 122.1(4) . .
C65 C66 C67 116.2(4) . .
C68 C67 C66 120.5(4) . .
C68 C67 H67 119.8 . .
C66 C67 H67 119.8 . .
N7 C68 C67 121.7(4) . .
N7 C68 H68 119.1 . .
C67 C68 H68 119.1 . .
N8 C69 H69A 109.5 . .
N8 C69 H69B 109.5 . .
H69A C69 H69B 109.5 . .
N8 C69 H69C 109.5 . .
H69A C69 H69C 109.5 . .
H69B C69 H69C 109.5 . .
N8 C70 H70A 109.5 . .
N8 C70 H70B 109.5 . .
H70A C70 H70B 109.5 . .
N8 C70 H70C 109.5 . .
H70A C70 H70C 109.5 . .
H70B C70 H70C 109.5 . .
C76 C71 C72 117.4(5) . .
C76 C71 C77 122.1(5) . .
C72 C71 C77 120.4(5) . .
C71 C72 C73 121.1(5) . .
C71 C72 H72 119.5 . .
C73 C72 H72 119.5 . .
C74 C73 C72 120.1(5) . .
C74 C73 H73 120.0 . .
C72 C73 H73 120.0 . .
C73 C74 C75 119.3(6) . .
C73 C74 H74 120.4 . .
C75 C74 H74 120.4 . .
C76 C75 C74 120.5(5) . .
C76 C75 H75 119.8 . .
C74 C75 H75 119.8 . .
C75 C76 C71 121.7(5) . .
C75 C76 H76 119.1 . .
C71 C76 H76 119.1 . .
C71 C77 H77A 109.5 . .
C71 C77 H77B 109.5 . .
H77A C77 H77B 109.5 . .
C71 C77 H77C 109.5 . .
H77A C77 H77C 109.5 . .
H77B C77 H77C 109.5 . .
C83 C78 C79 119.5(5) . .
C83 C78 C84 120.5(5) . .
C79 C78 C84 119.9(5) . .
C78 C79 C80 120.3(5) . .
C78 C79 H79 119.8 . .
C80 C79 H79 119.8 . .
C81 C80 C79 120.2(5) . .
C81 C80 H80 119.9 . .
C79 C80 H80 119.9 . .
C80 C81 C82 119.2(5) . .
C80 C81 H81 120.4 . .
C82 C81 H81 120.4 . .
C83 C82 C81 119.7(5) . .
C83 C82 H82 120.1 . .
C81 C82 H82 120.1 . .
C78 C83 C82 120.9(5) . .
C78 C83 H83 119.6 . .
C82 C83 H83 119.6 . .
C78 C84 H84A 109.5 . .
C78 C84 H84B 109.5 . .
H84A C84 H84B 109.5 . .
C78 C84 H84C 109.5 . .
H84A C84 H84C 109.5 . .
H84B C84 H84C 109.5 . .
F2 B1 F3 111.2(5) . .
F2 B1 F4 110.5(4) . .
F3 B1 F4 109.8(5) . .
F2 B1 F1 108.0(6) . .
F3 B1 F1 109.2(5) . .
F4 B1 F1 108.1(5) . .
loop_
_geom_bond_atom_site_label_1
_geom_bond_atom_site_label_2
_geom_bond_distance
_geom_bond_site_symmetry_2
Fe1 O1 1.903(3) .
Fe1 O1 1.903(3) 2_565
Fe1 N1 1.991(3) 2_565
Fe1 N1 1.991(3) .
Fe1 N2 2.003(3) 2_565
Fe1 N2 2.003(3) .
Fe2 O2 1.904(3) .
Fe2 O2 1.904(3) 2_676
Fe2 N5 1.985(3) .
Fe2 N5 1.985(3) 2_676
Fe2 N6 2.008(3) 2_676
Fe2 N6 2.008(3) .
F1 B1 1.403(7) .
F2 B1 1.368(7) .
F3 B1 1.370(7) .
F4 B1 1.391(7) .
O1 N3 1.368(4) .
O2 N7 1.359(4) .
N1 C1 1.375(5) .
N1 C4 1.381(5) .
N2 C9 1.376(5) .
N2 C6 1.378(5) .
N3 C29 1.346(5) .
N3 C33 1.350(5) .
N4 C31 1.352(5) .
N4 C35 1.448(6) .
N4 C34 1.451(6) .
N5 C39 1.375(5) .
N5 C36 1.380(5) .
N6 C41 1.377(5) .
N6 C44 1.380(5) .
N7 C64 1.352(5) .
N7 C68 1.355(5) .
N8 C66 1.356(5) .
N8 C70 1.455(6) .
N8 C69 1.466(6) .
C1 C10 1.402(5) 2_565
C1 C2 1.442(5) .
C2 C3 1.348(6) .
C2 H2 0.9500 .
C3 C4 1.428(5) .
C3 H3 0.9500 .
C4 C5 1.397(6) .
C5 C6 1.399(5) .
C5 C11 1.504(5) .
C6 C7 1.433(6) .
C7 C8 1.350(6) .
C7 H7 0.9500 .
C8 C9 1.425(6) .
C8 H8 0.9500 .
C9 C10 1.391(5) .
C10 C1 1.402(5) 2_565
C10 C20 1.505(6) .
C11 C12 1.397(5) .
C11 C16 1.406(5) .
C12 C13 1.392(5) .
C12 C17 1.503(5) .
C13 C14 1.393(6) .
C13 H13 0.9500 .
C14 C15 1.387(6) .
C14 C18 1.516(5) .
C15 C16 1.398(6) .
C15 H15 0.9500 .
C16 C19 1.507(6) .
C17 H17A 0.9800 .
C17 H17B 0.9800 .
C17 H17C 0.9800 .
C18 H18A 0.9800 .
C18 H18B 0.9800 .
C18 H18C 0.9800 .
C19 H19A 0.9800 .
C19 H19B 0.9800 .
C19 H19C 0.9800 .
C20 C25 1.403(6) .
C20 C21 1.406(5) .
C21 C22 1.402(6) .
C21 C26 1.502(6) .
C22 C23 1.384(6) .
C22 H22 0.9500 .
C23 C24 1.389(6) .
C23 C27 1.519(6) .
C24 C25 1.397(6) .
C24 H24 0.9500 .
C25 C28 1.511(6) .
C26 H26A 0.9800 .
C26 H26B 0.9800 .
C26 H26C 0.9800 .
C27 H27A 0.9800 .
C27 H27B 0.9800 .
C27 H27C 0.9800 .
C28 H28A 0.9800 .
C28 H28B 0.9800 .
C28 H28C 0.9800 .
C29 C30 1.373(6) .
C29 H29 0.9500 .
C30 C31 1.411(6) .
C30 H30 0.9500 .
C31 C32 1.418(6) .
C32 C33 1.355(6) .
C32 H32 0.9500 .
C33 H33 0.9500 .
C34 H34A 0.9800 .
C34 H34B 0.9800 .
C34 H34C 0.9800 .
C35 H35A 0.9800 .
C35 H35B 0.9800 .
C35 H35C 0.9800 .
C36 C45 1.399(5) 2_676
C36 C37 1.426(6) .
C37 C38 1.343(6) .
C37 H37 0.9500 .
C38 C39 1.437(5) .
C38 H38 0.9500 .
C39 C40 1.400(5) .
C40 C41 1.390(5) .
C40 C46 1.507(5) .
C41 C42 1.434(5) .
C42 C43 1.340(6) .
C42 H42 0.9500 .
C43 C44 1.436(5) .
C43 H43 0.9500 .
C44 C45 1.390(5) .
C45 C36 1.399(5) 2_676
C45 C55 1.512(5) .
C46 C51 1.396(6) .
C46 C47 1.403(5) .
C47 C48 1.403(6) .
C47 C52 1.508(6) .
C48 C49 1.386(6) .
C48 H48 0.9500 .
C49 C50 1.380(6) .
C49 C53 1.503(5) .
C50 C51 1.391(6) .
C50 H50 0.9500 .
C51 C54 1.523(6) .
C52 H52A 0.9800 .
C52 H52B 0.9800 .
C52 H52C 0.9800 .
C53 H53A 0.9800 .
C53 H53B 0.9800 .
C53 H53C 0.9800 .
C54 H54A 0.9800 .
C54 H54B 0.9800 .
C54 H54C 0.9800 .
C55 C60 1.401(5) .
C55 C56 1.401(6) .
C56 C57 1.400(6) .
C56 C61 1.491(6) .
C57 C58 1.381(6) .
C57 H57 0.9500 .
C58 C59 1.383(6) .
C58 C62 1.513(6) .
C59 C60 1.388(6) .
C59 H59 0.9500 .
C60 C63 1.512(6) .
C61 H61A 0.9800 .
C61 H61B 0.9800 .
C61 H61C 0.9800 .
C62 H62A 0.9800 .
C62 H62B 0.9800 .
C62 H62C 0.9800 .
C63 H63A 0.9800 .
C63 H63B 0.9800 .
C63 H63C 0.9800 .
C64 C65 1.361(6) .
C64 H64 0.9500 .
C65 C66 1.413(6) .
C65 H65 0.9500 .
C66 C67 1.416(6) .
C67 C68 1.355(6) .
C67 H67 0.9500 .
C68 H68 0.9500 .
C69 H69A 0.9800 .
C69 H69B 0.9800 .
C69 H69C 0.9800 .
C70 H70A 0.9800 .
C70 H70B 0.9800 .
C70 H70C 0.9800 .
C71 C76 1.381(7) .
C71 C72 1.394(7) .
C71 C77 1.507(8) .
C72 C73 1.396(8) .
C72 H72 0.9500 .
C73 C74 1.368(8) .
C73 H73 0.9500 .
C74 C75 1.386(7) .
C74 H74 0.9500 .
C75 C76 1.371(7) .
C75 H75 0.9500 .
C76 H76 0.9500 .
C77 H77A 0.9800 .
C77 H77B 0.9800 .
C77 H77C 0.9800 .
C78 C83 1.364(7) .
C78 C79 1.370(7) .
C78 C84 1.528(8) .
C79 C80 1.389(7) .
C79 H79 0.9500 .
C80 C81 1.372(7) .
C80 H80 0.9500 .
C81 C82 1.390(7) .
C81 H81 0.9500 .
C82 C83 1.383(7) .
C82 H82 0.9500 .
C83 H83 0.9500 .
C84 H84A 0.9800 .
C84 H84B 0.9800 .
C84 H84C 0.9800 .
loop_
_geom_torsion_atom_site_label_1
_geom_torsion_atom_site_label_2
_geom_torsion_atom_site_label_3
_geom_torsion_atom_site_label_4
_geom_torsion
_geom_torsion_site_symmetry_1
_geom_torsion_site_symmetry_4
Fe1 O1 N3 C29 92.5(4) . .
Fe1 O1 N3 C33 -93.1(4) . .
Fe2 O2 N7 C64 101.3(4) . .
Fe2 O2 N7 C68 -87.8(4) . .
C4 N1 C1 C10 174.1(4) . 2_565
Fe1 N1 C1 C10 -2.1(6) . 2_565
C4 N1 C1 C2 -2.8(4) . .
Fe1 N1 C1 C2 -179.0(3) . .
N1 C1 C2 C3 2.6(5) . .
C10 C1 C2 C3 -174.4(4) 2_565 .
C1 C2 C3 C4 -1.3(5) . .
C1 N1 C4 C5 -177.5(4) . .
Fe1 N1 C4 C5 -1.4(6) . .
C1 N1 C4 C3 2.0(4) . .
Fe1 N1 C4 C3 178.1(3) . .
C2 C3 C4 N1 -0.4(5) . .
C2 C3 C4 C5 179.0(4) . .
N1 C4 C5 C6 -5.2(6) . .
C3 C4 C5 C6 175.5(4) . .
N1 C4 C5 C11 171.5(4) . .
C3 C4 C5 C11 -7.9(6) . .
C9 N2 C6 C5 177.9(4) . .
Fe1 N2 C6 C5 1.1(6) . .
C9 N2 C6 C7 -1.0(4) . .
Fe1 N2 C6 C7 -177.8(3) . .
C4 C5 C6 N2 5.3(6) . .
C11 C5 C6 N2 -171.4(4) . .
C4 C5 C6 C7 -176.0(4) . .
C11 C5 C6 C7 7.4(6) . .
N2 C6 C7 C8 -0.8(5) . .
C5 C6 C7 C8 -179.7(4) . .
C6 C7 C8 C9 2.1(5) . .
C6 N2 C9 C10 -174.8(4) . .
Fe1 N2 C9 C10 2.0(6) . .
C6 N2 C9 C8 2.3(4) . .
Fe1 N2 C9 C8 179.1(3) . .
C7 C8 C9 N2 -2.9(5) . .
C7 C8 C9 C10 174.3(4) . .
N2 C9 C10 C1 -0.5(7) . 2_565
C8 C9 C10 C1 -177.3(4) . 2_565
N2 C9 C10 C20 179.1(4) . .
C8 C9 C10 C20 2.4(6) . .
C4 C5 C11 C12 91.1(5) . .
C6 C5 C11 C12 -92.2(5) . .
C4 C5 C11 C16 -89.6(5) . .
C6 C5 C11 C16 87.2(5) . .
C16 C11 C12 C13 -3.4(6) . .
C5 C11 C12 C13 175.9(4) . .
C16 C11 C12 C17 177.7(4) . .
C5 C11 C12 C17 -2.9(6) . .
C11 C12 C13 C14 1.1(6) . .
C17 C12 C13 C14 180.0(4) . .
C12 C13 C14 C15 1.3(6) . .
C12 C13 C14 C18 -178.3(4) . .
C13 C14 C15 C16 -1.3(6) . .
C18 C14 C15 C16 178.3(4) . .
C14 C15 C16 C11 -1.0(6) . .
C14 C15 C16 C19 178.4(4) . .
C12 C11 C16 C15 3.3(6) . .
C5 C11 C16 C15 -176.0(4) . .
C12 C11 C16 C19 -176.1(4) . .
C5 C11 C16 C19 4.6(6) . .
C9 C10 C20 C25 -89.3(5) . .
C1 C10 C20 C25 90.4(5) 2_565 .
C9 C10 C20 C21 94.2(5) . .
C1 C10 C20 C21 -86.2(5) 2_565 .
C25 C20 C21 C22 -1.9(6) . .
C10 C20 C21 C22 174.7(4) . .
C25 C20 C21 C26 179.0(4) . .
C10 C20 C21 C26 -4.4(6) . .
C20 C21 C22 C23 -0.4(6) . .
C26 C21 C22 C23 178.7(4) . .
C21 C22 C23 C24 2.6(7) . .
C21 C22 C23 C27 -176.6(4) . .
C22 C23 C24 C25 -2.5(7) . .
C27 C23 C24 C25 176.7(4) . .
C23 C24 C25 C20 0.2(7) . .
C23 C24 C25 C28 -178.3(4) . .
C21 C20 C25 C24 2.1(6) . .
C10 C20 C25 C24 -174.5(4) . .
C21 C20 C25 C28 -179.5(4) . .
C10 C20 C25 C28 3.9(6) . .
C33 N3 C29 C30 0.0(6) . .
O1 N3 C29 C30 174.3(3) . .
N3 C29 C30 C31 1.1(6) . .
C35 N4 C31 C30 -174.7(4) . .
C34 N4 C31 C30 8.0(6) . .
C35 N4 C31 C32 5.4(6) . .
C34 N4 C31 C32 -171.9(4) . .
C29 C30 C31 N4 178.5(4) . .
C29 C30 C31 C32 -1.6(6) . .
N4 C31 C32 C33 -179.1(4) . .
C30 C31 C32 C33 1.0(6) . .
C29 N3 C33 C32 -0.6(6) . .
O1 N3 C33 C32 -175.0(4) . .
C31 C32 C33 N3 0.1(6) . .
C39 N5 C36 C45 -176.9(4) . 2_676
Fe2 N5 C36 C45 -2.7(6) . 2_676
C39 N5 C36 C37 1.4(4) . .
Fe2 N5 C36 C37 175.6(3) . .
N5 C36 C37 C38 -0.9(5) . .
C45 C36 C37 C38 177.4(4) 2_676 .
C36 C37 C38 C39 0.1(5) . .
C36 N5 C39 C40 179.1(4) . .
Fe2 N5 C39 C40 4.7(6) . .
C36 N5 C39 C38 -1.4(4) . .
Fe2 N5 C39 C38 -175.8(3) . .
C37 C38 C39 N5 0.8(5) . .
C37 C38 C39 C40 -179.6(4) . .
N5 C39 C40 C41 -1.7(7) . .
C38 C39 C40 C41 178.8(4) . .
N5 C39 C40 C46 179.2(4) . .
C38 C39 C40 C46 -0.3(6) . .
C44 N6 C41 C40 179.8(4) . .
Fe2 N6 C41 C40 1.2(6) . .
C44 N6 C41 C42 1.0(5) . .
Fe2 N6 C41 C42 -177.6(3) . .
C39 C40 C41 N6 -1.5(7) . .
C46 C40 C41 N6 177.6(4) . .
C39 C40 C41 C42 177.2(4) . .
C46 C40 C41 C42 -3.8(6) . .
N6 C41 C42 C43 -0.8(5) . .
C40 C41 C42 C43 -179.6(4) . .
C41 C42 C43 C44 0.2(5) . .
C41 N6 C44 C45 179.7(4) . .
Fe2 N6 C44 C45 -1.8(6) . .
C41 N6 C44 C43 -0.9(5) . .
Fe2 N6 C44 C43 177.7(3) . .
C42 C43 C44 N6 0.4(5) . .
C42 C43 C44 C45 179.9(4) . .
N6 C44 C45 C36 -0.1(7) . 2_676
C43 C44 C45 C36 -179.4(4) . 2_676
N6 C44 C45 C55 178.7(4) . .
C43 C44 C45 C55 -0.7(7) . .
C41 C40 C46 C51 90.3(5) . .
C39 C40 C46 C51 -90.5(5) . .
C41 C40 C46 C47 -93.8(5) . .
C39 C40 C46 C47 85.3(5) . .
C51 C46 C47 C48 -0.6(6) . .
C40 C46 C47 C48 -176.6(3) . .
C51 C46 C47 C52 -179.6(4) . .
C40 C46 C47 C52 4.4(6) . .
C46 C47 C48 C49 -0.9(6) . .
C52 C47 C48 C49 178.1(4) . .
C47 C48 C49 C50 1.1(6) . .
C47 C48 C49 C53 -178.6(4) . .
C48 C49 C50 C51 0.1(6) . .
C53 C49 C50 C51 179.9(4) . .
C49 C50 C51 C46 -1.6(7) . .
C49 C50 C51 C54 177.2(4) . .
C47 C46 C51 C50 1.8(6) . .
C40 C46 C51 C50 177.7(4) . .
C47 C46 C51 C54 -177.0(4) . .
C40 C46 C51 C54 -1.1(7) . .
C44 C45 C55 C60 -88.8(5) . .
C36 C45 C55 C60 89.9(5) 2_676 .
C44 C45 C55 C56 96.1(5) . .
C36 C45 C55 C56 -85.1(5) 2_676 .
C60 C55 C56 C57 -2.0(6) . .
C45 C55 C56 C57 173.0(4) . .
C60 C55 C56 C61 178.5(4) . .
C45 C55 C56 C61 -6.4(6) . .
C55 C56 C57 C58 2.4(6) . .
C61 C56 C57 C58 -178.1(4) . .
C56 C57 C58 C59 -0.3(6) . .
C56 C57 C58 C62 177.4(4) . .
C57 C58 C59 C60 -2.1(6) . .
C62 C58 C59 C60 -179.8(4) . .
C58 C59 C60 C55 2.5(6) . .
C58 C59 C60 C63 -177.7(4) . .
C56 C55 C60 C59 -0.3(6) . .
C45 C55 C60 C59 -175.3(4) . .
C56 C55 C60 C63 179.9(4) . .
C45 C55 C60 C63 4.9(6) . .
C68 N7 C64 C65 0.2(6) . .
O2 N7 C64 C65 171.2(4) . .
N7 C64 C65 C66 0.3(6) . .
C70 N8 C66 C65 -175.0(4) . .
C69 N8 C66 C65 -7.5(6) . .
C70 N8 C66 C67 4.3(7) . .
C69 N8 C66 C67 171.8(4) . .
C64 C65 C66 N8 179.1(4) . .
C64 C65 C66 C67 -0.2(6) . .
N8 C66 C67 C68 -179.7(4) . .
C65 C66 C67 C68 -0.3(6) . .
C64 N7 C68 C67 -0.8(6) . .
O2 N7 C68 C67 -171.7(4) . .
C66 C67 C68 N7 0.9(6) . .
C76 C71 C72 C73 0.2(8) . .
C77 C71 C72 C73 -177.6(5) . .
C71 C72 C73 C74 0.1(9) . .
C72 C73 C74 C75 -0.7(9) . .
C73 C74 C75 C76 0.9(8) . .
C74 C75 C76 C71 -0.6(8) . .
C72 C71 C76 C75 0.0(8) . .
C77 C71 C76 C75 177.9(5) . .
C83 C78 C79 C80 -1.0(8) . .
C84 C78 C79 C80 178.2(5) . .
C78 C79 C80 C81 2.0(8) . .
C79 C80 C81 C82 -1.3(8) . .
C80 C81 C82 C83 -0.4(7) . .
C79 C78 C83 C82 -0.8(7) . .
C84 C78 C83 C82 -179.9(5) . .
C81 C82 C83 C78 1.4(7) . .
