#------------------------------------------------------------------------------
#$Date: 2017-02-04 16:06:38 +0200 (Sat, 04 Feb 2017) $
#$Revision: 191685 $
#$URL: file:///home/coder/svn-repositories/cod/cif/7/04/12/7041266.cif $
#------------------------------------------------------------------------------
#
# This file is available in the Crystallography Open Database (COD),
# http://www.crystallography.net/
#
# All data on this site have been placed in the public domain by the
# contributors.
#
data_7041266
loop_
_publ_author_name
'Ide, Yuki'
'Murai, Nami'
'Ishimae, Hiroki'
'Suzuki, Masaaki'
'Mori, Shigeki'
'Takahashi, Masashi'
'Nakamura, Mikio'
'Yoshino, Katsumi'
'Ikeue, Takahisa'
_publ_section_title
;
 Spin-crossover between high-spin (S = 5/2) and low-spin (S = 1/2) states
 in six-coordinate iron(iii) porphyrin complexes having two pyridine-N
 oxide derivatives.
;
_journal_issue                   1
_journal_name_full
'Dalton transactions (Cambridge, England : 2003)'
_journal_page_first              242
_journal_page_last               249
_journal_paper_doi               10.1039/c6dt03859j
_journal_volume                  46
_journal_year                    2016
_chemical_formula_moiety         'C66 H60 Cl2 Fe N6 O2, B F4, 2(C H2 Cl2)'
_chemical_formula_sum            'C68 H64 B Cl6 F4 Fe N6 O2'
_chemical_formula_weight         1352.61
_chemical_name_systematic        FeTMP4ClPYNO2BF4
_space_group_crystal_system      triclinic
_space_group_IT_number           2
_space_group_name_Hall           '-P 1'
_space_group_name_H-M_alt        'P -1'
_symmetry_space_group_name_Hall  '-P 1'
_symmetry_space_group_name_H-M   'P -1'
_atom_sites_solution_hydrogens   geom
_atom_sites_solution_primary     direct
_atom_sites_solution_secondary   difmap
_audit_creation_method           SHELXL-2014/7
_audit_update_record
;
2016-06-23 deposited with the CCDC.
2016-11-28 downloaded from the CCDC.
;
_cell_angle_alpha                109.92(2)
_cell_angle_beta                 95.24(2)
_cell_angle_gamma                100.087(16)
_cell_formula_units_Z            2
_cell_length_a                   12.983(5)
_cell_length_b                   13.837(5)
_cell_length_c                   19.824(6)
_cell_measurement_reflns_used    9118
_cell_measurement_temperature    100(2)
_cell_measurement_theta_max      30.98
_cell_measurement_theta_min      2.01
_cell_volume                     3252(2)
_computing_cell_refinement       CrystalClear
_computing_data_collection       'CrystalClear (Rigaku Inc., 2008)'
_computing_data_reduction        CrystalClear
_computing_molecular_graphics    'CrystalStructure 4.1.1 (Rigaku, 2015)'
_computing_publication_material  'CrystalStructure 4.1.1'
_computing_structure_refinement  'SHELXL-2014/7 (Sheldrick, 2014)'
_computing_structure_solution    'SIR2011 (Burla, et al., 2012)'
_diffrn_ambient_temperature      100(2)
_diffrn_detector_area_resol_mean 7.111
_diffrn_measured_fraction_theta_full 0.999
_diffrn_measured_fraction_theta_max 0.997
_diffrn_measurement_device_type  'Rigaku Saturn724'
_diffrn_measurement_method       \w
_diffrn_radiation_type           MoK\a
_diffrn_radiation_wavelength     0.71075
_diffrn_reflns_av_R_equivalents  0.0995
_diffrn_reflns_av_unetI/netI     0.0967
_diffrn_reflns_Laue_measured_fraction_full 0.999
_diffrn_reflns_Laue_measured_fraction_max 0.997
_diffrn_reflns_limit_h_max       17
_diffrn_reflns_limit_h_min       -17
_diffrn_reflns_limit_k_max       18
_diffrn_reflns_limit_k_min       -18
_diffrn_reflns_limit_l_max       26
_diffrn_reflns_limit_l_min       -26
_diffrn_reflns_number            55424
_diffrn_reflns_point_group_measured_fraction_full 0.999
_diffrn_reflns_point_group_measured_fraction_max 0.997
_diffrn_reflns_theta_full        25.242
_diffrn_reflns_theta_max         28.000
_diffrn_reflns_theta_min         2.010
_diffrn_source                   'Varimax 50 kV 18 mA Rotating anode'
_exptl_absorpt_coefficient_mu    0.540
_exptl_absorpt_correction_T_max  0.948
_exptl_absorpt_correction_T_min  0.863
_exptl_absorpt_correction_type   multi-scan
_exptl_absorpt_process_details   'REQAB (Rigaku, 1998)'
_exptl_crystal_colour            brown
_exptl_crystal_density_diffrn    1.381
_exptl_crystal_density_method    'not measured'
_exptl_crystal_description       block
_exptl_crystal_F_000             1398
_exptl_crystal_size_max          0.150
_exptl_crystal_size_mid          0.150
_exptl_crystal_size_min          0.100
_refine_diff_density_max         0.809
_refine_diff_density_min         -0.906
_refine_diff_density_rms         0.077
_refine_ls_extinction_method     none
_refine_ls_goodness_of_fit_ref   1.053
_refine_ls_hydrogen_treatment    constr
_refine_ls_matrix_type           full
_refine_ls_number_parameters     836
_refine_ls_number_reflns         15661
_refine_ls_number_restraints     6
_refine_ls_restrained_S_all      1.053
_refine_ls_R_factor_all          0.0843
_refine_ls_R_factor_gt           0.0683
_refine_ls_shift/su_max          0.000
_refine_ls_shift/su_mean         0.000
_refine_ls_structure_factor_coef Fsqd
_refine_ls_weighting_details
'w=1/[\s^2^(Fo^2^)+(0.0500P)^2^+4.0000P] where P=(Fo^2^+2Fc^2^)/3'
_refine_ls_weighting_scheme      calc
_refine_ls_wR_factor_gt          0.1439
_refine_ls_wR_factor_ref         0.1552
_reflns_Friedel_coverage         0.000
_reflns_number_gt                12684
_reflns_number_total             15661
_reflns_threshold_expression     'I > 2\s(I)'
_cod_data_source_file            c6dt03859j3.cif
_cod_data_source_block           shelxl
_cod_depositor_comments
'Adding full bibliography for 7041264--7041268.cif.'
_cod_original_cell_volume        3252.3(19)
_cod_database_code               7041266
_shelx_shelxl_version_number     2014/7
_shelx_space_group_comment
;
The symmetry employed for this shelxl refinement is uniquely defined
by the following loop, which should always be used as a source of
symmetry information in preference to the above space-group names.
They are only intended as comments.
;
_shelx_estimated_absorpt_t_min   0.923
_shelx_estimated_absorpt_t_max   0.948
_shelx_res_file
;

    shelxl.res created by SHELXL-2014/7


TITL ProfIKEUE
CELL  0.71075 12.98290 13.83730 19.82360 109.919 95.237 100.087
ZERR  2 0.00490 0.00450 0.00571 0.020 0.020 0.016
LATT 1
SFAC C H B CL F FE N O
UNIT 136 128 2 12 8 2 12 4
SHEL 99999.000000 0.756965
L.S. 30
FMAP 2
PLAN -5
WPDB -2
HTAB
BOND $H
CONF
LIST 4
TEMP -173.0
ACTA
DFIX 1.76 0.02 C68 CL5 C68 CL6
DFIX 2.90 0.04 CL5 CL6
DFIX 1.76 0.02 C68A CL5A C68A CL6A
DFIX 2.90 0.04 CL5A CL6A
SIZE 0.150 0.150 0.100
WGHT    0.050000    4.000000
FVAR       0.33661   0.65586
FE1   6    0.500000    0.500000    0.000000    10.50000    0.01820    0.01807 =
         0.01642    0.00575    0.00343    0.00349
FE2   6    1.000000    0.500000    0.500000    10.50000    0.02520    0.01996 =
         0.01425    0.00558    0.00174    0.00593
CL1   4   -0.053006    0.390089    0.057498    11.00000    0.02932    0.13297 =
         0.11450    0.10386    0.03053    0.02730
CL2   4    0.731294    0.497419    0.168344    11.00000    0.02952    0.04349 =
         0.02410    0.01731    0.00054    0.00630
CL3   4    0.255122    0.942888    0.018178    11.00000    0.07952    0.03838 =
         0.05284    0.02332   -0.00043    0.01481
CL4   4    0.317827    0.750734    0.018883    11.00000    0.03566    0.03492 =
         0.03830    0.01429    0.00801    0.01091
F1    5    0.126638    0.852460    0.275285    11.00000    0.05239    0.04318 =
         0.04012    0.00975    0.01119    0.01564
F2    5   -0.025310    0.738999    0.204023    11.00000    0.02803    0.07353 =
         0.06118    0.04103    0.01407    0.01725
F3    5    0.124072    0.760542    0.154867    11.00000    0.03513    0.05525 =
         0.03578    0.02205    0.01082    0.00663
F4    5    0.115090    0.675764    0.235926    11.00000    0.03137    0.04270 =
         0.04783    0.02377    0.01204    0.01218
O1    8    0.348946    0.518023   -0.024432    11.00000    0.01724    0.03232 =
         0.02778    0.01707    0.00644    0.00510
O2    8    0.969263    0.606441    0.455156    11.00000    0.04515    0.02620 =
         0.02134    0.00927   -0.00627    0.00710
N1    7    0.446164    0.339575   -0.030783    11.00000    0.02254    0.01629 =
         0.01487    0.00457    0.00296    0.00175
N2    7    0.484203    0.516590    0.105227    11.00000    0.01948    0.01852 =
         0.01579    0.00483    0.00425    0.00311
N3    7    0.260889    0.482125   -0.002454    11.00000    0.01821    0.02526 =
         0.01974    0.01069    0.00376    0.00627
N4    7    0.895254    0.545366    0.570059    11.00000    0.02368    0.02209 =
         0.01646    0.00197    0.00102    0.00447
N5    7    0.882678    0.376766    0.432045    11.00000    0.02498    0.02237 =
         0.01635    0.00572    0.00236    0.00577
N6    7    0.913957    0.577281    0.388398    11.00000    0.03076    0.02555 =
         0.01949    0.01156   -0.00097    0.00569
C1    1    0.435411    0.266154   -0.100480    11.00000    0.02116    0.02003 =
         0.02099    0.00637    0.00348    0.00280
C2    1    0.402334    0.161912   -0.099133    11.00000    0.03578    0.01765 =
         0.02373    0.00412    0.00843    0.00111
AFIX  43
H2    2    0.389002    0.097389   -0.139568    11.00000   -1.20000
AFIX   0
C3    1    0.393808    0.173239   -0.029233    11.00000    0.03615    0.01945 =
         0.02594    0.00771    0.00971    0.00222
AFIX  43
H3    2    0.373084    0.117851   -0.011877    11.00000   -1.20000
AFIX   0
C4    1    0.421767    0.284140    0.013892    11.00000    0.02322    0.02069 =
         0.01979    0.00822    0.00519    0.00494
C5    1    0.424375    0.328147    0.089283    11.00000    0.02074    0.02355 =
         0.02303    0.00972    0.00482    0.00493
C6    1    0.453607    0.436742    0.130893    11.00000    0.02152    0.02198 =
         0.01915    0.00965    0.00453    0.00422
C7    1    0.457736    0.482510    0.208666    11.00000    0.02889    0.02462 =
         0.01924    0.00895    0.00817    0.00587
AFIX  43
H7    2    0.439640    0.445376    0.239864    11.00000   -1.20000
AFIX   0
C8    1    0.492277    0.588466    0.228955    11.00000    0.02687    0.02282 =
         0.01786    0.00604    0.00581    0.00635
AFIX  43
H8    2    0.503018    0.638945    0.276990    11.00000   -1.20000
AFIX   0
C9    1    0.509596    0.610210    0.164434    11.00000    0.02025    0.02109 =
         0.01625    0.00459    0.00476    0.00511
C10   1    0.545378    0.711620    0.162920    11.00000    0.01806    0.02121 =
         0.01915    0.00513    0.00377    0.00202
C11   1    0.394030    0.255795    0.129952    11.00000    0.02919    0.01858 =
         0.01905    0.00686    0.00503    0.00501
C12   1    0.288230    0.232600    0.140852    11.00000    0.02798    0.01853 =
         0.01843    0.00469    0.00610    0.00270
C13   1    0.261976    0.170488    0.181753    11.00000    0.03324    0.02112 =
         0.02647    0.00735    0.01234    0.00579
AFIX  43
H13   2    0.190250    0.153496    0.188044    11.00000   -1.20000
AFIX   0
C14   1    0.337549    0.132504    0.213717    11.00000    0.04782    0.01898 =
         0.02597    0.00960    0.01003    0.00827
C15   1    0.440587    0.154954    0.201522    11.00000    0.04111    0.02839 =
         0.03316    0.01641    0.00408    0.01214
AFIX  43
H15   2    0.492949    0.128659    0.222335    11.00000   -1.20000
AFIX   0
C16   1    0.470155    0.215103    0.159548    11.00000    0.03101    0.02648 =
         0.03181    0.01188    0.00619    0.00640
C17   1    0.204246    0.276184    0.110693    11.00000    0.02735    0.03175 =
         0.03596    0.01656    0.00576    0.00437
AFIX 137
H17A  2    0.215400    0.351867    0.138484    11.00000   -1.20000
H17B  2    0.134100    0.240280    0.114416    11.00000   -1.20000
H17C  2    0.208575    0.264773    0.059550    11.00000   -1.20000
AFIX   0
C18   1    0.307043    0.069480    0.261216    11.00000    0.06522    0.03587 =
         0.03966    0.02368    0.01400    0.01085
AFIX 137
H18A  2    0.291050    0.116084    0.306828    11.00000   -1.20000
H18B  2    0.366043    0.038589    0.271842    11.00000   -1.20000
H18C  2    0.244369    0.013134    0.235602    11.00000   -1.20000
AFIX   0
C19   1    0.583914    0.233920    0.148070    11.00000    0.03399    0.06084 =
         0.07340    0.04589    0.01254    0.01700
AFIX 137
H19A  2    0.589601    0.187291    0.099324    11.00000   -1.20000
H19B  2    0.628175    0.219226    0.184572    11.00000   -1.20000
H19C  2    0.607997    0.307485    0.152845    11.00000   -1.20000
AFIX   0
C20   1    0.563424    0.802586    0.234416    11.00000    0.02703    0.01853 =
         0.02009    0.00617    0.00621    0.00446
C21   1    0.475390    0.835954    0.264387    11.00000    0.02834    0.02400 =
         0.02103    0.01089    0.00745    0.00812
C22   1    0.492950    0.916940    0.332968    11.00000    0.03384    0.02202 =
         0.02344    0.00802    0.00953    0.01163
AFIX  43
H22   2    0.433893    0.939882    0.353085    11.00000   -1.20000
AFIX   0
C23   1    0.594099    0.964358    0.372145    11.00000    0.04238    0.01968 =
         0.02412    0.00544    0.00784    0.00467
C24   1    0.680095    0.932284    0.340981    11.00000    0.03135    0.02509 =
         0.02543    0.00290    0.00105   -0.00209
AFIX  43
H24   2    0.749831    0.965565    0.366800    11.00000   -1.20000
AFIX   0
C25   1    0.666500    0.852131    0.272470    11.00000    0.02511    0.02546 =
         0.02218    0.00609    0.00425    0.00182
C26   1    0.364184    0.786711    0.225406    11.00000    0.02912    0.03179 =
         0.02798    0.00807    0.00685    0.00988
AFIX 137
H26A  2    0.360717    0.779094    0.174206    11.00000   -1.20000
H26B  2    0.316680    0.831622    0.247843    11.00000   -1.20000
H26C  2    0.342319    0.717164    0.228637    11.00000   -1.20000
AFIX   0
C27   1    0.608208    1.045795    0.448260    11.00000    0.04952    0.02888 =
         0.02683   -0.00304    0.00964    0.00402
AFIX 137
H27A  2    0.602064    1.010187    0.483277    11.00000   -1.20000
H27B  2    0.553333    1.086796    0.450881    11.00000   -1.20000
H27C  2    0.678347    1.093041    0.459819    11.00000   -1.20000
AFIX   0
C28   1    0.762466    0.819475    0.241492    11.00000    0.02527    0.03702 =
         0.02981    0.00065    0.00428    0.00189
AFIX 137
H28A  2    0.756692    0.744099    0.231273    11.00000   -1.20000
H28B  2    0.826708    0.859858    0.276739    11.00000   -1.20000
H28C  2    0.766264    0.833282    0.196365    11.00000   -1.20000
AFIX   0
C29   1    0.189919    0.396721   -0.049579    11.00000    0.02922    0.02659 =
         0.02147    0.01011   -0.00266    0.00060
AFIX  43
H29   2    0.207237    0.357319   -0.094950    11.00000   -1.20000
AFIX   0
C30   1    0.092495    0.367002   -0.031648    11.00000    0.02720    0.04967 =
         0.04242    0.03302   -0.00858   -0.00517
AFIX  43
H30   2    0.041383    0.308142   -0.064843    11.00000   -1.20000
AFIX   0
C31   1    0.070233    0.424078    0.035332    11.00000    0.02564    0.06597 =
         0.05540    0.04749    0.01521    0.01779
C32   1    0.144903    0.508707    0.084193    11.00000    0.03818    0.05089 =
         0.03855    0.02833    0.02032    0.02697
AFIX  43
H32   2    0.130579    0.546431    0.130967    11.00000   -1.20000
AFIX   0
C33   1    0.240158    0.537044    0.063672    11.00000    0.03407    0.02727 =
         0.02185    0.00880    0.00778    0.01449
AFIX  43
H33   2    0.292039    0.595801    0.096226    11.00000   -1.20000
AFIX   0
C34   1    0.915514    0.633825    0.632855    11.00000    0.02848    0.02306 =
         0.02208    0.00368    0.00413    0.00590
C35   1    0.820732    0.638988    0.664976    11.00000    0.02909    0.02858 =
         0.02458   -0.00003    0.00638    0.00844
AFIX  43
H35   2    0.813042    0.691932    0.708530    11.00000   -1.20000
AFIX   0
C36   1    0.744749    0.555048    0.622062    11.00000    0.02736    0.03292 =
         0.02636    0.00407    0.00801    0.00811
AFIX  43
H36   2    0.673906    0.537959    0.630023    11.00000   -1.20000
AFIX   0
C37   1    0.790717    0.495631    0.561606    11.00000    0.02685    0.02598 =
         0.02153    0.00659    0.00460    0.00655
C38   1    0.736810    0.403073    0.504564    11.00000    0.02720    0.02274 =
         0.02042    0.00775    0.00219    0.00410
C39   1    0.782028    0.346771    0.444989    11.00000    0.02727    0.02144 =
         0.01828    0.00590    0.00214    0.00498
C40   1    0.729441    0.247924    0.389056    11.00000    0.03032    0.02514 =
         0.01987    0.00454    0.00227    0.00090
AFIX  43
H40   2    0.658742    0.210995    0.384737    11.00000   -1.20000
AFIX   0
C41   1    0.799286    0.217094    0.343605    11.00000    0.03304    0.02038 =
         0.02050    0.00253    0.00363    0.00361
AFIX  43
H41   2    0.786663    0.154446    0.301730    11.00000   -1.20000
AFIX   0
C42   1    0.896155    0.296878    0.370544    11.00000    0.02912    0.02034 =
         0.01654    0.00520    0.00097    0.00540
C43   1    0.988632    0.291612    0.339487    11.00000    0.03026    0.02148 =
         0.01752    0.00577    0.00351    0.00742
C44   1    0.624650    0.356899    0.508273    11.00000    0.02983    0.02007 =
         0.02148    0.00114    0.00656    0.00386
C45   1    0.539064    0.358217    0.459995    11.00000    0.03128    0.02858 =
         0.02489    0.00597    0.00497    0.00745
C46   1    0.436338    0.311810    0.463523    11.00000    0.02767    0.03238 =
         0.03196    0.01054    0.00174    0.00453
AFIX  43
H46   2    0.378733    0.312132    0.430464    11.00000   -1.20000
AFIX   0
C47   1    0.416260    0.265011    0.514387    11.00000    0.02950    0.02589 =
         0.03595    0.00599    0.00722    0.00211
C48   1    0.501045    0.264531    0.561741    11.00000    0.03617    0.02302 =
         0.02702    0.00658    0.01022    0.00385
AFIX  43
H48   2    0.487820    0.233159    0.596809    11.00000   -1.20000
AFIX   0
C49   1    0.605685    0.308736    0.559705    11.00000    0.03472    0.02254 =
         0.01999    0.00267    0.00658    0.00636
C50   1    0.555030    0.410049    0.404184    11.00000    0.02972    0.04083 =
         0.03514    0.01739    0.00290    0.00794
AFIX 137
H50A  2    0.579253    0.486455    0.429197    11.00000   -1.20000
H50B  2    0.487807    0.394619    0.371700    11.00000   -1.20000
H50C  2    0.608322    0.382481    0.375682    11.00000   -1.20000
AFIX   0
C51   1    0.304587    0.212548    0.516096    11.00000    0.03419    0.04711 =
         0.06285    0.02599    0.00702   -0.00189
AFIX 137
H51A  2    0.298213    0.215850    0.565673    11.00000   -1.20000
H51B  2    0.288873    0.138718    0.483104    11.00000   -1.20000
H51C  2    0.254312    0.249079    0.500618    11.00000   -1.20000
AFIX   0
C52   1    0.694924    0.301073    0.610855    11.00000    0.04010    0.03526 =
         0.02330    0.01007    0.00386    0.00616
AFIX 137
H52A  2    0.717480    0.367729    0.652499    11.00000   -1.20000
H52B  2    0.754831    0.286699    0.585210    11.00000   -1.20000
H52C  2    0.670333    0.243822    0.628028    11.00000   -1.20000
AFIX   0
C53   1    0.983034    0.196605    0.272043    11.00000    0.02677    0.02083 =
         0.02193    0.00230    0.00613    0.00255
C54   1    0.944601    0.197276    0.204087    11.00000    0.03576    0.02345 =
         0.02196    0.00482    0.00706    0.00152
C55   1    0.937891    0.107627    0.141808    11.00000    0.04113    0.03614 =
         0.02122    0.00110    0.00579    0.00160
AFIX  43
H55   2    0.912865    0.108267    0.095442    11.00000   -1.20000
AFIX   0
C56   1    0.966918    0.018507    0.146543    11.00000    0.03829    0.02843 =
         0.03201   -0.00375    0.01046   -0.00031
C57   1    1.003852    0.018760    0.214096    11.00000    0.04567    0.02510 =
         0.04304    0.00568    0.01253    0.01003
AFIX  43
H57   2    1.023867   -0.042361    0.217686    11.00000   -1.20000
AFIX   0
C58   1    1.012576    0.106737    0.277438    11.00000    0.04146    0.02900 =
         0.03313    0.00790    0.00721    0.01281
C59   1    0.909472    0.291778    0.197102    11.00000    0.06935    0.03755 =
         0.02515    0.01353    0.00566    0.01590
AFIX 137
H59A  2    0.861362    0.314144    0.231811    11.00000   -1.20000
H59B  2    0.872600    0.273451    0.147546    11.00000   -1.20000
H59C  2    0.971542    0.349373    0.207393    11.00000   -1.20000
AFIX   0
C60   1    0.956135   -0.079116    0.078222    11.00000    0.07035    0.03910 =
         0.04414   -0.01139    0.01279    0.00857
AFIX 137
H60A  2    0.890308   -0.129683    0.073541    11.00000   -1.20000
H60B  2    1.016697   -0.111578    0.081822    11.00000   -1.20000
H60C  2    0.954479   -0.058747    0.035452    11.00000   -1.20000
AFIX   0
C61   1    1.052491    0.102373    0.350432    11.00000    0.09879    0.05159 =
         0.03996    0.01833    0.00305    0.04361
AFIX 137
H61A  2    1.074510    0.035743    0.342905    11.00000   -1.20000
H61B  2    0.995667    0.107180    0.379943    11.00000   -1.20000
H61C  2    1.113092    0.161376    0.375619    11.00000   -1.20000
AFIX   0
C62   1    0.965917    0.581585    0.333409    11.00000    0.02588    0.03843 =
         0.03204    0.02200    0.00290    0.00197
AFIX  43
H62   2    1.041169    0.601149    0.341770    11.00000   -1.20000
AFIX   0
C63   1    0.910357    0.557705    0.264935    11.00000    0.02653    0.03866 =
         0.02594    0.01856    0.00516    0.00311
AFIX  43
H63   2    0.946857    0.561619    0.226211    11.00000   -1.20000
AFIX   0
C64   1    0.801324    0.528119    0.253403    11.00000    0.02697    0.02876 =
         0.02338    0.01338    0.00416    0.00760
C65   1    0.748992    0.524206    0.310746    11.00000    0.02528    0.03768 =
         0.03039    0.01781    0.00702    0.00682
AFIX  43
H65   2    0.673814    0.504229    0.303488    11.00000   -1.20000
AFIX   0
C66   1    0.807644    0.549701    0.378281    11.00000    0.03208    0.03888 =
         0.02594    0.01914    0.00983    0.01252
AFIX  43
H66   2    0.772679    0.547776    0.418014    11.00000   -1.20000
AFIX   0
C67   1    0.290802    0.872405    0.071785    11.00000    0.05334    0.03577 =
         0.03602    0.01581    0.00896    0.01334
AFIX  23
H67A  2    0.232461    0.859165    0.098563    11.00000   -1.20000
H67B  2    0.354435    0.915375    0.107991    11.00000   -1.20000
AFIX   0
PART 1
CL5   4   -0.078626    0.846789    0.409460    21.00000    0.05534    0.12553 =
         0.08679    0.03548   -0.01797    0.02914
CL6   4    0.107259    0.845572    0.498227    21.00000    0.04856    0.04956 =
         0.05852    0.02327    0.00167    0.01325
C68   1    0.059420    0.891186    0.430854    21.00000    0.06381    0.04254 =
         0.03305    0.00667    0.01440   -0.00608
AFIX  23
H68A  2    0.078368    0.969153    0.449144    21.00000   -1.20000
H68B  2    0.091941    0.864058    0.386838    21.00000   -1.20000
AFIX   0
PART 2
CL5A  4    0.129808    0.952421    0.477295   -21.00000    0.05968    0.07481 =
         0.08230    0.03082   -0.01551   -0.01000
CL6A  4   -0.080643    0.830612    0.413773   -21.00000    0.03174    0.05310 =
         0.16961    0.05481    0.01101    0.00201
C68A  1    0.054240    0.828766    0.426046   -21.00000    0.02692    0.04438 =
         0.12584   -0.00168   -0.02095   -0.00751
AFIX  23
H68C  2    0.065208    0.779164    0.450692   -21.00000   -1.20000
H68D  2    0.077323    0.803523    0.378028   -21.00000   -1.20000
AFIX   0
PART 0
B1    3    0.084988    0.757747    0.217887    11.00000    0.03012    0.04218 =
         0.03353    0.01898    0.01039    0.01089
HKLF 4

REM  ProfIKEUE
REM R1 =  0.0683 for   12684 Fo > 4sig(Fo)  and  0.0843 for all   15661 data
REM    836 parameters refined using      6 restraints

END

WGHT      0.0609      2.1871

REM Instructions for potential hydrogen bonds
EQIV $1 x, y-1, z
HTAB C3 Cl3_$1
EQIV $2 -x, -y+1, -z
HTAB C30 F2_$2
HTAB C30 F3_$2
HTAB C32 F4
EQIV $3 x+1, y, z
HTAB C63 F2_$3
HTAB C63 F4_$3
HTAB C67 F3
HTAB C68 F1
EQIV $4 x-1, y, z
HTAB C68A O2_$4
HTAB C68A F1

REM Highest difference peak  0.809,  deepest hole -0.906,  1-sigma level  0.077
Q1    1   0.1411  0.8752  0.4568  11.00000  0.05    0.81
Q2    1  -0.0547  0.3479  0.0189  11.00000  0.05    0.64
Q3    1  -0.0419  0.4205  0.0685  11.00000  0.05    0.62
Q4    1  -0.0174  0.9577  0.4890  11.00000  0.05    0.51
Q5    1   0.0356  0.8285  0.4742  11.00000  0.05    0.44
;
_shelx_res_checksum              62464
loop_
_space_group_symop_operation_xyz
'x, y, z'
'-x, -y, -z'
loop_
_atom_site_label
_atom_site_type_symbol
_atom_site_fract_x
_atom_site_fract_y
_atom_site_fract_z
_atom_site_U_iso_or_equiv
_atom_site_adp_type
_atom_site_occupancy
_atom_site_site_symmetry_order
_atom_site_calc_flag
_atom_site_refinement_flags_posn
_atom_site_refinement_flags_adp
_atom_site_refinement_flags_occupancy
_atom_site_disorder_assembly
_atom_site_disorder_group
Fe1 Fe 0.5000 0.5000 0.0000 0.01773(12) Uani 1 2 d S . P . .
Fe2 Fe 1.0000 0.5000 0.5000 0.01995(12) Uani 1 2 d S . P . .
Cl1 Cl -0.05301(7) 0.39009(11) 0.05750(7) 0.0740(4) Uani 1 1 d . . . . .
Cl2 Cl 0.73129(6) 0.49742(6) 0.16834(4) 0.03152(17) Uani 1 1 d . . . . .
Cl3 Cl 0.25512(9) 0.94289(7) 0.01818(6) 0.0556(3) Uani 1 1 d . . . . .
Cl4 Cl 0.31783(6) 0.75073(6) 0.01888(4) 0.03549(18) Uani 1 1 d . . . . .
F1 F 0.12664(17) 0.85246(16) 0.27528(11) 0.0458(5) Uani 1 1 d . . . . .
F2 F -0.02531(15) 0.73900(18) 0.20402(12) 0.0486(5) Uani 1 1 d . . . . .
F3 F 0.12407(15) 0.76054(16) 0.15487(10) 0.0407(5) Uani 1 1 d . . . . .
F4 F 0.11509(14) 0.67576(15) 0.23593(10) 0.0378(4) Uani 1 1 d . . . . .
O1 O 0.34895(14) 0.51802(15) -0.02443(10) 0.0240(4) Uani 1 1 d . . . . .
O2 O 0.96926(18) 0.60644(16) 0.45516(11) 0.0316(5) Uani 1 1 d . . . . .
N1 N 0.44616(17) 0.33957(16) -0.03078(11) 0.0185(4) Uani 1 1 d . . . . .
N2 N 0.48420(17) 0.51659(17) 0.10523(11) 0.0184(4) Uani 1 1 d . . . . .
N3 N 0.26089(17) 0.48213(18) -0.00245(12) 0.0202(4) Uani 1 1 d . . . . .
N4 N 0.89525(18) 0.54537(18) 0.57006(12) 0.0223(5) Uani 1 1 d . . . . .
N5 N 0.88268(18) 0.37677(18) 0.43205(12) 0.0216(5) Uani 1 1 d . . . . .
N6 N 0.91396(19) 0.57728(18) 0.38840(12) 0.0248(5) Uani 1 1 d . . . . .
C1 C 0.4354(2) 0.2662(2) -0.10048(14) 0.0212(5) Uani 1 1 d . . . . .
C2 C 0.4023(2) 0.1619(2) -0.09913(15) 0.0270(6) Uani 1 1 d . . . . .
H2 H 0.3890 0.0974 -0.1396 0.032 Uiso 1 1 calc R U . . .
C3 C 0.3938(2) 0.1732(2) -0.02923(15) 0.0275(6) Uani 1 1 d . . . . .
H3 H 0.3731 0.1179 -0.0119 0.033 Uiso 1 1 calc R U . . .
C4 C 0.4218(2) 0.2841(2) 0.01389(14) 0.0209(5) Uani 1 1 d . . . . .
C5 C 0.4244(2) 0.3281(2) 0.08928(15) 0.0220(5) Uani 1 1 d . . . . .
C6 C 0.4536(2) 0.4367(2) 0.13089(14) 0.0203(5) Uani 1 1 d . . . . .
C7 C 0.4577(2) 0.4825(2) 0.20867(14) 0.0237(6) Uani 1 1 d . . . . .
H7 H 0.4396 0.4454 0.2399 0.028 Uiso 1 1 calc R U . . .
C8 C 0.4923(2) 0.5885(2) 0.22896(14) 0.0226(5) Uani 1 1 d . . . . .
H8 H 0.5030 0.6389 0.2770 0.027 Uiso 1 1 calc R U . . .
C9 C 0.5096(2) 0.6102(2) 0.16443(14) 0.0196(5) Uani 1 1 d . . . . .
C10 C 0.5454(2) 0.7116(2) 0.16292(14) 0.0203(5) Uani 1 1 d . . . . .
C11 C 0.3940(2) 0.2558(2) 0.12995(14) 0.0222(5) Uani 1 1 d . . . . .
C12 C 0.2882(2) 0.2326(2) 0.14085(14) 0.0224(5) Uani 1 1 d . . . . .
C13 C 0.2620(2) 0.1705(2) 0.18175(15) 0.0268(6) Uani 1 1 d . . . . .
H13 H 0.1902 0.1535 0.1880 0.032 Uiso 1 1 calc R U . . .
C14 C 0.3375(3) 0.1325(2) 0.21372(16) 0.0302(7) Uani 1 1 d . . . . .
C15 C 0.4406(3) 0.1550(2) 0.20152(17) 0.0324(7) Uani 1 1 d . . . . .
H15 H 0.4929 0.1287 0.2223 0.039 Uiso 1 1 calc R U . . .
C16 C 0.4702(2) 0.2151(2) 0.15955(17) 0.0293(6) Uani 1 1 d . . . . .
C17 C 0.2042(2) 0.2762(2) 0.11069(17) 0.0308(6) Uani 1 1 d . . . . .
H17A H 0.2154 0.3519 0.1385 0.037 Uiso 1 1 calc R U . . .
H17B H 0.1341 0.2403 0.1144 0.037 Uiso 1 1 calc R U . . .
H17C H 0.2086 0.2648 0.0595 0.037 Uiso 1 1 calc R U . . .
C18 C 0.3070(3) 0.0695(3) 0.26122(19) 0.0439(9) Uani 1 1 d . . . . .
H18A H 0.2910 0.1161 0.3068 0.053 Uiso 1 1 calc R U . . .
H18B H 0.3660 0.0386 0.2718 0.053 Uiso 1 1 calc R U . . .
H18C H 0.2444 0.0131 0.2356 0.053 Uiso 1 1 calc R U . . .
C19 C 0.5839(3) 0.2339(3) 0.1481(2) 0.0492(10) Uani 1 1 d . . . . .
H19A H 0.5896 0.1873 0.0993 0.059 Uiso 1 1 calc R U . . .
H19B H 0.6282 0.2192 0.1846 0.059 Uiso 1 1 calc R U . . .
H19C H 0.6080 0.3075 0.1528 0.059 Uiso 1 1 calc R U . . .
C20 C 0.5634(2) 0.8026(2) 0.23442(14) 0.0220(5) Uani 1 1 d . . . . .
C21 C 0.4754(2) 0.8360(2) 0.26439(15) 0.0232(6) Uani 1 1 d . . . . .
C22 C 0.4930(2) 0.9169(2) 0.33297(15) 0.0255(6) Uani 1 1 d . . . . .
H22 H 0.4339 0.9399 0.3531 0.031 Uiso 1 1 calc R U . . .
C23 C 0.5941(3) 0.9644(2) 0.37215(16) 0.0295(6) Uani 1 1 d . . . . .
C24 C 0.6801(2) 0.9323(2) 0.34098(16) 0.0303(6) Uani 1 1 d . . . . .
H24 H 0.7498 0.9656 0.3668 0.036 Uiso 1 1 calc R U . . .
C25 C 0.6665(2) 0.8521(2) 0.27247(15) 0.0254(6) Uani 1 1 d . . . . .
C26 C 0.3642(2) 0.7867(2) 0.22541(16) 0.0298(6) Uani 1 1 d . . . . .
H26A H 0.3607 0.7791 0.1742 0.036 Uiso 1 1 calc R U . . .
H26B H 0.3167 0.8316 0.2478 0.036 Uiso 1 1 calc R U . . .
H26C H 0.3423 0.7172 0.2286 0.036 Uiso 1 1 calc R U . . .
C27 C 0.6082(3) 1.0458(3) 0.44826(17) 0.0390(8) Uani 1 1 d . . . . .
H27A H 0.6021 1.0102 0.4833 0.047 Uiso 1 1 calc R U . . .
H27B H 0.5533 1.0868 0.4509 0.047 Uiso 1 1 calc R U . . .
H27C H 0.6783 1.0930 0.4598 0.047 Uiso 1 1 calc R U . . .
C28 C 0.7625(2) 0.8195(3) 0.24149(17) 0.0344(7) Uani 1 1 d . . . . .
H28A H 0.7567 0.7441 0.2313 0.041 Uiso 1 1 calc R U . . .
H28B H 0.8267 0.8599 0.2767 0.041 Uiso 1 1 calc R U . . .
H28C H 0.7663 0.8333 0.1964 0.041 Uiso 1 1 calc R U . . .
C29 C 0.1899(2) 0.3967(2) -0.04958(15) 0.0266(6) Uani 1 1 d . . . . .
H29 H 0.2072 0.3573 -0.0950 0.032 Uiso 1 1 calc R U . . .
C30 C 0.0925(2) 0.3670(3) -0.03165(19) 0.0382(8) Uani 1 1 d . . . . .
H30 H 0.0414 0.3081 -0.0648 0.046 Uiso 1 1 calc R U . . .
C31 C 0.0702(2) 0.4241(3) 0.0353(2) 0.0406(8) Uani 1 1 d . . . . .
C32 C 0.1449(3) 0.5087(3) 0.08419(18) 0.0361(8) Uani 1 1 d . . . . .
H32 H 0.1306 0.5464 0.1310 0.043 Uiso 1 1 calc R U . . .
C33 C 0.2402(2) 0.5370(2) 0.06367(15) 0.0265(6) Uani 1 1 d . . . . .
H33 H 0.2920 0.5958 0.0962 0.032 Uiso 1 1 calc R U . . .
C34 C 0.9155(2) 0.6338(2) 0.63285(15) 0.0257(6) Uani 1 1 d . . . . .
C35 C 0.8207(2) 0.6390(2) 0.66498(16) 0.0296(6) Uani 1 1 d . . . . .
H35 H 0.8130 0.6919 0.7085 0.036 Uiso 1 1 calc R U . . .
C36 C 0.7447(2) 0.5550(2) 0.62206(16) 0.0302(6) Uani 1 1 d . . . . .
H36 H 0.6739 0.5380 0.6300 0.036 Uiso 1 1 calc R U . . .
C37 C 0.7907(2) 0.4956(2) 0.56161(15) 0.0252(6) Uani 1 1 d . . . . .
C38 C 0.7368(2) 0.4031(2) 0.50456(15) 0.0238(6) Uani 1 1 d . . . . .
C39 C 0.7820(2) 0.3468(2) 0.44499(14) 0.0228(5) Uani 1 1 d . . . . .
C40 C 0.7294(2) 0.2479(2) 0.38906(15) 0.0269(6) Uani 1 1 d . . . . .
H40 H 0.6587 0.2110 0.3847 0.032 Uiso 1 1 calc R U . . .
C41 C 0.7993(2) 0.2171(2) 0.34360(15) 0.0263(6) Uani 1 1 d . . . . .
H41 H 0.7867 0.1544 0.3017 0.032 Uiso 1 1 calc R U . . .
C42 C 0.8962(2) 0.2969(2) 0.37054(14) 0.0226(5) Uani 1 1 d . . . . .
C43 C 0.9886(2) 0.2916(2) 0.33949(14) 0.0232(6) Uani 1 1 d . . . . .
C44 C 0.6247(2) 0.3569(2) 0.50827(15) 0.0256(6) Uani 1 1 d . . . . .
C45 C 0.5391(2) 0.3582(2) 0.46000(16) 0.0291(6) Uani 1 1 d . . . . .
C46 C 0.4363(2) 0.3118(2) 0.46352(17) 0.0315(7) Uani 1 1 d . . . . .
H46 H 0.3787 0.3121 0.4305 0.038 Uiso 1 1 calc R U . . .
C47 C 0.4163(2) 0.2650(2) 0.51439(17) 0.0322(7) Uani 1 1 d . . . . .
C48 C 0.5010(2) 0.2645(2) 0.56174(16) 0.0294(6) Uani 1 1 d . . . . .
H48 H 0.4878 0.2332 0.5968 0.035 Uiso 1 1 calc R U . . .
C49 C 0.6057(2) 0.3087(2) 0.55970(15) 0.0270(6) Uani 1 1 d . . . . .
C50 C 0.5550(3) 0.4100(3) 0.40418(17) 0.0344(7) Uani 1 1 d . . . . .
H50A H 0.5793 0.4865 0.4292 0.041 Uiso 1 1 calc R U . . .
H50B H 0.4878 0.3946 0.3717 0.041 Uiso 1 1 calc R U . . .
H50C H 0.6083 0.3825 0.3757 0.041 Uiso 1 1 calc R U . . .
C51 C 0.3046(3) 0.2125(3) 0.5161(2) 0.0479(9) Uani 1 1 d . . . . .
H51A H 0.2982 0.2159 0.5657 0.058 Uiso 1 1 calc R U . . .
H51B H 0.2889 0.1387 0.4831 0.058 Uiso 1 1 calc R U . . .
H51C H 0.2543 0.2491 0.5006 0.058 Uiso 1 1 calc R U . . .
C52 C 0.6949(3) 0.3011(3) 0.61085(16) 0.0334(7) Uani 1 1 d . . . . .
H52A H 0.7175 0.3677 0.6525 0.040 Uiso 1 1 calc R U . . .
H52B H 0.7548 0.2867 0.5852 0.040 Uiso 1 1 calc R U . . .
H52C H 0.6703 0.2438 0.6280 0.040 Uiso 1 1 calc R U . . .
C53 C 0.9830(2) 0.1966(2) 0.27204(15) 0.0248(6) Uani 1 1 d . . . . .
C54 C 0.9446(2) 0.1973(2) 0.20409(15) 0.0285(6) Uani 1 1 d . . . . .
C55 C 0.9379(3) 0.1076(3) 0.14181(17) 0.0362(7) Uani 1 1 d . . . . .
H55 H 0.9129 0.1083 0.0954 0.043 Uiso 1 1 calc R U . . .
C56 C 0.9669(3) 0.0185(3) 0.14654(18) 0.0375(8) Uani 1 1 d . . . . .
C57 C 1.0039(3) 0.0188(3) 0.21410(19) 0.0391(8) Uani 1 1 d . . . . .
H57 H 1.0239 -0.0424 0.2177 0.047 Uiso 1 1 calc R U . . .
C58 C 1.0126(3) 0.1067(2) 0.27744(18) 0.0347(7) Uani 1 1 d . . . . .
C59 C 0.9095(3) 0.2918(3) 0.19710(18) 0.0430(8) Uani 1 1 d . . . . .
H59A H 0.8614 0.3141 0.2318 0.052 Uiso 1 1 calc R U . . .
H59B H 0.8726 0.2735 0.1475 0.052 Uiso 1 1 calc R U . . .
H59C H 0.9715 0.3494 0.2074 0.052 Uiso 1 1 calc R U . . .
C60 C 0.9561(4) -0.0791(3) 0.0782(2) 0.0585(11) Uani 1 1 d . . . . .
H60A H 0.8903 -0.1297 0.0735 0.070 Uiso 1 1 calc R U . . .
H60B H 1.0167 -0.1116 0.0818 0.070 Uiso 1 1 calc R U . . .
H60C H 0.9545 -0.0587 0.0355 0.070 Uiso 1 1 calc R U . . .
C61 C 1.0525(4) 0.1024(3) 0.3504(2) 0.0600(12) Uani 1 1 d . . . . .
H61A H 1.0745 0.0357 0.3429 0.072 Uiso 1 1 calc R U . . .
H61B H 0.9957 0.1072 0.3799 0.072 Uiso 1 1 calc R U . . .
H61C H 1.1131 0.1614 0.3756 0.072 Uiso 1 1 calc R U . . .
C62 C 0.9659(2) 0.5816(2) 0.33341(16) 0.0305(7) Uani 1 1 d . . . . .
H62 H 1.0412 0.6011 0.3418 0.037 Uiso 1 1 calc R U . . .
C63 C 0.9104(2) 0.5577(2) 0.26493(16) 0.0290(6) Uani 1 1 d . . . . .
H63 H 0.9469 0.5616 0.2262 0.035 Uiso 1 1 calc R U . . .
C64 C 0.8013(2) 0.5281(2) 0.25340(15) 0.0251(6) Uani 1 1 d . . . . .
C65 C 0.7490(2) 0.5242(2) 0.31075(16) 0.0295(6) Uani 1 1 d . . . . .
H65 H 0.6738 0.5042 0.3035 0.035 Uiso 1 1 calc R U . . .
C66 C 0.8076(2) 0.5497(2) 0.37828(16) 0.0294(6) Uani 1 1 d . . . . .
H66 H 0.7727 0.5478 0.4180 0.035 Uiso 1 1 calc R U . . .
C67 C 0.2908(3) 0.8724(3) 0.07179(19) 0.0404(8) Uani 1 1 d . . . . .
H67A H 0.2325 0.8592 0.0986 0.048 Uiso 1 1 calc R U . . .
H67B H 0.3544 0.9154 0.1080 0.048 Uiso 1 1 calc R U . . .
Cl5 Cl -0.0786(4) 0.8468(5) 0.4095(3) 0.0908(16) Uani 0.656(3) 1 d D . P A 1
Cl6 Cl 0.10726(12) 0.84557(12) 0.49823(9) 0.0514(5) Uani 0.656(3) 1 d D . P A 1
C68 C 0.0594(5) 0.8912(5) 0.4309(3) 0.0502(16) Uani 0.656(3) 1 d D . P A 1
H68A H 0.0784 0.9692 0.4491 0.060 Uiso 0.656(3) 1 calc R U P A 1
H68B H 0.0919 0.8641 0.3868 0.060 Uiso 0.656(3) 1 calc R U P A 1
Cl5A Cl 0.1298(3) 0.9524(3) 0.4773(2) 0.0767(13) Uani 0.344(3) 1 d D . P A 2
Cl6A Cl -0.0806(6) 0.8306(7) 0.4138(7) 0.082(3) Uani 0.344(3) 1 d D . P A 2
C68A C 0.0542(8) 0.8288(10) 0.4260(10) 0.079(5) Uani 0.344(3) 1 d D . P A 2
H68C H 0.0652 0.7792 0.4507 0.094 Uiso 0.344(3) 1 calc R U P A 2
H68D H 0.0773 0.8035 0.3780 0.094 Uiso 0.344(3) 1 calc R U P A 2
B1 B 0.0850(3) 0.7577(3) 0.2179(2) 0.0332(8) Uani 1 1 d . . . . .
loop_
_atom_site_aniso_label
_atom_site_aniso_U_11
_atom_site_aniso_U_22
_atom_site_aniso_U_33
_atom_site_aniso_U_23
_atom_site_aniso_U_13
_atom_site_aniso_U_12
Fe1 0.0182(3) 0.0181(3) 0.0164(3) 0.0057(2) 0.0034(2) 0.0035(2)
Fe2 0.0252(3) 0.0200(3) 0.0143(2) 0.0056(2) 0.0017(2) 0.0059(2)
Cl1 0.0293(4) 0.1330(11) 0.1145(10) 0.1039(9) 0.0305(5) 0.0273(6)
Cl2 0.0295(4) 0.0435(4) 0.0241(3) 0.0173(3) 0.0005(3) 0.0063(3)
Cl3 0.0795(7) 0.0384(5) 0.0528(6) 0.0233(4) -0.0004(5) 0.0148(5)
Cl4 0.0357(4) 0.0349(4) 0.0383(4) 0.0143(3) 0.0080(3) 0.0109(3)
F1 0.0524(13) 0.0432(12) 0.0401(11) 0.0098(9) 0.0112(10) 0.0156(10)
F2 0.0280(10) 0.0735(15) 0.0612(14) 0.0410(12) 0.0141(9) 0.0173(10)
F3 0.0351(10) 0.0552(12) 0.0358(10) 0.0221(9) 0.0108(8) 0.0066(9)
F4 0.0314(10) 0.0427(11) 0.0478(11) 0.0238(9) 0.0120(8) 0.0122(8)
O1 0.0172(9) 0.0323(11) 0.0278(10) 0.0171(9) 0.0064(8) 0.0051(8)
O2 0.0452(13) 0.0262(11) 0.0213(10) 0.0093(8) -0.0063(9) 0.0071(9)
N1 0.0225(11) 0.0163(10) 0.0149(10) 0.0046(8) 0.0030(8) 0.0018(8)
N2 0.0195(11) 0.0185(11) 0.0158(10) 0.0048(9) 0.0042(8) 0.0031(8)
N3 0.0182(11) 0.0253(12) 0.0197(11) 0.0107(9) 0.0038(9) 0.0063(9)
N4 0.0237(12) 0.0221(12) 0.0165(11) 0.0020(9) 0.0010(9) 0.0045(9)
N5 0.0250(12) 0.0224(11) 0.0163(11) 0.0057(9) 0.0024(9) 0.0058(9)
N6 0.0308(13) 0.0255(12) 0.0195(11) 0.0116(10) -0.0010(10) 0.0057(10)
C1 0.0212(13) 0.0200(13) 0.0210(13) 0.0064(11) 0.0035(10) 0.0028(10)
C2 0.0358(16) 0.0176(13) 0.0237(14) 0.0041(11) 0.0084(12) 0.0011(12)
C3 0.0361(16) 0.0194(14) 0.0259(14) 0.0077(11) 0.0097(12) 0.0022(12)
C4 0.0232(13) 0.0207(13) 0.0198(13) 0.0082(11) 0.0052(10) 0.0049(10)
C5 0.0207(13) 0.0235(14) 0.0230(13) 0.0097(11) 0.0048(11) 0.0049(11)
C6 0.0215(13) 0.0220(13) 0.0192(13) 0.0097(10) 0.0045(10) 0.0042(10)
C7 0.0289(14) 0.0246(14) 0.0192(13) 0.0090(11) 0.0082(11) 0.0059(11)
C8 0.0269(14) 0.0228(14) 0.0179(13) 0.0060(11) 0.0058(11) 0.0064(11)
C9 0.0203(12) 0.0211(13) 0.0163(12) 0.0046(10) 0.0048(10) 0.0051(10)
C10 0.0181(12) 0.0212(13) 0.0192(13) 0.0051(10) 0.0038(10) 0.0020(10)
C11 0.0292(14) 0.0186(13) 0.0191(13) 0.0069(10) 0.0050(11) 0.0050(11)
C12 0.0280(14) 0.0185(13) 0.0184(13) 0.0047(10) 0.0061(11) 0.0027(11)
C13 0.0332(16) 0.0211(14) 0.0265(14) 0.0073(11) 0.0123(12) 0.0058(12)
C14 0.0478(19) 0.0190(14) 0.0260(15) 0.0096(12) 0.0100(13) 0.0083(13)
C15 0.0411(18) 0.0284(16) 0.0332(16) 0.0164(13) 0.0041(14) 0.0121(13)
C16 0.0310(16) 0.0265(15) 0.0318(16) 0.0119(13) 0.0062(13) 0.0064(12)
C17 0.0274(15) 0.0318(16) 0.0360(17) 0.0166(13) 0.0058(13) 0.0044(12)
C18 0.065(2) 0.0359(19) 0.0397(19) 0.0237(16) 0.0140(18) 0.0108(17)
C19 0.0340(18) 0.061(2) 0.073(3) 0.046(2) 0.0125(18) 0.0170(17)
C20 0.0270(14) 0.0185(13) 0.0201(13) 0.0062(10) 0.0062(11) 0.0045(11)
C21 0.0283(14) 0.0240(14) 0.0210(13) 0.0109(11) 0.0074(11) 0.0081(11)
C22 0.0338(16) 0.0220(14) 0.0234(14) 0.0080(11) 0.0095(12) 0.0116(12)
C23 0.0424(18) 0.0197(14) 0.0241(14) 0.0054(12) 0.0078(13) 0.0047(12)
C24 0.0314(16) 0.0251(15) 0.0254(15) 0.0029(12) 0.0011(12) -0.0021(12)
C25 0.0251(14) 0.0255(14) 0.0222(14) 0.0061(11) 0.0042(11) 0.0018(11)
C26 0.0291(15) 0.0318(16) 0.0280(15) 0.0081(13) 0.0068(12) 0.0099(12)
C27 0.050(2) 0.0289(17) 0.0268(16) -0.0030(13) 0.0096(15) 0.0040(15)
C28 0.0253(15) 0.0370(18) 0.0298(16) 0.0007(13) 0.0043(12) 0.0019(13)
C29 0.0292(15) 0.0266(15) 0.0215(14) 0.0101(12) -0.0027(11) 0.0006(12)
C30 0.0272(16) 0.050(2) 0.0424(19) 0.0330(17) -0.0086(14) -0.0052(14)
C31 0.0256(16) 0.066(2) 0.055(2) 0.047(2) 0.0152(15) 0.0178(16)
C32 0.0382(18) 0.051(2) 0.0386(18) 0.0283(16) 0.0203(15) 0.0270(16)
C33 0.0341(16) 0.0273(15) 0.0219(14) 0.0088(12) 0.0078(12) 0.0145(12)
C34 0.0285(15) 0.0231(14) 0.0221(14) 0.0037(11) 0.0041(11) 0.0059(11)
C35 0.0291(15) 0.0286(15) 0.0246(14) 0.0000(12) 0.0064(12) 0.0084(12)
C36 0.0274(15) 0.0329(16) 0.0264(15) 0.0041(13) 0.0080(12) 0.0081(12)
C37 0.0268(14) 0.0260(14) 0.0215(13) 0.0066(11) 0.0046(11) 0.0065(11)
C38 0.0272(14) 0.0227(14) 0.0204(13) 0.0078(11) 0.0022(11) 0.0041(11)
C39 0.0273(14) 0.0214(13) 0.0183(13) 0.0059(11) 0.0021(11) 0.0050(11)
C40 0.0303(15) 0.0251(14) 0.0199(13) 0.0045(11) 0.0023(11) 0.0009(12)
C41 0.0330(16) 0.0204(14) 0.0205(13) 0.0025(11) 0.0036(12) 0.0036(11)
C42 0.0291(14) 0.0203(13) 0.0165(12) 0.0052(10) 0.0010(11) 0.0054(11)
C43 0.0303(15) 0.0215(13) 0.0175(13) 0.0058(11) 0.0035(11) 0.0074(11)
C44 0.0298(15) 0.0201(13) 0.0215(13) 0.0011(11) 0.0066(11) 0.0039(11)
C45 0.0313(16) 0.0286(15) 0.0249(14) 0.0060(12) 0.0050(12) 0.0074(12)
C46 0.0277(15) 0.0324(16) 0.0320(16) 0.0105(13) 0.0017(13) 0.0045(12)
C47 0.0295(16) 0.0259(15) 0.0360(17) 0.0060(13) 0.0072(13) 0.0021(12)
C48 0.0362(17) 0.0230(14) 0.0270(15) 0.0066(12) 0.0102(13) 0.0039(12)
C49 0.0347(16) 0.0225(14) 0.0200(13) 0.0027(11) 0.0066(12) 0.0064(12)
C50 0.0297(16) 0.0408(18) 0.0351(17) 0.0174(14) 0.0029(13) 0.0079(14)
C51 0.0342(19) 0.047(2) 0.063(2) 0.0260(19) 0.0070(17) -0.0019(16)
C52 0.0401(18) 0.0353(17) 0.0233(15) 0.0101(13) 0.0039(13) 0.0062(14)
C53 0.0268(14) 0.0208(13) 0.0219(14) 0.0023(11) 0.0061(11) 0.0025(11)
C54 0.0358(16) 0.0234(14) 0.0220(14) 0.0048(11) 0.0071(12) 0.0015(12)
C55 0.0411(18) 0.0361(18) 0.0212(15) 0.0011(13) 0.0058(13) 0.0016(14)
C56 0.0383(18) 0.0284(16) 0.0320(17) -0.0038(13) 0.0105(14) -0.0003(14)
C57 0.046(2) 0.0251(16) 0.0430(19) 0.0057(14) 0.0125(16) 0.0100(14)
C58 0.0415(18) 0.0290(16) 0.0331(17) 0.0079(13) 0.0072(14) 0.0128(14)
C59 0.069(3) 0.0376(19) 0.0252(16) 0.0135(14) 0.0057(16) 0.0159(17)
C60 0.070(3) 0.039(2) 0.044(2) -0.0114(17) 0.013(2) 0.009(2)
C61 0.099(4) 0.052(2) 0.040(2) 0.0183(18) 0.003(2) 0.044(2)
C62 0.0259(15) 0.0384(17) 0.0320(16) 0.0220(14) 0.0029(12) 0.0020(13)
C63 0.0265(15) 0.0387(17) 0.0259(15) 0.0186(13) 0.0052(12) 0.0031(12)
C64 0.0270(14) 0.0288(15) 0.0234(14) 0.0134(12) 0.0042(11) 0.0076(12)
C65 0.0253(14) 0.0377(17) 0.0304(15) 0.0178(13) 0.0070(12) 0.0068(12)
C66 0.0321(16) 0.0389(17) 0.0259(15) 0.0191(13) 0.0098(12) 0.0125(13)
C67 0.053(2) 0.0358(18) 0.0360(18) 0.0158(15) 0.0090(16) 0.0133(16)
Cl5 0.055(2) 0.126(4) 0.087(2) 0.035(3) -0.0180(17) 0.029(2)
Cl6 0.0486(9) 0.0496(9) 0.0585(10) 0.0233(7) 0.0017(7) 0.0133(7)
C68 0.064(4) 0.043(3) 0.033(3) 0.007(3) 0.014(3) -0.006(3)
Cl5A 0.060(2) 0.075(3) 0.082(3) 0.031(2) -0.0155(18) -0.0100(18)
Cl6A 0.032(3) 0.053(3) 0.170(8) 0.055(4) 0.011(3) 0.0020(19)
C68A 0.027(6) 0.044(8) 0.126(14) -0.002(9) -0.021(7) -0.008(6)
B1 0.0301(18) 0.042(2) 0.0335(19) 0.0190(16) 0.0104(15) 0.0109(15)
loop_
_atom_type_symbol
_atom_type_description
_atom_type_scat_dispersion_real
_atom_type_scat_dispersion_imag
_atom_type_scat_source
C C 0.0033 0.0016 'International Tables Vol C Tables 4.2.6.8 and 6.1.1.4'
H H 0.0000 0.0000 'International Tables Vol C Tables 4.2.6.8 and 6.1.1.4'
B B 0.0013 0.0007 'International Tables Vol C Tables 4.2.6.8 and 6.1.1.4'
Cl Cl 0.1484 0.1585 'International Tables Vol C Tables 4.2.6.8 and 6.1.1.4'
F F 0.0171 0.0103 'International Tables Vol C Tables 4.2.6.8 and 6.1.1.4'
Fe Fe 0.3463 0.8444 'International Tables Vol C Tables 4.2.6.8 and 6.1.1.4'
N N 0.0061 0.0033 'International Tables Vol C Tables 4.2.6.8 and 6.1.1.4'
O O 0.0106 0.0060 'International Tables Vol C Tables 4.2.6.8 and 6.1.1.4'
loop_
_geom_angle_atom_site_label_1
_geom_angle_atom_site_label_2
_geom_angle_atom_site_label_3
_geom_angle
_geom_angle_site_symmetry_1
_geom_angle_site_symmetry_3
N2 Fe1 N2 180.0 2_665 .
N2 Fe1 O1 93.23(8) 2_665 2_665
N2 Fe1 O1 86.77(8) . 2_665
N2 Fe1 O1 86.77(8) 2_665 .
N2 Fe1 O1 93.24(8) . .
O1 Fe1 O1 180.0 2_665 .
N2 Fe1 N1 89.24(9) 2_665 2_665
N2 Fe1 N1 90.76(9) . 2_665
O1 Fe1 N1 91.00(8) 2_665 2_665
O1 Fe1 N1 89.00(8) . 2_665
N2 Fe1 N1 90.76(9) 2_665 .
N2 Fe1 N1 89.24(9) . .
O1 Fe1 N1 89.00(8) 2_665 .
O1 Fe1 N1 91.00(8) . .
N1 Fe1 N1 180.0 2_665 .
O2 Fe2 O2 180.0 2_766 .
O2 Fe2 N5 96.13(9) 2_766 2_766
O2 Fe2 N5 83.87(9) . 2_766
O2 Fe2 N5 83.87(9) 2_766 .
O2 Fe2 N5 96.13(9) . .
N5 Fe2 N5 180.0 2_766 .
O2 Fe2 N4 89.17(9) 2_766 2_766
O2 Fe2 N4 90.83(9) . 2_766
N5 Fe2 N4 89.83(9) 2_766 2_766
N5 Fe2 N4 90.17(9) . 2_766
O2 Fe2 N4 90.83(9) 2_766 .
O2 Fe2 N4 89.17(9) . .
N5 Fe2 N4 90.17(9) 2_766 .
N5 Fe2 N4 89.83(9) . .
N4 Fe2 N4 180.0 2_766 .
N3 O1 Fe1 128.15(15) . .
N6 O2 Fe2 122.40(16) . .
C4 N1 C1 107.0(2) . .
C4 N1 Fe1 127.15(17) . .
C1 N1 Fe1 125.69(17) . .
C6 N2 C9 107.3(2) . .
C6 N2 Fe1 126.78(17) . .
C9 N2 Fe1 125.78(17) . .
O1 N3 C33 119.4(2) . .
O1 N3 C29 118.9(2) . .
C33 N3 C29 121.4(2) . .
C37 N4 C34 107.3(2) . .
C37 N4 Fe2 126.39(18) . .
C34 N4 Fe2 126.26(19) . .
C39 N5 C42 106.7(2) . .
C39 N5 Fe2 126.78(18) . .
C42 N5 Fe2 125.59(19) . .
O2 N6 C66 119.5(2) . .
O2 N6 C62 119.1(2) . .
C66 N6 C62 121.3(2) . .
N1 C1 C10 126.1(2) . 2_665
N1 C1 C2 109.1(2) . .
C10 C1 C2 124.8(2) 2_665 .
C3 C2 C1 107.1(2) . .
C3 C2 H2 126.4 . .
C1 C2 H2 126.4 . .
C2 C3 C4 107.8(2) . .
C2 C3 H3 126.1 . .
C4 C3 H3 126.1 . .
N1 C4 C5 125.8(2) . .
N1 C4 C3 109.0(2) . .
C5 C4 C3 125.3(2) . .
C4 C5 C6 124.6(2) . .
C4 C5 C11 118.9(2) . .
C6 C5 C11 116.5(2) . .
N2 C6 C5 126.4(2) . .
N2 C6 C7 108.8(2) . .
C5 C6 C7 124.9(2) . .
C8 C7 C6 107.4(2) . .
C8 C7 H7 126.3 . .
C6 C7 H7 126.3 . .
C7 C8 C9 107.5(2) . .
C7 C8 H8 126.2 . .
C9 C8 H8 126.2 . .
N2 C9 C10 126.3(2) . .
N2 C9 C8 109.0(2) . .
C10 C9 C8 124.7(2) . .
C1 C10 C9 125.3(2) 2_665 .
C1 C10 C20 118.2(2) 2_665 .
C9 C10 C20 116.5(2) . .
C16 C11 C12 119.5(3) . .
C16 C11 C5 121.0(3) . .
C12 C11 C5 119.4(2) . .
C13 C12 C11 119.1(3) . .
C13 C12 C17 119.7(3) . .
C11 C12 C17 121.1(2) . .
C14 C13 C12 122.0(3) . .
C14 C13 H13 119.0 . .
C12 C13 H13 119.0 . .
C15 C14 C13 117.9(3) . .
C15 C14 C18 121.5(3) . .
C13 C14 C18 120.6(3) . .
C14 C15 C16 122.0(3) . .
C14 C15 H15 119.0 . .
C16 C15 H15 119.0 . .
C15 C16 C11 119.3(3) . .
C15 C16 C19 118.3(3) . .
C11 C16 C19 122.4(3) . .
C12 C17 H17A 109.5 . .
C12 C17 H17B 109.5 . .
H17A C17 H17B 109.5 . .
C12 C17 H17C 109.5 . .
H17A C17 H17C 109.5 . .
H17B C17 H17C 109.5 . .
C14 C18 H18A 109.5 . .
C14 C18 H18B 109.5 . .
H18A C18 H18B 109.5 . .
C14 C18 H18C 109.5 . .
H18A C18 H18C 109.5 . .
H18B C18 H18C 109.5 . .
C16 C19 H19A 109.5 . .
C16 C19 H19B 109.5 . .
H19A C19 H19B 109.5 . .
C16 C19 H19C 109.5 . .
H19A C19 H19C 109.5 . .
H19B C19 H19C 109.5 . .
C25 C20 C21 119.8(2) . .
C25 C20 C10 120.7(2) . .
C21 C20 C10 119.5(2) . .
C22 C21 C20 118.9(3) . .
C22 C21 C26 119.3(3) . .
C20 C21 C26 121.8(2) . .
C23 C22 C21 121.8(3) . .
C23 C22 H22 119.1 . .
C21 C22 H22 119.1 . .
C22 C23 C24 118.4(3) . .
C22 C23 C27 119.7(3) . .
C24 C23 C27 121.8(3) . .
C23 C24 C25 121.7(3) . .
C23 C24 H24 119.1 . .
C25 C24 H24 119.1 . .
C24 C25 C20 119.2(3) . .
C24 C25 C28 119.6(3) . .
C20 C25 C28 121.2(3) . .
C21 C26 H26A 109.5 . .
C21 C26 H26B 109.5 . .
H26A C26 H26B 109.5 . .
C21 C26 H26C 109.5 . .
H26A C26 H26C 109.5 . .
H26B C26 H26C 109.5 . .
C23 C27 H27A 109.5 . .
C23 C27 H27B 109.5 . .
H27A C27 H27B 109.5 . .
C23 C27 H27C 109.5 . .
H27A C27 H27C 109.5 . .
H27B C27 H27C 109.5 . .
C25 C28 H28A 109.5 . .
C25 C28 H28B 109.5 . .
H28A C28 H28B 109.5 . .
C25 C28 H28C 109.5 . .
H28A C28 H28C 109.5 . .
H28B C28 H28C 109.5 . .
N3 C29 C30 119.8(3) . .
N3 C29 H29 120.1 . .
C30 C29 H29 120.1 . .
C29 C30 C31 119.0(3) . .
C29 C30 H30 120.5 . .
C31 C30 H30 120.5 . .
C30 C31 C32 120.7(3) . .
C30 C31 Cl1 119.5(3) . .
C32 C31 Cl1 119.8(3) . .
C33 C32 C31 118.5(3) . .
C33 C32 H32 120.8 . .
C31 C32 H32 120.8 . .
N3 C33 C32 120.6(3) . .
N3 C33 H33 119.7 . .
C32 C33 H33 119.7 . .
N4 C34 C43 126.1(3) . 2_766
N4 C34 C35 109.0(2) . .
C43 C34 C35 124.9(3) 2_766 .
C36 C35 C34 107.6(3) . .
C36 C35 H35 126.2 . .
C34 C35 H35 126.2 . .
C35 C36 C37 107.6(3) . .
C35 C36 H36 126.2 . .
C37 C36 H36 126.2 . .
N4 C37 C38 126.3(3) . .
N4 C37 C36 108.5(2) . .
C38 C37 C36 125.2(3) . .
C37 C38 C39 124.6(3) . .
C37 C38 C44 118.0(2) . .
C39 C38 C44 117.3(2) . .
N5 C39 C38 125.7(3) . .
N5 C39 C40 109.5(2) . .
C38 C39 C40 124.8(3) . .
C41 C40 C39 107.4(3) . .
C41 C40 H40 126.3 . .
C39 C40 H40 126.3 . .
C40 C41 C42 107.4(2) . .
C40 C41 H41 126.3 . .
C42 C41 H41 126.3 . .
N5 C42 C43 126.5(3) . .
N5 C42 C41 109.0(2) . .
C43 C42 C41 124.5(2) . .
C34 C43 C42 124.9(2) 2_766 .
C34 C43 C53 118.6(2) 2_766 .
C42 C43 C53 116.5(2) . .
C45 C44 C49 119.7(3) . .
C45 C44 C38 121.0(3) . .
C49 C44 C38 119.2(3) . .
C46 C45 C44 119.4(3) . .
C46 C45 C50 118.7(3) . .
C44 C45 C50 121.8(3) . .
C47 C46 C45 121.5(3) . .
C47 C46 H46 119.3 . .
C45 C46 H46 119.3 . .
C48 C47 C46 118.5(3) . .
C48 C47 C51 120.7(3) . .
C46 C47 C51 120.7(3) . .
C47 C48 C49 122.1(3) . .
C47 C48 H48 118.9 . .
C49 C48 H48 118.9 . .
C48 C49 C44 118.6(3) . .
C48 C49 C52 119.3(3) . .
C44 C49 C52 122.0(3) . .
C45 C50 H50A 109.5 . .
C45 C50 H50B 109.5 . .
H50A C50 H50B 109.5 . .
C45 C50 H50C 109.5 . .
H50A C50 H50C 109.5 . .
H50B C50 H50C 109.5 . .
C47 C51 H51A 109.5 . .
C47 C51 H51B 109.5 . .
H51A C51 H51B 109.5 . .
C47 C51 H51C 109.5 . .
H51A C51 H51C 109.5 . .
H51B C51 H51C 109.5 . .
C49 C52 H52A 109.5 . .
C49 C52 H52B 109.5 . .
H52A C52 H52B 109.5 . .
C49 C52 H52C 109.5 . .
H52A C52 H52C 109.5 . .
H52B C52 H52C 109.5 . .
C54 C53 C58 120.0(3) . .
C54 C53 C43 119.6(3) . .
C58 C53 C43 120.4(3) . .
C53 C54 C55 119.1(3) . .
C53 C54 C59 121.0(3) . .
C55 C54 C59 119.9(3) . .
C56 C55 C54 121.4(3) . .
C56 C55 H55 119.3 . .
C54 C55 H55 119.3 . .
C57 C56 C55 118.8(3) . .
C57 C56 C60 120.8(3) . .
C55 C56 C60 120.4(3) . .
C56 C57 C58 121.6(3) . .
C56 C57 H57 119.2 . .
C58 C57 H57 119.2 . .
C53 C58 C57 119.1(3) . .
C53 C58 C61 121.4(3) . .
C57 C58 C61 119.5(3) . .
C54 C59 H59A 109.5 . .
C54 C59 H59B 109.5 . .
H59A C59 H59B 109.5 . .
C54 C59 H59C 109.5 . .
H59A C59 H59C 109.5 . .
H59B C59 H59C 109.5 . .
C56 C60 H60A 109.5 . .
C56 C60 H60B 109.5 . .
H60A C60 H60B 109.5 . .
C56 C60 H60C 109.5 . .
H60A C60 H60C 109.5 . .
H60B C60 H60C 109.5 . .
C58 C61 H61A 109.5 . .
C58 C61 H61B 109.5 . .
H61A C61 H61B 109.5 . .
C58 C61 H61C 109.5 . .
H61A C61 H61C 109.5 . .
H61B C61 H61C 109.5 . .
N6 C62 C63 120.3(3) . .
N6 C62 H62 119.9 . .
C63 C62 H62 119.9 . .
C64 C63 C62 119.2(3) . .
C64 C63 H63 120.4 . .
C62 C63 H63 120.4 . .
C63 C64 C65 119.8(3) . .
C63 C64 Cl2 119.7(2) . .
C65 C64 Cl2 120.6(2) . .
C66 C65 C64 119.0(3) . .
C66 C65 H65 120.5 . .
C64 C65 H65 120.5 . .
N6 C66 C65 120.5(3) . .
N6 C66 H66 119.8 . .
C65 C66 H66 119.8 . .
Cl3 C67 Cl4 111.94(19) . .
Cl3 C67 H67A 109.2 . .
Cl4 C67 H67A 109.2 . .
Cl3 C67 H67B 109.2 . .
Cl4 C67 H67B 109.2 . .
H67A C67 H67B 107.9 . .
Cl5 C68 Cl6 108.7(4) . .
Cl5 C68 H68A 110.0 . .
Cl6 C68 H68A 110.0 . .
Cl5 C68 H68B 110.0 . .
Cl6 C68 H68B 110.0 . .
H68A C68 H68B 108.3 . .
Cl5A C68A Cl6A 111.1(8) . .
Cl5A C68A H68C 109.4 . .
Cl6A C68A H68C 109.4 . .
Cl5A C68A H68D 109.4 . .
Cl6A C68A H68D 109.4 . .
H68C C68A H68D 108.0 . .
F1 B1 F2 110.8(3) . .
F1 B1 F3 110.0(3) . .
F2 B1 F3 108.5(3) . .
F1 B1 F4 108.8(3) . .
F2 B1 F4 109.3(3) . .
F3 B1 F4 109.4(3) . .
loop_
_geom_bond_atom_site_label_1
_geom_bond_atom_site_label_2
_geom_bond_distance
_geom_bond_site_symmetry_2
Fe1 N2 2.053(2) 2_665
Fe1 N2 2.053(2) .
Fe1 O1 2.055(2) 2_665
Fe1 O1 2.055(2) .
Fe1 N1 2.060(2) 2_665
Fe1 N1 2.060(2) .
Fe2 O2 2.038(2) 2_766
Fe2 O2 2.038(2) .
Fe2 N5 2.048(2) 2_766
Fe2 N5 2.048(2) .
Fe2 N4 2.055(2) 2_766
Fe2 N4 2.055(2) .
Cl1 C31 1.726(3) .
Cl2 C64 1.717(3) .
Cl3 C67 1.752(3) .
Cl4 C67 1.769(3) .
F1 B1 1.389(4) .
F2 B1 1.394(4) .
F3 B1 1.401(4) .
F4 B1 1.405(4) .
O1 N3 1.335(3) .
O2 N6 1.338(3) .
N1 C4 1.379(3) .
N1 C1 1.385(3) .
N2 C6 1.380(3) .
N2 C9 1.381(3) .
N3 C33 1.351(3) .
N3 C29 1.352(4) .
N4 C37 1.377(4) .
N4 C34 1.381(3) .
N5 C39 1.375(4) .
N5 C42 1.388(3) .
N6 C66 1.343(4) .
N6 C62 1.346(4) .
C1 C10 1.406(4) 2_665
C1 C2 1.441(4) .
C2 C3 1.358(4) .
C2 H2 0.9500 .
C3 C4 1.439(4) .
C3 H3 0.9500 .
C4 C5 1.403(4) .
C5 C6 1.407(4) .
C5 C11 1.509(4) .
C6 C7 1.445(4) .
C7 C8 1.359(4) .
C7 H7 0.9500 .
C8 C9 1.438(4) .
C8 H8 0.9500 .
C9 C10 1.410(4) .
C10 C1 1.406(4) 2_665
C10 C20 1.506(4) .
C11 C16 1.397(4) .
C11 C12 1.408(4) .
C12 C13 1.391(4) .
C12 C17 1.506(4) .
C13 C14 1.391(4) .
C13 H13 0.9500 .
C14 C15 1.382(4) .
C14 C18 1.520(4) .
C15 C16 1.397(4) .
C15 H15 0.9500 .
C16 C19 1.506(4) .
C17 H17A 0.9800 .
C17 H17B 0.9800 .
C17 H17C 0.9800 .
C18 H18A 0.9800 .
C18 H18B 0.9800 .
C18 H18C 0.9800 .
C19 H19A 0.9800 .
C19 H19B 0.9800 .
C19 H19C 0.9800 .
C20 C25 1.404(4) .
C20 C21 1.412(4) .
C21 C22 1.404(4) .
C21 C26 1.496(4) .
C22 C23 1.387(4) .
C22 H22 0.9500 .
C23 C24 1.392(4) .
C23 C27 1.516(4) .
C24 C25 1.403(4) .
C24 H24 0.9500 .
C25 C28 1.510(4) .
C26 H26A 0.9800 .
C26 H26B 0.9800 .
C26 H26C 0.9800 .
C27 H27A 0.9800 .
C27 H27B 0.9800 .
C27 H27C 0.9800 .
C28 H28A 0.9800 .
C28 H28B 0.9800 .
C28 H28C 0.9800 .
C29 C30 1.377(4) .
C29 H29 0.9500 .
C30 C31 1.380(5) .
C30 H30 0.9500 .
C31 C32 1.381(5) .
C32 C33 1.371(4) .
C32 H32 0.9500 .
C33 H33 0.9500 .
C34 C43 1.398(4) 2_766
C34 C35 1.438(4) .
C35 C36 1.348(4) .
C35 H35 0.9500 .
C36 C37 1.449(4) .
C36 H36 0.9500 .
C37 C38 1.401(4) .
C38 C39 1.416(4) .
C38 C44 1.503(4) .
C39 C40 1.438(4) .
C40 C41 1.356(4) .
C40 H40 0.9500 .
C41 C42 1.440(4) .
C41 H41 0.9500 .
C42 C43 1.400(4) .
C43 C34 1.398(4) 2_766
C43 C53 1.507(4) .
C44 C45 1.406(4) .
C44 C49 1.413(4) .
C45 C46 1.394(4) .
C45 C50 1.521(4) .
C46 C47 1.392(4) .
C46 H46 0.9500 .
C47 C48 1.382(4) .
C47 C51 1.512(4) .
C48 C49 1.399(4) .
C48 H48 0.9500 .
C49 C52 1.511(4) .
C50 H50A 0.9800 .
C50 H50B 0.9800 .
C50 H50C 0.9800 .
C51 H51A 0.9800 .
C51 H51B 0.9800 .
C51 H51C 0.9800 .
C52 H52A 0.9800 .
C52 H52B 0.9800 .
C52 H52C 0.9800 .
C53 C54 1.397(4) .
C53 C58 1.398(4) .
C54 C55 1.403(4) .
C54 C59 1.503(4) .
C55 C56 1.381(5) .
C55 H55 0.9500 .
C56 C57 1.379(5) .
C56 C60 1.527(4) .
C57 C58 1.398(4) .
C57 H57 0.9500 .
C58 C61 1.516(5) .
C59 H59A 0.9800 .
C59 H59B 0.9800 .
C59 H59C 0.9800 .
C60 H60A 0.9800 .
C60 H60B 0.9800 .
C60 H60C 0.9800 .
C61 H61A 0.9800 .
C61 H61B 0.9800 .
C61 H61C 0.9800 .
C62 C63 1.380(4) .
C62 H62 0.9500 .
C63 C64 1.378(4) .
C63 H63 0.9500 .
C64 C65 1.388(4) .
C65 C66 1.376(4) .
C65 H65 0.9500 .
C66 H66 0.9500 .
C67 H67A 0.9900 .
C67 H67B 0.9900 .
Cl5 C68 1.751(8) .
Cl6 C68 1.769(6) .
C68 H68A 0.9900 .
C68 H68B 0.9900 .
Cl5A C68A 1.723(11) .
Cl6A C68A 1.752(13) .
C68A H68C 0.9900 .
C68A H68D 0.9900 .
loop_
_geom_torsion_atom_site_label_1
_geom_torsion_atom_site_label_2
_geom_torsion_atom_site_label_3
_geom_torsion_atom_site_label_4
_geom_torsion
_geom_torsion_site_symmetry_1
_geom_torsion_site_symmetry_4
Fe1 O1 N3 C33 82.4(3) . .
Fe1 O1 N3 C29 -103.5(2) . .
Fe2 O2 N6 C66 79.7(3) . .
Fe2 O2 N6 C62 -103.8(3) . .
C4 N1 C1 C10 -178.7(3) . 2_665
Fe1 N1 C1 C10 -3.1(4) . 2_665
C4 N1 C1 C2 0.5(3) . .
Fe1 N1 C1 C2 176.19(18) . .
N1 C1 C2 C3 -0.2(3) . .
C10 C1 C2 C3 179.1(3) 2_665 .
C1 C2 C3 C4 -0.3(3) . .
C1 N1 C4 C5 178.9(3) . .
Fe1 N1 C4 C5 3.3(4) . .
C1 N1 C4 C3 -0.7(3) . .
Fe1 N1 C4 C3 -176.26(18) . .
C2 C3 C4 N1 0.6(3) . .
C2 C3 C4 C5 -179.0(3) . .
N1 C4 C5 C6 -0.6(4) . .
C3 C4 C5 C6 178.9(3) . .
N1 C4 C5 C11 179.4(2) . .
C3 C4 C5 C11 -1.2(4) . .
C9 N2 C6 C5 -177.8(3) . .
Fe1 N2 C6 C5 -1.9(4) . .
C9 N2 C6 C7 1.4(3) . .
Fe1 N2 C6 C7 177.28(17) . .
C4 C5 C6 N2 -0.1(4) . .
C11 C5 C6 N2 179.9(2) . .
C4 C5 C6 C7 -179.2(3) . .
C11 C5 C6 C7 0.8(4) . .
N2 C6 C7 C8 -1.0(3) . .
C5 C6 C7 C8 178.2(3) . .
C6 C7 C8 C9 0.3(3) . .
C6 N2 C9 C10 179.6(3) . .
Fe1 N2 C9 C10 3.7(4) . .
C6 N2 C9 C8 -1.2(3) . .
Fe1 N2 C9 C8 -177.17(17) . .
C7 C8 C9 N2 0.6(3) . .
C7 C8 C9 C10 179.8(3) . .
N2 C9 C10 C1 -2.2(4) . 2_665
C8 C9 C10 C1 178.7(3) . 2_665
N2 C9 C10 C20 177.4(2) . .
C8 C9 C10 C20 -1.7(4) . .
C4 C5 C11 C16 90.2(3) . .
C6 C5 C11 C16 -89.8(3) . .
C4 C5 C11 C12 -92.5(3) . .
C6 C5 C11 C12 87.5(3) . .
C16 C11 C12 C13 0.8(4) . .
C5 C11 C12 C13 -176.5(2) . .
C16 C11 C12 C17 179.2(3) . .
C5 C11 C12 C17 1.8(4) . .
C11 C12 C13 C14 1.5(4) . .
C17 C12 C13 C14 -176.9(3) . .
C12 C13 C14 C15 -2.4(4) . .
C12 C13 C14 C18 176.9(3) . .
C13 C14 C15 C16 1.0(5) . .
C18 C14 C15 C16 -178.3(3) . .
C14 C15 C16 C11 1.3(5) . .
C14 C15 C16 C19 -178.9(3) . .
C12 C11 C16 C15 -2.1(4) . .
C5 C11 C16 C15 175.2(3) . .
C12 C11 C16 C19 178.1(3) . .
C5 C11 C16 C19 -4.7(5) . .
C1 C10 C20 C25 -77.3(3) 2_665 .
C9 C10 C20 C25 103.0(3) . .
C1 C10 C20 C21 104.7(3) 2_665 .
C9 C10 C20 C21 -75.0(3) . .
C25 C20 C21 C22 -1.5(4) . .
C10 C20 C21 C22 176.5(2) . .
C25 C20 C21 C26 179.1(3) . .
C10 C20 C21 C26 -2.9(4) . .
C20 C21 C22 C23 -0.5(4) . .
C26 C21 C22 C23 179.0(3) . .
C21 C22 C23 C24 2.0(4) . .
C21 C22 C23 C27 -175.5(3) . .
C22 C23 C24 C25 -1.7(4) . .
C27 C23 C24 C25 175.8(3) . .
C23 C24 C25 C20 -0.3(4) . .
C23 C24 C25 C28 -179.3(3) . .
C21 C20 C25 C24 1.9(4) . .
C10 C20 C25 C24 -176.1(3) . .
C21 C20 C25 C28 -179.1(3) . .
C10 C20 C25 C28 2.9(4) . .
O1 N3 C29 C30 -171.2(2) . .
C33 N3 C29 C30 2.8(4) . .
N3 C29 C30 C31 -1.5(4) . .
C29 C30 C31 C32 -1.0(5) . .
C29 C30 C31 Cl1 178.1(2) . .
C30 C31 C32 C33 2.3(5) . .
Cl1 C31 C32 C33 -176.8(2) . .
O1 N3 C33 C32 172.5(2) . .
C29 N3 C33 C32 -1.5(4) . .
C31 C32 C33 N3 -1.1(4) . .
C37 N4 C34 C43 -178.1(3) . 2_766
Fe2 N4 C34 C43 -0.5(4) . 2_766
C37 N4 C34 C35 0.5(3) . .
Fe2 N4 C34 C35 178.11(19) . .
N4 C34 C35 C36 -0.1(3) . .
C43 C34 C35 C36 178.5(3) 2_766 .
C34 C35 C36 C37 -0.3(3) . .
C34 N4 C37 C38 179.4(3) . .
Fe2 N4 C37 C38 1.8(4) . .
C34 N4 C37 C36 -0.7(3) . .
Fe2 N4 C37 C36 -178.29(19) . .
C35 C36 C37 N4 0.6(3) . .
C35 C36 C37 C38 -179.5(3) . .
N4 C37 C38 C39 -1.4(5) . .
C36 C37 C38 C39 178.7(3) . .
N4 C37 C38 C44 175.5(3) . .
C36 C37 C38 C44 -4.4(4) . .
C42 N5 C39 C38 177.0(3) . .
Fe2 N5 C39 C38 7.6(4) . .
C42 N5 C39 C40 -2.2(3) . .
Fe2 N5 C39 C40 -171.54(18) . .
C37 C38 C39 N5 -3.6(5) . .
C44 C38 C39 N5 179.4(3) . .
C37 C38 C39 C40 175.4(3) . .
C44 C38 C39 C40 -1.5(4) . .
N5 C39 C40 C41 1.6(3) . .
C38 C39 C40 C41 -177.6(3) . .
C39 C40 C41 C42 -0.3(3) . .
C39 N5 C42 C43 -176.8(3) . .
Fe2 N5 C42 C43 -7.3(4) . .
C39 N5 C42 C41 2.0(3) . .
Fe2 N5 C42 C41 171.49(18) . .
C40 C41 C42 N5 -1.0(3) . .
C40 C41 C42 C43 177.8(3) . .
N5 C42 C43 C34 1.7(5) . 2_766
C41 C42 C43 C34 -176.9(3) . 2_766
N5 C42 C43 C53 -179.6(2) . .
C41 C42 C43 C53 1.9(4) . .
C37 C38 C44 C45 110.7(3) . .
C39 C38 C44 C45 -72.2(4) . .
C37 C38 C44 C49 -71.2(3) . .
C39 C38 C44 C49 105.9(3) . .
C49 C44 C45 C46 0.0(4) . .
C38 C44 C45 C46 178.0(3) . .
C49 C44 C45 C50 179.3(3) . .
C38 C44 C45 C50 -2.6(4) . .
C44 C45 C46 C47 0.7(5) . .
C50 C45 C46 C47 -178.7(3) . .
C45 C46 C47 C48 -0.5(5) . .
C45 C46 C47 C51 -178.4(3) . .
C46 C47 C48 C49 -0.4(5) . .
C51 C47 C48 C49 177.5(3) . .
C47 C48 C49 C44 1.1(4) . .
C47 C48 C49 C52 -177.3(3) . .
C45 C44 C49 C48 -0.8(4) . .
C38 C44 C49 C48 -178.9(3) . .
C45 C44 C49 C52 177.5(3) . .
C38 C44 C49 C52 -0.6(4) . .
C34 C43 C53 C54 -95.8(3) 2_766 .
C42 C43 C53 C54 85.4(3) . .
C34 C43 C53 C58 86.5(4) 2_766 .
C42 C43 C53 C58 -92.4(3) . .
C58 C53 C54 C55 -1.0(4) . .
C43 C53 C54 C55 -178.8(3) . .
C58 C53 C54 C59 178.3(3) . .
C43 C53 C54 C59 0.5(4) . .
C53 C54 C55 C56 1.0(5) . .
C59 C54 C55 C56 -178.3(3) . .
C54 C55 C56 C57 -0.5(5) . .
C54 C55 C56 C60 178.4(3) . .
C55 C56 C57 C58 -0.1(5) . .
C60 C56 C57 C58 -178.9(3) . .
C54 C53 C58 C57 0.5(5) . .
C43 C53 C58 C57 178.3(3) . .
C54 C53 C58 C61 -178.7(3) . .
C43 C53 C58 C61 -1.0(5) . .
C56 C57 C58 C53 0.0(5) . .
C56 C57 C58 C61 179.3(4) . .
O2 N6 C62 C63 -176.3(3) . .
C66 N6 C62 C63 0.1(4) . .
N6 C62 C63 C64 -0.8(5) . .
C62 C63 C64 C65 0.9(5) . .
C62 C63 C64 Cl2 -179.6(2) . .
C63 C64 C65 C66 -0.3(4) . .
Cl2 C64 C65 C66 -179.8(2) . .
O2 N6 C66 C65 176.9(3) . .
C62 N6 C66 C65 0.5(4) . .
C64 C65 C66 N6 -0.4(5) . .
