#------------------------------------------------------------------------------
#$Date: 2017-05-18 05:23:57 +0300 (Thu, 18 May 2017) $
#$Revision: 196723 $
#$URL: file:///home/coder/svn-repositories/cod/cif/7/04/29/7042957.cif $
#------------------------------------------------------------------------------
#
# This file is available in the Crystallography Open Database (COD),
# http://www.crystallography.net/
#
# All data on this site have been placed in the public domain by the
# contributors.
#
data_7042957
loop_
_publ_author_name
'Sasano, Yoshifumi'
'Yasuda, Nobuhiro'
'Maeda, Hiromitsu'
_publ_section_title
;
 Deprotonated meso-hydroxyporphyrin as a stable \p-electronic anion: the
 building unit of ion-pairing assembly
;
_journal_name_full               'Dalton Trans.'
_journal_paper_doi               10.1039/C7DT01635B
_journal_year                    2017
_chemical_formula_sum            'C44 H21.5 F15 N4 Ni O3'
_chemical_formula_weight         997.86
_chemical_name_systematic
;
 ?
;
_space_group_crystal_system      triclinic
_space_group_IT_number           2
_space_group_name_Hall           '-P 1'
_space_group_name_H-M_alt        'P -1'
_symmetry_space_group_name_Hall  '-P 1'
_symmetry_space_group_name_H-M   'P -1'
_atom_sites_solution_hydrogens   geom
_audit_creation_method           SHELXL-2013
_audit_update_record
;
2017-03-07 deposited with the CCDC.
2017-05-10 downloaded from the CCDC.
;
_cell_angle_alpha                72.365(5)
_cell_angle_beta                 80.781(6)
_cell_angle_gamma                78.319(6)
_cell_formula_units_Z            2
_cell_length_a                   7.309(3)
_cell_length_b                   14.459(6)
_cell_length_c                   20.126(8)
_cell_measurement_reflns_used    19562
_cell_measurement_temperature    100(2)
_cell_measurement_theta_max      27.060
_cell_measurement_theta_min      1.052
_cell_volume                     1973.8(14)
_computing_cell_refinement       RAPID-AUTO
_computing_data_collection       RAPID-AUTO
_computing_data_reduction        RAPID-AUTO
_computing_structure_refinement  'SHELXL-2013 (Sheldrick, 2013)'
_diffrn_ambient_temperature      100(2)
_diffrn_measured_fraction_theta_full 0.994
_diffrn_measured_fraction_theta_max 0.984
_diffrn_measurement_device_type  'Rigaku MercuryCCD2'
_diffrn_measurement_method       \w
_diffrn_radiation_monochromator  'Si 311'
_diffrn_radiation_type           synchrotron
_diffrn_radiation_wavelength     0.7006
_diffrn_reflns_av_R_equivalents  0.1536
_diffrn_reflns_av_unetI/netI     0.2367
_diffrn_reflns_Laue_measured_fraction_full 0.994
_diffrn_reflns_Laue_measured_fraction_max 0.984
_diffrn_reflns_limit_h_max       8
_diffrn_reflns_limit_h_min       -9
_diffrn_reflns_limit_k_max       18
_diffrn_reflns_limit_k_min       -18
_diffrn_reflns_limit_l_max       26
_diffrn_reflns_limit_l_min       -26
_diffrn_reflns_number            19562
_diffrn_reflns_point_group_measured_fraction_full 0.994
_diffrn_reflns_point_group_measured_fraction_max 0.984
_diffrn_reflns_theta_full        24.857
_diffrn_reflns_theta_max         27.060
_diffrn_reflns_theta_min         1.052
_exptl_absorpt_coefficient_mu    0.586
_exptl_crystal_colour            red
_exptl_crystal_density_diffrn    1.679
_exptl_crystal_description       needle
_exptl_crystal_F_000             1001
_exptl_crystal_size_max          0.100
_exptl_crystal_size_mid          0.100
_exptl_crystal_size_min          0.100
_refine_diff_density_max         1.568
_refine_diff_density_min         -1.112
_refine_diff_density_rms         0.197
_refine_ls_extinction_method     none
_refine_ls_goodness_of_fit_ref   1.072
_refine_ls_hydrogen_treatment    constr
_refine_ls_matrix_type           full
_refine_ls_number_parameters     616
_refine_ls_number_reflns         8927
_refine_ls_number_restraints     13
_refine_ls_restrained_S_all      1.072
_refine_ls_R_factor_all          0.2688
_refine_ls_R_factor_gt           0.1424
_refine_ls_shift/su_max          0.001
_refine_ls_shift/su_mean         0.000
_refine_ls_structure_factor_coef Fsqd
_refine_ls_weighting_details
;
 w=1/[\s^2^(Fo^2^)+(0.2000P)^2^]
 where P=(Fo^2^+2Fc^2^)/3
;
_refine_ls_weighting_scheme      calc
_refine_ls_wR_factor_gt          0.3412
_refine_ls_wR_factor_ref         0.4202
_reflns_Friedel_coverage         0.000
_reflns_number_gt                3605
_reflns_number_total             8927
_reflns_threshold_expression     'I > 2\s(I)'
_cod_data_source_file            c7dt01635b2.cif
_cod_data_source_block           shelx
_cod_original_cell_volume        1974.0(14)
_cod_original_formula_sum        'C44 H21.50 F15 N4 Ni O3'
_cod_database_code               7042957
_shelx_space_group_comment
;
The symmetry employed for this shelxl refinement is uniquely defined
by the following loop, which should always be used as a source of
symmetry information in preference to the above space-group names.
They are only intended as comments.
;
_shelx_estimated_absorpt_t_min   0.944
_shelx_estimated_absorpt_t_max   0.944
_shelxl_version_number           2013-2
_shelx_res_file
;
TITL shelxt_a.res in P-1
CELL  0.70060   7.3093  14.4594  20.1262   72.365   80.781   78.319
ZERR     2.00   0.0029   0.0058   0.0081    0.005    0.006    0.006
LATT   1
SFAC  C    H    O    N    F    NI
DISP    C     0.00300    0.00157        11.00
DISP    H     0.00000    0.00000         0.67
DISP    O     0.01049    0.00591        30.88
DISP    N     0.00590    0.00322        18.74
DISP    F     0.01702    0.01001        48.88
DISP    Ni    0.34198    1.08920      4381.92
UNIT  88 43 6 8 30 2
MERG   2
OMIT     1   5   9
OMIT    -1   0   7
EQIV $1   x-1, y, z
EQIV $2   x+1, y, z
DFIX  1.52 0.001 C43 C44 C44 C45 C45 C46 C46 C47 C47 C48 C48 C49 C49 C50
DANG  2.67 0.001 C43 C45 C44 C46 C45 C47 C46 C48 C47 C50 C48 C50
EADP C43 > C50
FREE C43 C50_$2
FREE C43 C49_$2
FREE C43 C48_$2
FREE C43 C47_$2
FREE C50 C43_$1
FREE C50 C44_$1
FREE C50 C45_$1
FREE C44 C50_$2
FREE C49 C43_$1
FMAP   2
PLAN   20
SIZE     0.100   0.100   0.100
ACTA
BOND   $H
CONF
LIST   4
L.S.  10
TEMP  -173.00
WGHT    0.200000
FVAR       1.49766   0.47426   0.70160
C1    1    0.207655    0.567474    0.486178    11.00000    0.02145    0.03443 =
         0.03247   -0.00930   -0.00369   -0.00974
C2    1    0.227369    0.659042    0.441649    11.00000    0.03214    0.02617 =
         0.05045   -0.01765   -0.00170   -0.00784
C3    1    0.144304    0.747947    0.459234    11.00000    0.02968    0.03257 =
         0.07466   -0.03310   -0.00565   -0.00028
AFIX  43
H3    2    0.057507    0.754411    0.498729    11.00000   -1.20000
AFIX   0
C4    1    0.213896    0.820601    0.408548    11.00000    0.03782    0.02796 =
         0.04482   -0.00928   -0.01109    0.00442
AFIX  43
H4    2    0.190731    0.888341    0.406732    11.00000   -1.20000
AFIX   0
C5    1    0.330270    0.776858    0.357382    11.00000    0.03237    0.02759 =
         0.02772   -0.00929   -0.01210    0.00116
C6    1    0.410009    0.829539    0.295157    11.00000    0.02117    0.02578 =
         0.04794   -0.01387   -0.00453   -0.00519
C7    1    0.493648    0.786424    0.243006    11.00000    0.03217    0.02431 =
         0.02281   -0.00584   -0.00386   -0.00085
C8    1    0.551115    0.842103    0.174199    11.00000    0.03629    0.05268 =
         0.05625   -0.02776   -0.00506   -0.01166
AFIX  43
H8    2    0.550597    0.911081    0.158513    11.00000   -1.20000
AFIX   0
C9    1    0.605952    0.778560    0.135925    11.00000    0.02621    0.03557 =
         0.04831   -0.00742    0.00638   -0.01312
AFIX  43
H9    2    0.653251    0.793438    0.087742    11.00000   -1.20000
AFIX   0
C10   1    0.580193    0.685136    0.180740    11.00000    0.01835    0.04057 =
         0.04228   -0.01103   -0.00681   -0.01360
C11   1    0.625868    0.599126    0.161291    11.00000    0.02094    0.03535 =
         0.04157   -0.00581   -0.01223   -0.01234
C12   1    0.625988    0.508007    0.209226    11.00000    0.03035    0.04878 =
         0.02616   -0.01862   -0.00699    0.00130
C13   1    0.696026    0.421072    0.191085    11.00000    0.02607    0.03921 =
         0.03718   -0.01703   -0.00345   -0.00411
AFIX  43
H13   2    0.737628    0.415935    0.144945    11.00000   -1.20000
AFIX   0
C14   1    0.695065    0.348569    0.247379    11.00000    0.02023    0.02427 =
         0.03353   -0.01480   -0.00066    0.00329
AFIX  43
H14   2    0.742054    0.281233    0.250761    11.00000   -1.20000
AFIX   0
C15   1    0.609131    0.389278    0.304085    11.00000    0.01819    0.03600 =
         0.03069   -0.01207   -0.00700   -0.00033
C16   1    0.571810    0.338247    0.371590    11.00000    0.02328    0.02762 =
         0.04136   -0.00709   -0.00897   -0.00923
C17   1    0.465572    0.379602    0.422022    11.00000    0.02595    0.03244 =
         0.05096   -0.01737   -0.01402    0.00281
C18   1    0.404420    0.326802    0.488976    11.00000    0.03545    0.03126 =
         0.04011   -0.00407   -0.01651   -0.00575
AFIX  43
H18   2    0.431458    0.257574    0.508620    11.00000   -1.20000
AFIX   0
C19   1    0.302684    0.390173    0.519924    11.00000    0.02681    0.02311 =
         0.03192   -0.00726   -0.01140    0.00981
AFIX  43
H19   2    0.242625    0.374958    0.566512    11.00000   -1.20000
AFIX   0
C20   1    0.296938    0.483567    0.473343    11.00000    0.02341    0.03202 =
         0.02802   -0.01422   -0.00095   -0.00435
C21   1    0.400097    0.936497    0.281416    11.00000    0.02647    0.03326 =
         0.03808   -0.01370    0.00337   -0.01099
C22   1    0.237894    1.000956    0.272250    11.00000    0.02577    0.03213 =
         0.04989   -0.01337    0.00024   -0.01337
C23   1    0.229044    1.101413    0.257223    11.00000    0.01960    0.03436 =
         0.05115   -0.00975   -0.00199   -0.00199
C24   1    0.391107    1.137168    0.249702    11.00000    0.04279    0.02856 =
         0.06553   -0.01946   -0.01767   -0.00422
C25   1    0.554661    1.076550    0.257383    11.00000    0.03896    0.02436 =
         0.06144   -0.01815   -0.01621   -0.00605
C26   1    0.562563    0.969684    0.279135    11.00000    0.00730    0.06165 =
         0.03856   -0.04160    0.00301   -0.00605
C27   1    0.684341    0.606928    0.086280    11.00000    0.03558    0.02339 =
         0.03259   -0.00940    0.00041   -0.01005
C28   1    0.566198    0.606568    0.039960    11.00000    0.01608    0.07380 =
         0.06562   -0.03814    0.00048   -0.00731
C29   1    0.620601    0.614548   -0.026652    11.00000    0.04575    0.07913 =
         0.02264   -0.02121   -0.00863   -0.01493
C30   1    0.803627    0.617462   -0.052156    11.00000    0.03689    0.06216 =
         0.02234   -0.00953   -0.00158   -0.00910
C31   1    0.923362    0.618355   -0.009906    11.00000    0.03582    0.05579 =
         0.04947   -0.02394    0.00170   -0.00845
C32   1    0.868445    0.612757    0.057066    11.00000    0.02547    0.05163 =
         0.03717   -0.02248   -0.00712    0.00008
C33   1    0.623039    0.230415    0.388544    11.00000    0.03166    0.03841 =
         0.03490   -0.01717    0.00377   -0.01670
C34   1    0.812145    0.188073    0.393023    11.00000    0.02978    0.03737 =
         0.03459   -0.01548   -0.00131   -0.01347
C35   1    0.863597    0.088165    0.411248    11.00000    0.02240    0.04133 =
         0.04328   -0.01784   -0.00520    0.00073
C36   1    0.735117    0.028474    0.422264    11.00000    0.04142    0.02519 =
         0.03973   -0.01352   -0.01230   -0.00640
C37   1    0.554027    0.066806    0.416843    11.00000    0.04462    0.02686 =
         0.03962   -0.01447    0.00717   -0.02180
C38   1    0.499016    0.168464    0.401042    11.00000    0.02875    0.03127 =
         0.03676   -0.01297   -0.00416    0.00305
C39   1    0.035861    0.561274    0.287781    11.00000    0.02985    0.05811 =
         0.03972   -0.00693   -0.00285   -0.02147
C40   1    0.098484    0.461169    0.279664    11.00000    0.06182    0.04240 =
         0.05476   -0.00986   -0.00392   -0.03053
AFIX 137
H40A  2   -0.003913    0.440015    0.264931    11.00000   -1.50000
H40B  2    0.133667    0.415652    0.324528    11.00000   -1.50000
H40C  2    0.207240    0.461431    0.244147    11.00000   -1.50000
AFIX   0
C41   1    0.018913    0.730141    0.238550    11.00000    0.04205    0.03583 =
         0.05495   -0.01976   -0.01803    0.01022
AFIX  23
H41A  2   -0.118236    0.743141    0.251846    11.00000   -1.20000
H41B  2    0.084247    0.741095    0.274285    11.00000   -1.20000
AFIX   0
C42   1    0.067810    0.793912    0.170730    11.00000    0.05762    0.05901 =
         0.04532   -0.00187   -0.02027   -0.00856
AFIX 137
H42A  2    0.006621    0.780352    0.135565    11.00000   -1.50000
H42B  2    0.204390    0.782410    0.159128    11.00000   -1.50000
H42C  2    0.025842    0.862564    0.171140    11.00000   -1.50000
AFIX   0
O1    3    0.103575    0.570047    0.547321    11.00000    0.03348    0.03966 =
         0.03619   -0.01398   -0.00161   -0.00102
AFIX 147
H1    2   -0.008593    0.593614    0.539940    11.00000   -1.50000
AFIX   0
O2    3   -0.047052    0.577769    0.343344    11.00000    0.05733    0.02211 =
         0.05662   -0.01716   -0.00205    0.00084
O3    3    0.075905    0.630879    0.234152    11.00000    0.03781    0.04022 =
         0.04115   -0.01924   -0.00216   -0.00696
N1    4    0.333796    0.677251    0.376187    11.00000    0.03025    0.02785 =
         0.03503   -0.01393   -0.00730   -0.00958
N2    4    0.509729    0.690093    0.248344    11.00000    0.02148    0.02937 =
         0.04483   -0.01253   -0.00231   -0.00186
N3    4    0.574143    0.491637    0.277414    11.00000    0.03233    0.02838 =
         0.04338   -0.01837   -0.01374   -0.00035
N4    4    0.404057    0.478470    0.411468    11.00000    0.02186    0.03003 =
         0.04669   -0.01201   -0.01762   -0.00124
F1    5    0.077091    0.968945    0.276939    11.00000    0.02016    0.02885 =
         0.08869   -0.02174   -0.01200   -0.00359
F2    5    0.066292    1.160472    0.250101    11.00000    0.03152    0.03880 =
         0.08643   -0.01158   -0.01540   -0.00233
F3    5    0.383769    1.233918    0.234634    11.00000    0.04595    0.03136 =
         0.07850   -0.01331   -0.01273   -0.01027
F4    5    0.714794    1.111751    0.250150    11.00000    0.02833    0.03828 =
         0.08912   -0.02502   -0.01351   -0.01021
F5    5    0.726127    0.918847    0.282550    11.00000    0.03207    0.03630 =
         0.07068   -0.01700   -0.01433   -0.00316
F6    5    0.387819    0.599659    0.065714    11.00000    0.02989    0.14416 =
         0.05808   -0.03929   -0.00911   -0.01822
F7    5    0.497916    0.612289   -0.069203    11.00000    0.04637    0.17567 =
         0.05469   -0.04601   -0.01023   -0.01730
F8    5    0.856779    0.623417   -0.119944    11.00000    0.05967    0.11707 =
         0.03300   -0.02521   -0.00528   -0.01843
F9    5    1.104376    0.624026   -0.035175    11.00000    0.02819    0.11102 =
         0.06160   -0.04425    0.00793   -0.02606
F10   5    0.993509    0.611272    0.099259    11.00000    0.02994    0.10239 =
         0.05678   -0.03867   -0.00763   -0.01401
F11   5    0.941179    0.242704    0.381639    11.00000    0.02998    0.03452 =
         0.04378   -0.01562    0.00058   -0.00707
F12   5    1.044886    0.050210    0.416456    11.00000    0.03287    0.03712 =
         0.06055   -0.02421   -0.00979    0.00890
F13   5    0.785009   -0.067859    0.439967    11.00000    0.04681    0.02831 =
         0.06977   -0.01556   -0.01101   -0.00157
F14   5    0.423376    0.010318    0.427139    11.00000    0.04012    0.03817 =
         0.05639   -0.01220   -0.00391   -0.01246
F15   5    0.318887    0.204118    0.393906    11.00000    0.01689    0.03571 =
         0.07910   -0.02515   -0.01184    0.00585
NI1   6    0.456356    0.584083    0.328803    11.00000    0.02672    0.02938 =
         0.03729   -0.01393   -0.00608   -0.00561
PART    1
C43   1    1.914217    0.118345    0.062556    10.25000    0.08303
AFIX  33
H43A  2    1.981935    0.083910    0.103702    10.25000   -1.50000
H43B  2    1.963933    0.179086    0.037428    10.25000   -1.50000
H43C  2    1.930744    0.075969    0.031444    10.25000   -1.50000
AFIX   0
C44   1    1.706447    0.143272    0.085968    10.25000    0.08303
AFIX  23
H44A  2    1.677617    0.215687    0.076598    10.25000   -1.20000
H44B  2    1.690578    0.115444    0.137544    10.25000   -1.20000
AFIX   0
C45   1    1.553539    0.113468    0.057575    10.25000    0.08303
AFIX  23
H45A  2    1.606700    0.049396    0.048288    10.25000   -1.20000
H45B  2    1.533390    0.161687    0.011434    10.25000   -1.20000
AFIX   0
C46   1    1.360097    0.103129    0.097235    10.25000    0.08303
AFIX  23
H46A  2    1.375608    0.040983    0.135465    10.25000   -1.20000
H46B  2    1.324707    0.157037    0.119958    10.25000   -1.20000
AFIX   0
C47   1    1.191063    0.102900    0.062086    10.25000    0.08303
AFIX  23
H47A  2    1.202488    0.150030    0.014855    10.25000   -1.20000
H47B  2    1.078986    0.131169    0.088632    10.25000   -1.20000
AFIX   0
C48   1    1.145577    0.010111    0.052330    10.25000    0.08303
AFIX  23
H48A  2    1.186699   -0.048554    0.090682    10.25000   -1.20000
H48B  2    1.204788   -0.000350    0.006805    10.25000   -1.20000
AFIX   0
C49   1    0.932708    0.032643    0.054538    10.25000    0.08303
AFIX  23
H49A  2    0.901575    0.026518    0.010120    10.25000   -1.20000
H49B  2    0.883790   -0.020989    0.092572    10.25000   -1.20000
AFIX   0
C50   1    0.818120    0.128536    0.064583    10.25000    0.08303
AFIX  33
H50A  2    0.853484    0.140881    0.105705    10.25000   -1.50000
H50B  2    0.684124    0.123868    0.071623    10.25000   -1.50000
H50C  2    0.842871    0.182688    0.022897    10.25000   -1.50000
AFIX   0
HKLF    4

REM  shelxt_a.res in P-1
REM R1 =  0.1424 for    3605 Fo > 4sig(Fo)  and  0.2688 for all    8927 data
REM    616 parameters refined using     13 restraints

END

WGHT      0.2000      0.0000

REM Highest difference peak  1.568,  deepest hole -1.112,  1-sigma level  0.197
Q1    1   1.0407  0.1194  0.0867  11.00000  0.05    1.57
Q2    1   0.2709  0.5829  0.3338  11.00000  0.05    1.40
Q3    1   0.1341  0.5829  0.3373  11.00000  0.05    1.27
Q4    1   0.6314  0.5867  0.3307  11.00000  0.05    1.24
Q5    1   1.2622  0.0673  0.0605  11.00000  0.05    1.23
Q6    1   1.3816  0.0993  0.0784  11.00000  0.05    1.22
Q7    1  -0.2368  0.5835  0.3383  11.00000  0.05    1.18
Q8    1   0.5861  0.9342  0.2906  11.00000  0.05    1.11
Q9    1   0.3079  0.2335  0.3658  11.00000  0.05    0.87
Q10   1   1.9100  0.1325  0.0762  11.00000  0.05    0.82
Q11   1   0.8575  0.0887  0.0625  11.00000  0.05    0.81
Q12   1   1.4929  0.0845 -0.0379  11.00000  0.05    0.80
Q13   1   0.7754  0.0589  0.0708  11.00000  0.05    0.78
Q14   1  -0.0259  0.9210  0.2878  11.00000  0.05    0.77
Q15   1   2.0160  0.0573  0.1468  11.00000  0.05    0.76
Q16   1   1.2130  0.0632  0.4082  11.00000  0.05    0.68
Q17   1   0.8653  1.1255  0.2522  11.00000  0.05    0.66
Q18   1   0.1416  0.1927  0.3857  11.00000  0.05    0.66
Q19   1   1.3143  0.0521 -0.0120  11.00000  0.05    0.64
Q20   1   0.4271  0.6060 -0.0204  11.00000  0.05    0.63
;
_shelx_res_checksum              85826
loop_
_space_group_symop_operation_xyz
'x, y, z'
'-x, -y, -z'
loop_
_atom_site_label
_atom_site_type_symbol
_atom_site_fract_x
_atom_site_fract_y
_atom_site_fract_z
_atom_site_U_iso_or_equiv
_atom_site_adp_type
_atom_site_occupancy
_atom_site_site_symmetry_order
_atom_site_calc_flag
_atom_site_refinement_flags_posn
_atom_site_refinement_flags_adp
_atom_site_refinement_flags_occupancy
_atom_site_disorder_assembly
_atom_site_disorder_group
C1 C 0.2077(14) 0.5675(8) 0.4862(6) 0.029(2) Uani 1 1 d . . . . .
C2 C 0.2274(16) 0.6590(8) 0.4416(6) 0.035(3) Uani 1 1 d . . . . .
C3 C 0.1443(16) 0.7479(8) 0.4592(7) 0.042(3) Uani 1 1 d . . . . .
H3 H 0.0575 0.7544 0.4987 0.051 Uiso 1 1 calc R U . . .
C4 C 0.2139(16) 0.8206(8) 0.4085(6) 0.038(3) Uani 1 1 d . . . . .
H4 H 0.1907 0.8883 0.4067 0.045 Uiso 1 1 calc R U . . .
C5 C 0.3303(15) 0.7769(8) 0.3574(5) 0.029(2) Uani 1 1 d . . . . .
C6 C 0.4100(14) 0.8295(8) 0.2952(6) 0.031(2) Uani 1 1 d . . . . .
C7 C 0.4936(15) 0.7864(7) 0.2430(5) 0.027(2) Uani 1 1 d . . . . .
C8 C 0.5511(17) 0.8421(10) 0.1742(7) 0.045(3) Uani 1 1 d . . . . .
H8 H 0.5506 0.9111 0.1585 0.054 Uiso 1 1 calc R U . . .
C9 C 0.6060(15) 0.7786(8) 0.1359(7) 0.038(3) Uani 1 1 d . . . . .
H9 H 0.6533 0.7934 0.0877 0.045 Uiso 1 1 calc R U . . .
C10 C 0.5802(14) 0.6851(8) 0.1807(6) 0.032(3) Uani 1 1 d . . . . .
C11 C 0.6259(14) 0.5991(8) 0.1613(6) 0.032(3) Uani 1 1 d . . . . .
C12 C 0.6260(16) 0.5080(9) 0.2092(6) 0.034(3) Uani 1 1 d . . . . .
C13 C 0.6960(15) 0.4211(8) 0.1911(6) 0.033(3) Uani 1 1 d . . . . .
H13 H 0.7376 0.4159 0.1449 0.039 Uiso 1 1 calc R U . . .
C14 C 0.6951(14) 0.3486(8) 0.2474(5) 0.026(2) Uani 1 1 d . . . . .
H14 H 0.7421 0.2812 0.2508 0.031 Uiso 1 1 calc R U . . .
C15 C 0.6091(14) 0.3893(8) 0.3041(6) 0.028(2) Uani 1 1 d . . . . .
C16 C 0.5718(14) 0.3382(8) 0.3716(6) 0.030(2) Uani 1 1 d . . . . .
C17 C 0.4656(15) 0.3796(8) 0.4220(6) 0.035(3) Uani 1 1 d . . . . .
C18 C 0.4044(16) 0.3268(8) 0.4890(6) 0.035(3) Uani 1 1 d . . . . .
H18 H 0.4315 0.2576 0.5086 0.043 Uiso 1 1 calc R U . . .
C19 C 0.3027(15) 0.3902(7) 0.5199(6) 0.028(2) Uani 1 1 d . . . . .
H19 H 0.2426 0.3750 0.5665 0.034 Uiso 1 1 calc R U . . .
C20 C 0.2969(14) 0.4836(8) 0.4733(5) 0.027(2) Uani 1 1 d . . . . .
C21 C 0.4001(15) 0.9365(8) 0.2814(6) 0.032(3) Uani 1 1 d . . . . .
C22 C 0.2379(15) 1.0010(8) 0.2722(6) 0.035(3) Uani 1 1 d . . . . .
C23 C 0.2290(15) 1.1014(8) 0.2572(6) 0.036(3) Uani 1 1 d . . . . .
C24 C 0.3911(18) 1.1372(9) 0.2497(7) 0.043(3) Uani 1 1 d . . . . .
C25 C 0.5547(17) 1.0765(8) 0.2574(7) 0.039(3) Uani 1 1 d . . . . .
C26 C 0.5626(13) 0.9697(9) 0.2791(6) 0.030(3) Uani 1 1 d . . . . .
C27 C 0.6843(16) 0.6069(7) 0.0863(6) 0.030(2) Uani 1 1 d . . . . .
C28 C 0.5662(16) 0.6066(10) 0.0400(7) 0.048(3) Uani 1 1 d . . . . .
C29 C 0.6206(18) 0.6145(11) -0.0267(6) 0.046(3) Uani 1 1 d . . . . .
C30 C 0.8036(17) 0.6175(10) -0.0522(6) 0.041(3) Uani 1 1 d . . . . .
C31 C 0.9234(17) 0.6184(10) -0.0099(7) 0.046(3) Uani 1 1 d . . . . .
C32 C 0.8684(15) 0.6128(9) 0.0571(6) 0.036(3) Uani 1 1 d . . . . .
C33 C 0.6230(15) 0.2304(8) 0.3885(6) 0.033(3) Uani 1 1 d . . . . .
C34 C 0.8121(15) 0.1881(8) 0.3930(6) 0.032(3) Uani 1 1 d . . . . .
C35 C 0.8636(15) 0.0882(9) 0.4112(6) 0.035(3) Uani 1 1 d . . . . .
C36 C 0.7351(17) 0.0285(8) 0.4223(6) 0.033(3) Uani 1 1 d . . . . .
C37 C 0.5540(17) 0.0668(8) 0.4168(6) 0.035(3) Uani 1 1 d . . . . .
C38 C 0.4990(15) 0.1685(8) 0.4010(6) 0.033(3) Uani 1 1 d . . . . .
C39 C 0.0359(17) 0.5613(10) 0.2878(7) 0.042(3) Uani 1 1 d . . . . .
C40 C 0.0985(19) 0.4612(9) 0.2797(7) 0.051(4) Uani 1 1 d . . . . .
H40A H -0.0039 0.4400 0.2649 0.076 Uiso 1 1 calc R U . . .
H40B H 0.1337 0.4157 0.3245 0.076 Uiso 1 1 calc R U . . .
H40C H 0.2072 0.4614 0.2441 0.076 Uiso 1 1 calc R U . . .
C41 C 0.0189(18) 0.7301(8) 0.2386(7) 0.044(3) Uani 1 1 d . . . . .
H41A H -0.1182 0.7431 0.2518 0.052 Uiso 1 1 calc R U . . .
H41B H 0.0842 0.7411 0.2743 0.052 Uiso 1 1 calc R U . . .
C42 C 0.068(2) 0.7939(10) 0.1707(7) 0.055(4) Uani 1 1 d . . . . .
H42A H 0.0066 0.7804 0.1356 0.083 Uiso 1 1 calc R U . . .
H42B H 0.2044 0.7824 0.1591 0.083 Uiso 1 1 calc R U . . .
H42C H 0.0258 0.8626 0.1711 0.083 Uiso 1 1 calc R U . . .
O1 O 0.1036(11) 0.5700(6) 0.5473(4) 0.0367(19) Uani 1 1 d . . . . .
H1 H -0.0086 0.5936 0.5399 0.055 Uiso 1 1 calc R U . . .
O2 O -0.0471(12) 0.5778(5) 0.3433(5) 0.046(2) Uani 1 1 d . . . . .
O3 O 0.0759(11) 0.6309(6) 0.2342(4) 0.0381(19) Uani 1 1 d . . . . .
N1 N 0.3338(12) 0.6773(6) 0.3762(5) 0.029(2) Uani 1 1 d . . . . .
N2 N 0.5097(12) 0.6901(6) 0.2483(5) 0.032(2) Uani 1 1 d . . . . .
N3 N 0.5741(12) 0.4916(6) 0.2774(5) 0.032(2) Uani 1 1 d . . . . .
N4 N 0.4041(12) 0.4785(6) 0.4115(5) 0.031(2) Uani 1 1 d . . . . .
F1 F 0.0771(8) 0.9689(4) 0.2769(4) 0.0440(18) Uani 1 1 d . . . . .
F2 F 0.0663(9) 1.1605(5) 0.2501(4) 0.053(2) Uani 1 1 d . . . . .
F3 F 0.3838(10) 1.2339(5) 0.2346(4) 0.0511(19) Uani 1 1 d . . . . .
F4 F 0.7148(9) 1.1118(5) 0.2502(4) 0.0487(19) Uani 1 1 d . . . . .
F5 F 0.7261(9) 0.9188(5) 0.2826(4) 0.0452(18) Uani 1 1 d . . . . .
F6 F 0.3878(10) 0.5997(7) 0.0657(4) 0.074(3) Uani 1 1 d . . . . .
F7 F 0.4979(11) 0.6123(9) -0.0692(4) 0.089(3) Uani 1 1 d . . . . .
F8 F 0.8568(11) 0.6234(7) -0.1199(4) 0.068(2) Uani 1 1 d . . . . .
F9 F 1.1044(9) 0.6240(7) -0.0352(4) 0.062(2) Uani 1 1 d . . . . .
F10 F 0.9935(9) 0.6113(6) 0.0993(4) 0.059(2) Uani 1 1 d . . . . .
F11 F 0.9412(8) 0.2427(4) 0.3816(3) 0.0353(15) Uani 1 1 d . . . . .
F12 F 1.0449(9) 0.0502(5) 0.4165(4) 0.0427(17) Uani 1 1 d . . . . .
F13 F 0.7850(9) -0.0679(5) 0.4400(4) 0.0480(18) Uani 1 1 d . . . . .
F14 F 0.4234(9) 0.0103(5) 0.4271(4) 0.0444(17) Uani 1 1 d . . . . .
F15 F 0.3189(8) 0.2041(5) 0.3939(4) 0.0426(17) Uani 1 1 d . . . . .
Ni1 Ni 0.45636(19) 0.58408(10) 0.32880(8) 0.0296(4) Uani 1 1 d . . . . .
C43 C 1.9142(16) 0.118(4) 0.063(3) 0.083(8) Uiso 0.25 1 d D . P A 1
H43A H 1.9819 0.0839 0.1037 0.125 Uiso 0.25 1 calc R U P A 1
H43B H 1.9639 0.1791 0.0374 0.125 Uiso 0.25 1 calc R U P A 1
H43C H 1.9307 0.0760 0.0314 0.125 Uiso 0.25 1 calc R U P A 1
C44 C 1.7064(19) 0.143(3) 0.0860(19) 0.083(8) Uiso 0.25 1 d D . P A 1
H44A H 1.6776 0.2157 0.0766 0.100 Uiso 0.25 1 calc R U P A 1
H44B H 1.6906 0.1154 0.1375 0.100 Uiso 0.25 1 calc R U P A 1
C45 C 1.5535(16) 0.113(3) 0.0576(13) 0.083(8) Uiso 0.25 1 d D . P A 1
H45A H 1.6067 0.0494 0.0483 0.100 Uiso 0.25 1 calc R U P A 1
H45B H 1.5334 0.1617 0.0114 0.100 Uiso 0.25 1 calc R U P A 1
C46 C 1.3601(18) 0.103(2) 0.0972(11) 0.083(8) Uiso 0.25 1 d D . P A 1
H46A H 1.3756 0.0410 0.1355 0.100 Uiso 0.25 1 calc R U P A 1
H46B H 1.3247 0.1570 0.1200 0.100 Uiso 0.25 1 calc R U P A 1
C47 C 1.1911(15) 0.1029(12) 0.0621(15) 0.083(8) Uiso 0.25 1 d D . P A 1
H47A H 1.2025 0.1500 0.0149 0.100 Uiso 0.25 1 calc R U P A 1
H47B H 1.0790 0.1312 0.0886 0.100 Uiso 0.25 1 calc R U P A 1
C48 C 1.146(2) 0.0101(14) 0.0523(17) 0.083(8) Uiso 0.25 1 d D . P A 1
H48A H 1.1867 -0.0486 0.0907 0.100 Uiso 0.25 1 calc R U P A 1
H48B H 1.2048 -0.0003 0.0068 0.100 Uiso 0.25 1 calc R U P A 1
C49 C 0.933(2) 0.033(2) 0.055(3) 0.083(8) Uiso 0.25 1 d D . P A 1
H49A H 0.9016 0.0265 0.0101 0.100 Uiso 0.25 1 calc R U P A 1
H49B H 0.8838 -0.0210 0.0926 0.100 Uiso 0.25 1 calc R U P A 1
C50 C 0.8181(15) 0.1285(19) 0.065(3) 0.083(8) Uiso 0.25 1 d D . P A 1
H50A H 0.8535 0.1409 0.1057 0.125 Uiso 0.25 1 calc R U P A 1
H50B H 0.6841 0.1239 0.0716 0.125 Uiso 0.25 1 calc R U P A 1
H50C H 0.8429 0.1827 0.0229 0.125 Uiso 0.25 1 calc R U P A 1
loop_
_atom_site_aniso_label
_atom_site_aniso_U_11
_atom_site_aniso_U_22
_atom_site_aniso_U_33
_atom_site_aniso_U_23
_atom_site_aniso_U_13
_atom_site_aniso_U_12
C1 0.021(6) 0.034(6) 0.032(6) -0.009(5) -0.004(5) -0.010(5)
C2 0.032(6) 0.026(6) 0.050(8) -0.018(5) -0.002(6) -0.008(5)
C3 0.030(7) 0.033(7) 0.075(9) -0.033(7) -0.006(6) 0.000(5)
C4 0.038(7) 0.028(6) 0.045(7) -0.009(5) -0.011(6) 0.004(5)
C5 0.032(6) 0.028(6) 0.028(6) -0.009(5) -0.012(5) 0.001(5)
C6 0.021(6) 0.026(6) 0.048(7) -0.014(5) -0.005(5) -0.005(5)
C7 0.032(6) 0.024(5) 0.023(5) -0.006(4) -0.004(5) -0.001(5)
C8 0.036(7) 0.053(8) 0.056(8) -0.028(7) -0.005(6) -0.012(6)
C9 0.026(6) 0.036(7) 0.048(7) -0.007(5) 0.006(5) -0.013(5)
C10 0.018(5) 0.041(7) 0.042(7) -0.011(5) -0.007(5) -0.014(5)
C11 0.021(6) 0.035(6) 0.042(7) -0.006(5) -0.012(5) -0.012(5)
C12 0.030(6) 0.049(7) 0.026(6) -0.019(5) -0.007(5) 0.001(5)
C13 0.026(6) 0.039(7) 0.037(7) -0.017(5) -0.003(5) -0.004(5)
C14 0.020(5) 0.024(5) 0.034(6) -0.015(5) -0.001(5) 0.003(4)
C15 0.018(5) 0.036(6) 0.031(6) -0.012(5) -0.007(5) 0.000(5)
C16 0.023(6) 0.028(6) 0.041(7) -0.007(5) -0.009(5) -0.009(5)
C17 0.026(6) 0.032(6) 0.051(8) -0.017(5) -0.014(5) 0.003(5)
C18 0.035(7) 0.031(6) 0.040(7) -0.004(5) -0.017(6) -0.006(5)
C19 0.027(6) 0.023(6) 0.032(6) -0.007(5) -0.011(5) 0.010(5)
C20 0.023(5) 0.032(6) 0.028(6) -0.014(5) -0.001(5) -0.004(5)
C21 0.026(6) 0.033(6) 0.038(7) -0.014(5) 0.003(5) -0.011(5)
C22 0.026(6) 0.032(6) 0.050(7) -0.013(5) 0.000(5) -0.013(5)
C23 0.020(6) 0.034(7) 0.051(8) -0.010(5) -0.002(5) -0.002(5)
C24 0.043(7) 0.029(6) 0.066(9) -0.019(6) -0.018(7) -0.004(6)
C25 0.039(7) 0.024(6) 0.061(8) -0.018(5) -0.016(6) -0.006(5)
C26 0.007(5) 0.062(8) 0.039(6) -0.042(6) 0.003(4) -0.006(5)
C27 0.036(6) 0.023(6) 0.033(6) -0.009(5) 0.000(5) -0.010(5)
C28 0.016(6) 0.074(10) 0.066(9) -0.038(8) 0.000(6) -0.007(6)
C29 0.046(8) 0.079(10) 0.023(6) -0.021(6) -0.009(6) -0.015(7)
C30 0.037(7) 0.062(8) 0.022(6) -0.010(5) -0.002(5) -0.009(6)
C31 0.036(7) 0.056(8) 0.049(8) -0.024(6) 0.002(6) -0.008(6)
C32 0.025(6) 0.052(7) 0.037(7) -0.022(6) -0.007(5) 0.000(6)
C33 0.032(6) 0.038(6) 0.035(6) -0.017(5) 0.004(5) -0.017(5)
C34 0.030(6) 0.037(7) 0.035(6) -0.015(5) -0.001(5) -0.013(5)
C35 0.022(6) 0.041(7) 0.043(7) -0.018(5) -0.005(5) 0.001(5)
C36 0.041(7) 0.025(6) 0.040(7) -0.014(5) -0.012(6) -0.006(5)
C37 0.045(7) 0.027(6) 0.040(7) -0.014(5) 0.007(6) -0.022(6)
C38 0.029(6) 0.031(6) 0.037(6) -0.013(5) -0.004(5) 0.003(5)
C39 0.030(7) 0.058(8) 0.040(7) -0.007(6) -0.003(6) -0.021(6)
C40 0.062(9) 0.042(8) 0.055(8) -0.010(6) -0.004(7) -0.031(7)
C41 0.042(7) 0.036(7) 0.055(8) -0.020(6) -0.018(6) 0.010(6)
C42 0.058(9) 0.059(9) 0.045(8) -0.002(7) -0.020(7) -0.009(7)
O1 0.033(4) 0.040(5) 0.036(5) -0.014(4) -0.002(4) -0.001(4)
O2 0.057(6) 0.022(4) 0.057(6) -0.017(4) -0.002(5) 0.001(4)
O3 0.038(5) 0.040(5) 0.041(5) -0.019(4) -0.002(4) -0.007(4)
N1 0.030(5) 0.028(5) 0.035(5) -0.014(4) -0.007(4) -0.010(4)
N2 0.021(5) 0.029(5) 0.045(6) -0.013(4) -0.002(4) -0.002(4)
N3 0.032(5) 0.028(5) 0.043(6) -0.018(4) -0.014(5) 0.000(4)
N4 0.022(5) 0.030(5) 0.047(6) -0.012(4) -0.018(4) -0.001(4)
F1 0.020(3) 0.029(4) 0.089(6) -0.022(3) -0.012(3) -0.004(3)
F2 0.032(4) 0.039(4) 0.086(6) -0.012(4) -0.015(4) -0.002(3)
F3 0.046(4) 0.031(4) 0.079(5) -0.013(4) -0.013(4) -0.010(3)
F4 0.028(4) 0.038(4) 0.089(6) -0.025(4) -0.014(4) -0.010(3)
F5 0.032(4) 0.036(4) 0.071(5) -0.017(3) -0.014(3) -0.003(3)
F6 0.030(4) 0.144(9) 0.058(5) -0.039(5) -0.009(4) -0.018(5)
F7 0.046(5) 0.176(11) 0.055(5) -0.046(6) -0.010(4) -0.017(6)
F8 0.060(5) 0.117(7) 0.033(4) -0.025(4) -0.005(4) -0.018(5)
F9 0.028(4) 0.111(7) 0.062(5) -0.044(5) 0.008(4) -0.026(4)
F10 0.030(4) 0.102(7) 0.057(5) -0.039(5) -0.008(4) -0.014(4)
F11 0.030(3) 0.035(4) 0.044(4) -0.016(3) 0.001(3) -0.007(3)
F12 0.033(4) 0.037(4) 0.061(5) -0.024(3) -0.010(3) 0.009(3)
F13 0.047(4) 0.028(4) 0.070(5) -0.016(3) -0.011(4) -0.002(3)
F14 0.040(4) 0.038(4) 0.056(4) -0.012(3) -0.004(3) -0.012(3)
F15 0.017(3) 0.036(4) 0.079(5) -0.025(3) -0.012(3) 0.006(3)
Ni1 0.0267(8) 0.0294(8) 0.0373(9) -0.0139(6) -0.0061(6) -0.0056(6)
loop_
_atom_type_symbol
_atom_type_description
_atom_type_scat_dispersion_real
_atom_type_scat_dispersion_imag
_atom_type_scat_source
C C 0.0030 0.0016 'International Tables Vol C Tables 4.2.6.8 and 6.1.1.4'
H H 0.0000 0.0000 'International Tables Vol C Tables 4.2.6.8 and 6.1.1.4'
O O 0.0105 0.0059 'International Tables Vol C Tables 4.2.6.8 and 6.1.1.4'
N N 0.0059 0.0032 'International Tables Vol C Tables 4.2.6.8 and 6.1.1.4'
F F 0.0170 0.0100 'International Tables Vol C Tables 4.2.6.8 and 6.1.1.4'
Ni Ni 0.3420 1.0892 'International Tables Vol C Tables 4.2.6.8 and 6.1.1.4'
loop_
_geom_angle_atom_site_label_1
_geom_angle_atom_site_label_2
_geom_angle_atom_site_label_3
_geom_angle
_geom_angle_site_symmetry_1
_geom_angle_site_symmetry_3
C20 C1 O1 122.4(10) . .
C20 C1 C2 123.6(10) . .
O1 C1 C2 113.7(10) . .
C1 C2 N1 125.4(10) . .
C1 C2 C3 122.7(11) . .
N1 C2 C3 111.8(10) . .
C4 C3 C2 106.0(11) . .
C4 C3 H3 127.0 . .
C2 C3 H3 127.0 . .
C3 C4 C5 107.4(10) . .
C3 C4 H4 126.3 . .
C5 C4 H4 126.3 . .
C6 C5 N1 124.5(10) . .
C6 C5 C4 123.9(10) . .
N1 C5 C4 111.2(10) . .
C5 C6 C7 121.8(10) . .
C5 C6 C21 119.6(10) . .
C7 C6 C21 118.6(10) . .
N2 C7 C6 124.6(10) . .
N2 C7 C8 112.4(10) . .
C6 C7 C8 122.6(10) . .
C9 C8 C7 106.5(11) . .
C9 C8 H8 126.7 . .
C7 C8 H8 126.7 . .
C8 C9 C10 106.8(11) . .
C8 C9 H9 126.6 . .
C10 C9 H9 126.6 . .
C11 C10 N2 124.1(10) . .
C11 C10 C9 124.6(11) . .
N2 C10 C9 111.3(10) . .
C12 C11 C10 122.4(11) . .
C12 C11 C27 120.0(10) . .
C10 C11 C27 117.5(10) . .
N3 C12 C11 125.6(10) . .
N3 C12 C13 111.9(10) . .
C11 C12 C13 122.4(10) . .
C14 C13 C12 108.6(10) . .
C14 C13 H13 125.7 . .
C12 C13 H13 125.7 . .
C13 C14 C15 106.8(10) . .
C13 C14 H14 126.6 . .
C15 C14 H14 126.6 . .
C16 C15 N3 125.6(10) . .
C16 C15 C14 126.3(10) . .
N3 C15 C14 108.1(9) . .
C15 C16 C17 123.8(10) . .
C15 C16 C33 116.6(10) . .
C17 C16 C33 118.9(10) . .
N4 C17 C16 124.1(11) . .
N4 C17 C18 111.2(10) . .
C16 C17 C18 124.7(11) . .
C19 C18 C17 107.0(10) . .
C19 C18 H18 126.5 . .
C17 C18 H18 126.5 . .
C18 C19 C20 108.5(10) . .
C18 C19 H19 125.7 . .
C20 C19 H19 125.7 . .
C1 C20 N4 123.8(10) . .
C1 C20 C19 126.1(10) . .
N4 C20 C19 110.0(9) . .
C22 C21 C26 119.7(10) . .
C22 C21 C6 122.9(10) . .
C26 C21 C6 117.3(10) . .
F1 C22 C21 120.2(10) . .
F1 C22 C23 116.7(10) . .
C21 C22 C23 123.1(10) . .
F2 C23 C24 121.2(11) . .
F2 C23 C22 120.3(10) . .
C24 C23 C22 118.5(10) . .
F3 C24 C25 120.6(11) . .
F3 C24 C23 118.8(11) . .
C25 C24 C23 120.6(11) . .
C24 C25 F4 120.7(10) . .
C24 C25 C26 121.0(10) . .
F4 C25 C26 118.2(10) . .
F5 C26 C21 126.6(11) . .
F5 C26 C25 115.7(9) . .
C21 C26 C25 116.6(10) . .
C28 C27 C32 114.0(10) . .
C28 C27 C11 124.0(10) . .
C32 C27 C11 122.0(10) . .
C29 C28 F6 120.6(11) . .
C29 C28 C27 123.0(11) . .
F6 C28 C27 116.4(11) . .
C28 C29 F7 120.1(12) . .
C28 C29 C30 120.5(11) . .
F7 C29 C30 119.2(10) . .
C31 C30 F8 121.6(11) . .
C31 C30 C29 118.9(11) . .
F8 C30 C29 119.5(10) . .
C30 C31 C32 120.9(12) . .
C30 C31 F9 119.4(11) . .
C32 C31 F9 119.7(11) . .
C31 C32 F10 119.7(11) . .
C31 C32 C27 122.6(11) . .
F10 C32 C27 117.7(10) . .
C38 C33 C34 116.8(11) . .
C38 C33 C16 124.3(10) . .
C34 C33 C16 118.9(9) . .
F11 C34 C35 118.8(10) . .
F11 C34 C33 120.8(10) . .
C35 C34 C33 120.3(10) . .
F12 C35 C36 120.2(11) . .
F12 C35 C34 118.8(10) . .
C36 C35 C34 121.0(10) . .
F13 C36 C37 119.1(10) . .
F13 C36 C35 120.9(11) . .
C37 C36 C35 120.0(10) . .
F14 C37 C36 121.7(10) . .
F14 C37 C38 118.8(10) . .
C36 C37 C38 119.5(10) . .
F15 C38 C33 119.8(10) . .
F15 C38 C37 117.8(10) . .
C33 C38 C37 122.3(11) . .
O2 C39 O3 121.6(13) . .
O2 C39 C40 123.2(12) . .
O3 C39 C40 115.2(11) . .
C39 C40 H40A 109.5 . .
C39 C40 H40B 109.5 . .
H40A C40 H40B 109.5 . .
C39 C40 H40C 109.5 . .
H40A C40 H40C 109.5 . .
H40B C40 H40C 109.5 . .
C42 C41 O3 107.1(11) . .
C42 C41 H41A 110.3 . .
O3 C41 H41A 110.3 . .
C42 C41 H41B 110.3 . .
O3 C41 H41B 110.3 . .
H41A C41 H41B 108.5 . .
C41 C42 H42A 109.5 . .
C41 C42 H42B 109.5 . .
H42A C42 H42B 109.5 . .
C41 C42 H42C 109.5 . .
H42A C42 H42C 109.5 . .
H42B C42 H42C 109.5 . .
C1 O1 H1 109.5 . .
C39 O3 C41 118.1(10) . .
C5 N1 C2 103.2(8) . .
C5 N1 Ni1 129.7(8) . .
C2 N1 Ni1 127.1(7) . .
C7 N2 C10 103.0(9) . .
C7 N2 Ni1 129.2(8) . .
C10 N2 Ni1 127.8(7) . .
C12 N3 C15 104.4(9) . .
C12 N3 Ni1 128.9(8) . .
C15 N3 Ni1 126.5(8) . .
C17 N4 C20 103.2(9) . .
C17 N4 Ni1 127.8(8) . .
C20 N4 Ni1 129.0(7) . .
N1 Ni1 N2 88.8(4) . .
N1 Ni1 N3 177.5(4) . .
N2 Ni1 N3 89.8(4) . .
N1 Ni1 N4 90.2(4) . .
N2 Ni1 N4 178.7(4) . .
N3 Ni1 N4 91.1(4) . .
C44 C43 H43A 109.5 . .
C44 C43 H43B 109.5 . .
H43A C43 H43B 109.5 . .
C44 C43 H43C 109.5 . .
H43A C43 H43C 109.5 . .
H43B C43 H43C 109.5 . .
C43 C44 C45 122.89(13) . .
C43 C44 H44A 106.6 . .
C45 C44 H44A 106.6 . .
C43 C44 H44B 106.6 . .
C45 C44 H44B 106.6 . .
H44A C44 H44B 106.6 . .
C44 C45 C46 122.87(13) . .
C44 C45 C50 23.7(15) . 1_655
C46 C45 C50 144.9(18) . 1_655
C44 C45 H45A 106.6 . .
C46 C45 H45A 106.6 . .
C50 C45 H45A 87.8 1_655 .
C44 C45 H45B 106.6 . .
C46 C45 H45B 106.6 . .
C50 C45 H45B 99.2 1_655 .
H45A C45 H45B 106.6 . .
C47 C46 C45 122.89(13) . .
C47 C46 H46A 106.6 . .
C45 C46 H46A 106.6 . .
C47 C46 H46B 106.6 . .
C45 C46 H46B 106.6 . .
H46A C46 H46B 106.6 . .
C46 C47 C48 122.88(13) . .
C46 C47 C43 150(2) . 1_455
C48 C47 C43 71.6(14) . 1_455
C46 C47 H47A 106.6 . .
C48 C47 H47A 106.6 . .
C43 C47 H47A 91.6 1_455 .
C46 C47 H47B 106.6 . .
C48 C47 H47B 106.6 . .
C43 C47 H47B 44.2 1_455 .
H47A C47 H47B 106.6 . .
C47 C48 C49 102.02(10) . .
C47 C48 H48A 111.4 . .
C49 C48 H48A 111.4 . .
C47 C48 H48B 111.4 . .
C49 C48 H48B 111.4 . .
H48A C48 H48B 109.2 . .
C50 C49 C48 122.88(13) . .
C50 C49 H49A 106.6 . .
C48 C49 H49A 106.6 . .
C50 C49 H49B 106.6 . .
C48 C49 H49B 106.6 . .
H49A C49 H49B 106.6 . .
C49 C50 H50A 109.5 . .
C49 C50 H50B 109.5 . .
H50A C50 H50B 109.5 . .
C49 C50 H50C 109.5 . .
H50A C50 H50C 109.5 . .
H50B C50 H50C 109.5 . .
loop_
_geom_bond_atom_site_label_1
_geom_bond_atom_site_label_2
_geom_bond_distance
_geom_bond_site_symmetry_2
C1 C20 1.334(15) .
C1 O1 1.346(13) .
C1 C2 1.376(15) .
C2 N1 1.398(14) .
C2 C3 1.427(15) .
C3 C4 1.343(17) .
C3 H3 0.9500 .
C4 C5 1.442(15) .
C4 H4 0.9500 .
C5 C6 1.362(15) .
C5 N1 1.370(13) .
C6 C7 1.379(15) .
C6 C21 1.475(15) .
C7 N2 1.346(13) .
C7 C8 1.420(16) .
C8 C9 1.334(16) .
C8 H8 0.9500 .
C9 C10 1.409(16) .
C9 H9 0.9500 .
C10 C11 1.377(15) .
C10 N2 1.393(14) .
C11 C12 1.377(16) .
C11 C27 1.478(15) .
C12 N3 1.325(14) .
C12 C13 1.390(15) .
C13 C14 1.290(15) .
C13 H13 0.9500 .
C14 C15 1.439(14) .
C14 H14 0.9500 .
C15 C16 1.349(15) .
C15 N3 1.398(13) .
C16 C17 1.385(16) .
C16 C33 1.473(15) .
C17 N4 1.370(14) .
C17 C18 1.386(16) .
C18 C19 1.305(15) .
C18 H18 0.9500 .
C19 C20 1.388(15) .
C19 H19 0.9500 .
C20 N4 1.374(13) .
C21 C22 1.352(15) .
C21 C26 1.357(13) .
C22 F1 1.328(11) .
C22 C23 1.381(15) .
C23 F2 1.317(12) .
C23 C24 1.355(15) .
C24 F3 1.330(13) .
C24 C25 1.332(16) .
C25 F4 1.339(12) .
C25 C26 1.465(16) .
C26 F5 1.271(11) .
C27 C28 1.370(15) .
C27 C32 1.388(15) .
C28 C29 1.313(17) .
C28 F6 1.335(13) .
C29 F7 1.347(13) .
C29 C30 1.358(16) .
C30 C31 1.319(16) .
C30 F8 1.339(13) .
C31 C32 1.326(16) .
C31 F9 1.349(13) .
C32 F10 1.337(12) .
C33 C38 1.344(15) .
C33 C34 1.399(15) .
C34 F11 1.300(11) .
C34 C35 1.366(16) .
C35 F12 1.335(12) .
C35 C36 1.350(15) .
C36 F13 1.317(12) .
C36 C37 1.336(16) .
C37 F14 1.331(12) .
C37 C38 1.394(15) .
C38 F15 1.327(12) .
C39 O2 1.249(14) .
C39 O3 1.274(14) .
C39 C40 1.477(18) .
C40 H40A 0.9800 .
C40 H40B 0.9800 .
C40 H40C 0.9800 .
C41 C42 1.434(17) .
C41 O3 1.437(13) .
C41 H41A 0.9900 .
C41 H41B 0.9900 .
C42 H42A 0.9800 .
C42 H42B 0.9800 .
C42 H42C 0.9800 .
O1 H1 0.8400 .
N1 Ni1 1.882(9) .
N2 Ni1 1.913(9) .
N3 Ni1 1.919(9) .
N4 Ni1 1.934(9) .
C43 C44 1.5199(12) .
C43 H43A 0.9800 .
C43 H43B 0.9800 .
C43 H43C 0.9800 .
C44 C45 1.5200(11) .
C44 H44A 0.9900 .
C44 H44B 0.9900 .
C45 C46 1.5200(12) .
C45 C50 2.021(9) 1_655
C45 H45A 0.9900 .
C45 H45B 0.9900 .
C46 C47 1.5199(11) .
C46 H46A 0.9900 .
C46 H46B 0.9900 .
C47 C48 1.5200(12) .
C47 C43 1.989(7) 1_455
C47 H47A 0.9900 .
C47 H47B 0.9900 .
C48 C49 1.5200(12) .
C48 H48A 0.9900 .
C48 H48B 0.9900 .
C49 C50 1.5200(12) .
C49 H49A 0.9900 .
C49 H49B 0.9900 .
C50 H50A 0.9800 .
C50 H50B 0.9800 .
C50 H50C 0.9800 .
loop_
_geom_torsion_atom_site_label_1
_geom_torsion_atom_site_label_2
_geom_torsion_atom_site_label_3
_geom_torsion_atom_site_label_4
_geom_torsion
_geom_torsion_site_symmetry_1
_geom_torsion_site_symmetry_4
C20 C1 C2 N1 3.4(18) . .
O1 C1 C2 N1 177.5(10) . .
C20 C1 C2 C3 -174.1(10) . .
O1 C1 C2 C3 -0.1(15) . .
C1 C2 C3 C4 171.7(11) . .
N1 C2 C3 C4 -6.2(13) . .
C2 C3 C4 C5 3.7(13) . .
C3 C4 C5 C6 173.5(11) . .
C3 C4 C5 N1 -0.2(13) . .
N1 C5 C6 C7 3.9(17) . .
C4 C5 C6 C7 -169.0(10) . .
N1 C5 C6 C21 -178.8(9) . .
C4 C5 C6 C21 8.3(16) . .
C5 C6 C7 N2 -1.8(17) . .
C21 C6 C7 N2 -179.1(10) . .
C5 C6 C7 C8 169.9(11) . .
C21 C6 C7 C8 -7.4(16) . .
N2 C7 C8 C9 -0.6(14) . .
C6 C7 C8 C9 -173.2(10) . .
C7 C8 C9 C10 0.6(13) . .
C8 C9 C10 C11 -178.0(10) . .
C8 C9 C10 N2 -0.6(13) . .
N2 C10 C11 C12 -7.6(16) . .
C9 C10 C11 C12 169.6(11) . .
N2 C10 C11 C27 175.1(9) . .
C9 C10 C11 C27 -7.7(16) . .
C10 C11 C12 N3 3.8(18) . .
C27 C11 C12 N3 -179.0(10) . .
C10 C11 C12 C13 -171.1(10) . .
C27 C11 C12 C13 6.1(16) . .
N3 C12 C13 C14 -1.9(14) . .
C11 C12 C13 C14 173.7(10) . .
C12 C13 C14 C15 3.9(12) . .
C13 C14 C15 C16 176.5(10) . .
C13 C14 C15 N3 -4.7(12) . .
N3 C15 C16 C17 10.8(17) . .
C14 C15 C16 C17 -170.6(10) . .
N3 C15 C16 C33 -179.0(9) . .
C14 C15 C16 C33 -0.4(15) . .
C15 C16 C17 N4 -7.7(17) . .
C33 C16 C17 N4 -177.6(10) . .
C15 C16 C17 C18 170.9(11) . .
C33 C16 C17 C18 1.0(16) . .
N4 C17 C18 C19 1.4(13) . .
C16 C17 C18 C19 -177.4(10) . .
C17 C18 C19 C20 0.3(12) . .
O1 C1 C20 N4 179.9(9) . .
C2 C1 C20 N4 -6.6(17) . .
O1 C1 C20 C19 -2.7(17) . .
C2 C1 C20 C19 170.8(11) . .
C18 C19 C20 C1 -179.5(11) . .
C18 C19 C20 N4 -1.8(12) . .
C5 C6 C21 C22 -68.5(15) . .
C7 C6 C21 C22 108.8(13) . .
C5 C6 C21 C26 110.5(12) . .
C7 C6 C21 C26 -72.2(14) . .
C26 C21 C22 F1 -177.5(10) . .
C6 C21 C22 F1 1.5(18) . .
C26 C21 C22 C23 3.1(19) . .
C6 C21 C22 C23 -177.9(11) . .
F1 C22 C23 F2 1.8(17) . .
C21 C22 C23 F2 -178.8(11) . .
F1 C22 C23 C24 -177.8(11) . .
C21 C22 C23 C24 1.6(19) . .
F2 C23 C24 F3 -0.2(19) . .
C22 C23 C24 F3 179.4(11) . .
F2 C23 C24 C25 179.7(11) . .
C22 C23 C24 C25 -1(2) . .
F3 C24 C25 F4 0(2) . .
C23 C24 C25 F4 -179.8(12) . .
F3 C24 C25 C26 175.4(11) . .
C23 C24 C25 C26 -5(2) . .
C22 C21 C26 F5 -175.4(11) . .
C6 C21 C26 F5 5.5(17) . .
C22 C21 C26 C25 -7.9(16) . .
C6 C21 C26 C25 173.1(10) . .
C24 C25 C26 F5 177.7(11) . .
F4 C25 C26 F5 -6.8(15) . .
C24 C25 C26 C21 8.8(17) . .
F4 C25 C26 C21 -175.7(10) . .
C12 C11 C27 C28 85.7(15) . .
C10 C11 C27 C28 -97.0(13) . .
C12 C11 C27 C32 -92.6(13) . .
C10 C11 C27 C32 84.8(13) . .
C32 C27 C28 C29 -2.3(19) . .
C11 C27 C28 C29 179.3(13) . .
C32 C27 C28 F6 179.1(11) . .
C11 C27 C28 F6 0.7(18) . .
F6 C28 C29 F7 -2(2) . .
C27 C28 C29 F7 179.1(12) . .
F6 C28 C29 C30 -177.3(13) . .
C27 C28 C29 C30 4(2) . .
C28 C29 C30 C31 -4(2) . .
F7 C29 C30 C31 -179.1(13) . .
C28 C29 C30 F8 178.5(13) . .
F7 C29 C30 F8 4(2) . .
F8 C30 C31 C32 179.8(12) . .
C29 C30 C31 C32 3(2) . .
F8 C30 C31 F9 -1(2) . .
C29 C30 C31 F9 -178.2(12) . .
C30 C31 C32 F10 178.3(12) . .
F9 C31 C32 F10 -1.0(19) . .
C30 C31 C32 C27 -1(2) . .
F9 C31 C32 C27 179.9(10) . .
C28 C27 C32 C31 0.6(18) . .
C11 C27 C32 C31 179.0(12) . .
C28 C27 C32 F10 -178.5(11) . .
C11 C27 C32 F10 -0.1(16) . .
C15 C16 C33 C38 -104.9(13) . .
C17 C16 C33 C38 65.8(15) . .
C15 C16 C33 C34 75.9(13) . .
C17 C16 C33 C34 -113.4(12) . .
C38 C33 C34 F11 179.9(10) . .
C16 C33 C34 F11 -0.8(16) . .
C38 C33 C34 C35 -1.7(16) . .
C16 C33 C34 C35 177.5(10) . .
F11 C34 C35 F12 -0.2(16) . .
C33 C34 C35 F12 -178.6(10) . .
F11 C34 C35 C36 -178.7(10) . .
C33 C34 C35 C36 2.9(18) . .
F12 C35 C36 F13 1.7(17) . .
C34 C35 C36 F13 -179.9(10) . .
F12 C35 C36 C37 -179.9(10) . .
C34 C35 C36 C37 -1.4(18) . .
F13 C36 C37 F14 -1.7(17) . .
C35 C36 C37 F14 179.8(10) . .
F13 C36 C37 C38 177.3(10) . .
C35 C36 C37 C38 -1.2(18) . .
C34 C33 C38 F15 -176.4(10) . .
C16 C33 C38 F15 4.4(17) . .
C34 C33 C38 C37 -0.8(17) . .
C16 C33 C38 C37 179.9(11) . .
F14 C37 C38 F15 -3.0(16) . .
C36 C37 C38 F15 177.9(10) . .
F14 C37 C38 C33 -178.6(10) . .
C36 C37 C38 C33 2.3(18) . .
O2 C39 O3 C41 -1.4(16) . .
C40 C39 O3 C41 180.0(10) . .
C42 C41 O3 C39 -175.9(10) . .
C6 C5 N1 C2 -177.1(10) . .
C4 C5 N1 C2 -3.4(11) . .
C6 C5 N1 Ni1 4.7(16) . .
C4 C5 N1 Ni1 178.4(7) . .
C1 C2 N1 C5 -171.9(11) . .
C3 C2 N1 C5 5.8(12) . .
C1 C2 N1 Ni1 6.3(16) . .
C3 C2 N1 Ni1 -175.9(7) . .
C6 C7 N2 C10 172.7(10) . .
C8 C7 N2 C10 0.2(12) . .
C6 C7 N2 Ni1 -8.8(16) . .
C8 C7 N2 Ni1 178.7(7) . .
C11 C10 N2 C7 177.7(10) . .
C9 C10 N2 C7 0.2(12) . .
C11 C10 N2 Ni1 -0.8(15) . .
C9 C10 N2 Ni1 -178.3(7) . .
C11 C12 N3 C15 -176.6(10) . .
C13 C12 N3 C15 -1.2(12) . .
C11 C12 N3 Ni1 8.5(17) . .
C13 C12 N3 Ni1 -176.1(7) . .
C16 C15 N3 C12 -177.7(10) . .
C14 C15 N3 C12 3.5(11) . .
C16 C15 N3 Ni1 -2.6(15) . .
C14 C15 N3 Ni1 178.6(7) . .
C16 C17 N4 C20 176.4(10) . .
C18 C17 N4 C20 -2.4(11) . .
C16 C17 N4 Ni1 -3.4(15) . .
C18 C17 N4 Ni1 177.8(7) . .
C1 C20 N4 C17 -179.7(10) . .
C19 C20 N4 C17 2.5(11) . .
C1 C20 N4 Ni1 0.0(15) . .
C19 C20 N4 Ni1 -177.7(7) . .
C5 N1 Ni1 N2 -10.4(9) . .
C2 N1 Ni1 N2 171.8(9) . .
C5 N1 Ni1 N4 168.7(9) . .
C2 N1 Ni1 N4 -9.1(9) . .
C43 C44 C45 C46 157(4) . .
C43 C44 C45 C50 -5(4) . 1_655
C44 C45 C46 C47 162(2) . .
C50 C45 C46 C47 174(3) 1_655 .
C45 C46 C47 C48 87(2) . .
C45 C46 C47 C43 -161(4) . 1_455
C46 C47 C48 C49 150(3) . .
C43 C47 C48 C49 -1(3) 1_455 .
C47 C48 C49 C50 0(5) . .
