#------------------------------------------------------------------------------
#$Date: 2017-10-07 05:55:59 +0300 (Sat, 07 Oct 2017) $
#$Revision: 201846 $
#$URL: file:///home/coder/svn-repositories/cod/cif/7/04/44/7044434.cif $
#------------------------------------------------------------------------------
#
# This file is available in the Crystallography Open Database (COD),
# http://www.crystallography.net/
#
# All data on this site have been placed in the public domain by the
# contributors.
#
data_7044434
loop_
_publ_author_name
'Ching, Wei-Min'
'Chen, Peter Ping-Yu'
'Hung, Chen-Hsiung'
_publ_section_title
;
 Mechanistic Study of Nitrite Reduction on Iron(II) Complexes of
 Methylated N-Confused Porphyrins
;
_journal_name_full               'Dalton Trans.'
_journal_paper_doi               10.1039/C7DT02869E
_journal_year                    2017
_chemical_formula_sum            'C46.5 H34 Br Cl Fe N4'
_chemical_formula_weight         819.98
_space_group_crystal_system      triclinic
_space_group_IT_number           2
_space_group_name_Hall           '-P 1'
_space_group_name_H-M_alt        'P -1'
_symmetry_space_group_name_Hall  '-P 1'
_symmetry_space_group_name_H-M   'P -1'
_atom_sites_solution_hydrogens   geom
_atom_sites_solution_primary     direct
_atom_sites_solution_secondary   difmap
_audit_creation_method           SHELXL-2014/7
_audit_update_record
;
2017-10-06 deposited with the CCDC.
2017-10-06 downloaded from the CCDC.
;
_cell_angle_alpha                89.986(2)
_cell_angle_beta                 80.134(2)
_cell_angle_gamma                67.664(2)
_cell_formula_units_Z            2
_cell_length_a                   12.4481(4)
_cell_length_b                   12.8921(4)
_cell_length_c                   13.1225(5)
_cell_measurement_reflns_used    3871
_cell_measurement_temperature    150(2)
_cell_measurement_theta_max      24.446
_cell_measurement_theta_min      2.245
_cell_volume                     1914.25(12)
_computing_cell_refinement       'Bruker SMART'
_computing_data_collection       'Bruker SMART'
_computing_data_reduction        'Bruker SAINT'
_computing_molecular_graphics    'Bruker SHELXTL'
_computing_publication_material  'Bruker SHELXTL'
_computing_structure_refinement  'SHELXL-2014/7 (Sheldrick, 2014)'
_computing_structure_solution    'SHELXL-2014/7 (Sheldrick, 2014)'
_diffrn_ambient_temperature      150(2)
_diffrn_measured_fraction_theta_full 0.977
_diffrn_measured_fraction_theta_max 0.977
_diffrn_measurement_device_type  'CCD area detector'
_diffrn_measurement_method       'phi and omega scans'
_diffrn_radiation_type           MoK\a
_diffrn_radiation_wavelength     0.71073
_diffrn_reflns_av_R_equivalents  0.0484
_diffrn_reflns_av_unetI/netI     0.0655
_diffrn_reflns_Laue_measured_fraction_full 0.977
_diffrn_reflns_Laue_measured_fraction_max 0.977
_diffrn_reflns_limit_h_max       14
_diffrn_reflns_limit_h_min       -14
_diffrn_reflns_limit_k_max       15
_diffrn_reflns_limit_k_min       -13
_diffrn_reflns_limit_l_max       15
_diffrn_reflns_limit_l_min       -15
_diffrn_reflns_number            20288
_diffrn_reflns_point_group_measured_fraction_full 0.977
_diffrn_reflns_point_group_measured_fraction_max 0.977
_diffrn_reflns_theta_full        25.185
_diffrn_reflns_theta_max         25.185
_diffrn_reflns_theta_min         1.579
_diffrn_source                   'fine-focus sealed tube'
_exptl_absorpt_coefficient_mu    1.547
_exptl_absorpt_correction_T_max  0.8549
_exptl_absorpt_correction_T_min  0.8052
_exptl_absorpt_correction_type   multi-scan
_exptl_absorpt_process_details   SADABS
_exptl_crystal_colour            brown
_exptl_crystal_density_diffrn    1.423
_exptl_crystal_description       block
_exptl_crystal_F_000             838
_exptl_crystal_size_max          0.140
_exptl_crystal_size_mid          0.100
_exptl_crystal_size_min          0.100
_refine_diff_density_max         2.583
_refine_diff_density_min         -0.638
_refine_diff_density_rms         0.176
_refine_ls_extinction_method     none
_refine_ls_goodness_of_fit_ref   1.018
_refine_ls_hydrogen_treatment    constr
_refine_ls_matrix_type           full
_refine_ls_number_parameters     507
_refine_ls_number_reflns         6714
_refine_ls_number_restraints     14
_refine_ls_restrained_S_all      1.998
_refine_ls_R_factor_all          0.0899
_refine_ls_R_factor_gt           0.0569
_refine_ls_shift/su_max          0.000
_refine_ls_shift/su_mean         0.000
_refine_ls_structure_factor_coef Fsqd
_refine_ls_weighting_details
'w=1/[\s^2^(Fo^2^)+(0.1122P)^2^+3.6935P] where P=(Fo^2^+2Fc^2^)/3'
_refine_ls_weighting_scheme      calc
_refine_ls_wR_factor_gt          0.1552
_refine_ls_wR_factor_ref         0.1943
_reflns_Friedel_coverage         0.000
_reflns_number_gt                4724
_reflns_number_total             6714
_reflns_threshold_expression     'I > 2\s(I)'
_cod_data_source_file            c7dt02869e2.cif
_cod_data_source_block           i11097p2
_cod_depositor_comments
;
The following automatic conversions were performed:

'_exptl_absorpt_correction_type' value 'Multi-scan' changed to
'multi-scan' according to
/home/data/users/saulius/crontab/automatic-downloads/rss-feeds/RSC/lib/dictionaries/cif_core.dic
dictionary named 'cif_core.dic' version 2.4.2 from 2011-04-26.

Automatic conversion script
Id: cif_fix_values 4973 2017-02-22 13:04:09Z antanas 
;
_cod_original_formula_sum        'C46.50 H34 Br Cl Fe N4'
_cod_database_code               7044434
_shelx_shelxl_version_number     2014/7
_shelx_space_group_comment
;
The symmetry employed for this shelxl refinement is uniquely defined
by the following loop, which should always be used as a source of
symmetry information in preference to the above space-group names.
They are only intended as comments.
;
_shelx_estimated_absorpt_t_min   0.813
_shelx_estimated_absorpt_t_max   0.861
_shelx_res_file
;

    i11097p2.res created by SHELXL-2014/7

TITL i11097p2 in P-1
CELL 0.71073  12.4481  12.8921  13.1225  89.986  80.134  67.664
ZERR    2.00   0.0004   0.0004   0.0005   0.002   0.002   0.002
LATT 1
SFAC C  H  N  Fe Br Cl
UNIT 93  68  8  2  2  2
L.S. 60
ACTA
BOND
FMAP 2
PLAN 2
SIZE 0.14 0.10 0.10
eadp C47 Cl1 Cl2
eadp cl1a cl2a c47a
exyz N1a C20
exyz N1 C20a
eadp N1a C20
eadp N1 C20a
exyz cl2 cl2a
eadp C1 C1A
eadp C2 C2A
eadp C19 C19A
exyz C1 C1A
exyz C2 C2A
exyz C19 C19A
bump - 0.2
DFIX 1.77 0.001 CL1 C47
DFIX 1.77 0.001 CL2 C47
DFIX 1.77 0.001 CL1A C47A
DFIX 1.77 0.001 CL2A C47A
DFIX 2.88 0.001 CL1A CL2A
DFIX 2.88 0.001 CL1 CL2
DFIX 0.9 0.001 C46A H46D
DFIX 0.9 0.001 C46A H46E
DFIX 0.9 0.001 C46A H46F
TEMP -123.000
WGHT    0.112200    3.693500
FVAR       0.12594
PART 0
FE1   4    0.343272    0.957700    0.345885    11.00000    0.01871    0.02333 =
         0.02323    0.00860   -0.00761   -0.00959
N2    3    0.496895    0.962235    0.246749    11.00000    0.01935    0.02694 =
         0.02689    0.01136   -0.00653   -0.00947
N3    3    0.457376    0.818840    0.404509    11.00000    0.02016    0.02503 =
         0.02313    0.01024   -0.00690   -0.01072
N4    3    0.235333    0.996518    0.497986    11.00000    0.01984    0.02328 =
         0.02503    0.01066   -0.00710   -0.00901
BR1   5    0.223639    0.925570    0.230666    11.00000    0.03464    0.03959 =
         0.03602    0.01082   -0.01648   -0.02095
C1    1    0.278480    1.163728    0.351283    10.75000    0.02720    0.02031 =
         0.02654    0.00785   -0.00600   -0.01144
C2    1    0.299493    1.171680    0.243961    10.75000    0.02485    0.02317 =
         0.02603    0.01292   -0.01042   -0.01097
C3    1    0.411301    1.144988    0.175247    11.00000    0.03018    0.03206 =
         0.02284    0.00981   -0.00726   -0.01093
C4    1    0.505471    1.047801    0.184594    11.00000    0.02580    0.02685 =
         0.02853    0.01214   -0.00549   -0.00923
C5    1    0.627885    1.016190    0.133032    11.00000    0.02677    0.03664 =
         0.03815    0.02068   -0.00231   -0.01371
AFIX  43
H5    2    0.659007    1.060042    0.088310    11.00000   -1.20000
AFIX   0
C6    1    0.688439    0.912627    0.161097    11.00000    0.02093    0.03747 =
         0.03606    0.01340    0.00057   -0.01059
AFIX  43
H6    2    0.770361    0.869423    0.138603    11.00000   -1.20000
AFIX   0
C7    1    0.606672    0.878817    0.231550    11.00000    0.02128    0.03041 =
         0.02561    0.00520   -0.00320   -0.01118
C8    1    0.638637    0.774475    0.275674    11.00000    0.02034    0.02689 =
         0.02459    0.00606   -0.00738   -0.00901
C9    1    0.565907    0.746467    0.354032    11.00000    0.02138    0.02701 =
         0.02381    0.00697   -0.00869   -0.01147
C10   1    0.599294    0.639651    0.401378    11.00000    0.01818    0.02215 =
         0.03188    0.00617   -0.00788   -0.00666
AFIX  43
H10   2    0.669219    0.574654    0.379456    11.00000   -1.20000
AFIX   0
C11   1    0.512829    0.650216    0.481740    11.00000    0.02368    0.02227 =
         0.03250    0.01123   -0.00887   -0.01120
AFIX  43
H11   2    0.509472    0.593559    0.527000    11.00000   -1.20000
AFIX   0
C12   1    0.424794    0.764380    0.487204    11.00000    0.02042    0.02743 =
         0.02503    0.00927   -0.01033   -0.01169
C13   1    0.330600    0.812061    0.567426    11.00000    0.02183    0.02725 =
         0.02443    0.01350   -0.01205   -0.01331
C14   1    0.247540    0.925090    0.574623    11.00000    0.02064    0.02310 =
         0.02702    0.01226   -0.00931   -0.01047
C15   1    0.161030    0.977956    0.666884    11.00000    0.02464    0.03094 =
         0.02455    0.01483   -0.00753   -0.00901
AFIX  43
H15   2    0.152524    0.944956    0.730947    11.00000   -1.20000
AFIX   0
C16   1    0.095418    1.081341    0.645745    11.00000    0.02855    0.03328 =
         0.02408    0.00705   -0.00171   -0.01075
AFIX  43
H16   2    0.032720    1.136267    0.692457    11.00000   -1.20000
AFIX   0
C17   1    0.137223    1.094884    0.538081    11.00000    0.01966    0.02741 =
         0.02744    0.00838   -0.00770   -0.01054
C18   1    0.089669    1.184525    0.480631    11.00000    0.01697    0.02465 =
         0.02809    0.00757   -0.00855   -0.00996
C19   1    0.153816    1.192863    0.381039    10.75000    0.02152    0.02317 =
         0.03309    0.01270   -0.01180   -0.00872
C21   1    0.421771    1.228380    0.100156    11.00000    0.02080    0.02817 =
         0.03113    0.01313   -0.01024   -0.00984
C22   1    0.363347    1.341582    0.130852    11.00000    0.02700    0.03551 =
         0.03725    0.01167   -0.01522   -0.01520
AFIX  43
H22   2    0.313381    1.364023    0.197007    11.00000   -1.20000
AFIX   0
C23   1    0.376822    1.423053    0.066052    11.00000    0.03638    0.03044 =
         0.05240    0.01810   -0.02366   -0.01745
AFIX  43
H23   2    0.336677    1.500538    0.088102    11.00000   -1.20000
AFIX   0
C24   1    0.448996    1.390605   -0.030657    11.00000    0.03821    0.04595 =
         0.04459    0.02776   -0.02408   -0.02731
AFIX  43
H24   2    0.460167    1.445768   -0.074419    11.00000   -1.20000
AFIX   0
C25   1    0.504490    1.278486   -0.063310    11.00000    0.03131    0.04395 =
         0.03787    0.02001   -0.01301   -0.01813
AFIX  43
H25   2    0.552710    1.256381   -0.130248    11.00000   -1.20000
AFIX   0
C26   1    0.490345    1.197650    0.001034    11.00000    0.02970    0.03818 =
         0.03757    0.01525   -0.00925   -0.01482
AFIX  43
H26   2    0.527797    1.120450   -0.022677    11.00000   -1.20000
AFIX   0
C27   1    0.759979    0.689266    0.237676    11.00000    0.02045    0.02595 =
         0.02248    0.01071   -0.00618   -0.00834
C28   1    0.788040    0.628236    0.143409    11.00000    0.02534    0.03561 =
         0.02399    0.00724   -0.00433   -0.01424
AFIX  43
H28   2    0.729983    0.644224    0.100806    11.00000   -1.20000
AFIX   0
C29   1    0.897921    0.544936    0.109748    11.00000    0.02734    0.03377 =
         0.03017    0.00040   -0.00015   -0.01287
AFIX  43
H29   2    0.914622    0.503740    0.045022    11.00000   -1.20000
AFIX   0
C30   1    0.983753    0.521335    0.170079    11.00000    0.02236    0.03073 =
         0.03417    0.00518   -0.00048   -0.00263
AFIX  43
H30   2    1.059506    0.463622    0.147274    11.00000   -1.20000
AFIX   0
C31   1    0.959045    0.581844    0.263470    11.00000    0.02803    0.04351 =
         0.02997    0.00969   -0.01274   -0.00924
AFIX  43
H31   2    1.018540    0.567346    0.304374    11.00000   -1.20000
AFIX   0
C32   1    0.847395    0.663964    0.297941    11.00000    0.02400    0.03941 =
         0.02441    0.00558   -0.00530   -0.00591
AFIX  43
H32   2    0.830280    0.703530    0.363592    11.00000   -1.20000
AFIX   0
C33   1    0.316971    0.742109    0.655946    11.00000    0.02179    0.02418 =
         0.02460    0.00839   -0.00108   -0.00619
C34   1    0.376105    0.732207    0.734980    11.00000    0.04941    0.08345 =
         0.05585    0.04985   -0.03600   -0.04643
AFIX  43
H34   2    0.429307    0.769110    0.734303    11.00000   -1.20000
AFIX   0
C35   1    0.359890    0.668567    0.817282    11.00000    0.05191    0.09084 =
         0.05622    0.04822   -0.03612   -0.04079
AFIX  43
H35   2    0.401883    0.662163    0.872520    11.00000   -1.20000
AFIX   0
C36   1    0.284319    0.615730    0.818763    11.00000    0.03344    0.03894 =
         0.06037    0.03019   -0.00555   -0.01164
AFIX  43
H36   2    0.275374    0.570230    0.873936    11.00000   -1.20000
AFIX   0
C37   1    0.220890    0.627499    0.741366    11.00000    0.07305    0.04426 =
         0.03378    0.00637   -0.00551   -0.03817
AFIX  43
H37   2    0.165075    0.593336    0.743899    11.00000   -1.20000
AFIX   0
C38   1    0.238757    0.689252    0.659922    11.00000    0.07401    0.05410 =
         0.02659    0.00745   -0.00761   -0.04461
AFIX  43
H38   2    0.196321    0.695792    0.604985    11.00000   -1.20000
AFIX   0
C39   1   -0.028197    1.272927    0.518913    11.00000    0.01746    0.02835 =
         0.02812    0.00793   -0.00603   -0.00911
C40   1   -0.053116    1.384380    0.495486    11.00000    0.02400    0.02762 =
         0.03350    0.01124   -0.01610   -0.01266
AFIX  43
H40   2    0.005681    1.402765    0.452316    11.00000   -1.20000
AFIX   0
C41   1   -0.161290    1.468129    0.533769    11.00000    0.02834    0.02741 =
         0.03666    0.00696   -0.01930   -0.00796
AFIX  43
H41   2   -0.175971    1.543305    0.516653    11.00000   -1.20000
AFIX   0
C42   1   -0.249318    1.444221    0.597112    11.00000    0.02562    0.03569 =
         0.03484    0.00024   -0.01485   -0.00272
AFIX  43
H42   2   -0.322738    1.502849    0.625276    11.00000   -1.20000
AFIX   0
C43   1   -0.228419    1.332655    0.618882    11.00000    0.02343    0.03886 =
         0.02983    0.01005   -0.00956   -0.01138
AFIX  43
H43   2   -0.288334    1.314634    0.660675    11.00000   -1.20000
AFIX   0
C44   1   -0.119421    1.248407    0.578948    11.00000    0.02521    0.02751 =
         0.03145    0.00866   -0.00557   -0.01002
AFIX  43
H44   2   -0.106277    1.172579    0.592522    11.00000   -1.20000
AFIX   0
C45   1    0.361337    1.158761    0.423603    11.00000    0.01892    0.03410 =
         0.03168    0.00664   -0.00634   -0.01231
AFIX 137
H45A  2    0.392645    1.082902    0.447668    11.00000   -1.50000
H45B  2    0.318706    1.213085    0.483262    11.00000   -1.50000
H45C  2    0.426748    1.177055    0.387089    11.00000   -1.50000
AFIX   0
C46   1    0.173935    1.199664    0.104939    10.75000    0.02403    0.04341 =
         0.02313    0.00803   -0.01174   -0.00886
AFIX 137
H46A  2    0.212709    1.241934    0.061497    10.75000   -1.50000
H46B  2    0.088989    1.231743    0.104194    10.75000   -1.50000
H46C  2    0.207430    1.120829    0.077859    10.75000   -1.50000
AFIX   0
N1    3    0.192720    1.206311    0.210559    10.75000    0.02221    0.02852 =
         0.02369    0.01530   -0.01146   -0.00956
C20   1    0.106176    1.218600    0.292337    10.75000    0.02280    0.03102 =
         0.03952    0.01863   -0.01450   -0.01369
AFIX  43
H20   2    0.024720    1.241501    0.289425    10.75000   -1.20000
PART 1
AFIX   0
C46A  1   -0.000269    1.213711    0.268229    10.25000    0.01991    0.05962 =
         0.04696    0.01674   -0.02031   -0.01141
AFIX  33
H46D  2   -0.057477    1.223474    0.332500    10.25000   -1.50000
H46E  2   -0.033890    1.273717    0.223247    10.25000   -1.50000
H46F  2    0.018002    1.140610    0.232508    10.25000   -1.50000
AFIX   0
C20A  1    0.192720    1.206311    0.210559    10.25000    0.02221    0.02852 =
         0.02369    0.01530   -0.01146   -0.00956
AFIX  43
H20A  2    0.182061    1.219362    0.141044    10.25000   -1.20000
AFIX   0
N1A   3    0.106176    1.218600    0.292337    10.25000    0.02280    0.03102 =
         0.03952    0.01863   -0.01450   -0.01369
C1A   1    0.278480    1.163728    0.351283    10.25000    0.02720    0.02031 =
         0.02654    0.00785   -0.00600   -0.01144
C2A   1    0.299493    1.171680    0.243961    10.25000    0.02485    0.02317 =
         0.02603    0.01292   -0.01042   -0.01097
C19A  1    0.153816    1.192863    0.381039    10.25000    0.02152    0.02317 =
         0.03309    0.01270   -0.01180   -0.00872
PART 2
C47   1    0.880490    0.159277    0.971417    10.30000    0.09036    0.06162 =
         0.05775    0.00189   -0.01732   -0.02852
AFIX  23
H47A  2    0.793091    0.189298    0.988503    10.30000   -1.20000
H47B  2    0.907593    0.094121    0.920088    10.30000   -1.20000
AFIX   0
CL2   6    0.928054    0.264332    0.918762    10.30000    0.09036    0.06162 =
         0.05775    0.00189   -0.01732   -0.02852
CL1   6    0.939867    0.116550    1.084792    10.30000    0.09036    0.06162 =
         0.05775    0.00189   -0.01732   -0.02852
PART 3
CL1A  6    1.015236    0.033005    0.968971    10.20000    0.09293    0.08214 =
         0.06671   -0.02009    0.02608   -0.04497
C47A  1    0.896985    0.165485    0.999599    10.20000    0.09293    0.08214 =
         0.06671   -0.02009    0.02608   -0.04497
AFIX  23
H47C  2    0.887372    0.189887    1.073283    10.20000   -1.20000
H47D  2    0.822507    0.160024    0.988687    10.20000   -1.20000
AFIX   0
CL2A  6    0.928054    0.264332    0.918762    10.20000    0.09293    0.08214 =
         0.06671   -0.02009    0.02608   -0.04497
PART
HKLF 4

REM  i11097p2 in P-1
REM R1 =  0.0569 for    4724 Fo > 4sig(Fo)  and  0.0899 for all    6714 data
REM    507 parameters refined using     14 restraints

END

WGHT      0.1214      1.0689

REM Highest difference peak  2.583,  deepest hole -0.638,  1-sigma level  0.176
Q1    1   1.0347  0.1185  1.0225  11.00000  0.05    1.18
Q2    1   0.9928  0.0742  0.9621  11.00000  0.05    0.99
;
_shelx_res_checksum              58129
loop_
_space_group_symop_operation_xyz
'x, y, z'
'-x, -y, -z'
loop_
_atom_site_label
_atom_site_type_symbol
_atom_site_fract_x
_atom_site_fract_y
_atom_site_fract_z
_atom_site_U_iso_or_equiv
_atom_site_adp_type
_atom_site_occupancy
_atom_site_site_symmetry_order
_atom_site_calc_flag
_atom_site_refinement_flags_posn
_atom_site_refinement_flags_adp
_atom_site_refinement_flags_occupancy
_atom_site_disorder_assembly
_atom_site_disorder_group
Fe1 Fe 0.34327(6) 0.95770(6) 0.34588(6) 0.0208(2) Uani 1 1 d . . . A 1
N2 N 0.4969(4) 0.9622(4) 0.2467(3) 0.0239(10) Uani 1 1 d . . . A 1
N3 N 0.4574(4) 0.8188(4) 0.4045(3) 0.0218(10) Uani 1 1 d . . . A 1
N4 N 0.2353(4) 0.9965(4) 0.4980(3) 0.0221(10) Uani 1 1 d . . . A 1
Br1 Br 0.22364(5) 0.92557(5) 0.23067(5) 0.0335(2) Uani 1 1 d . . . A 1
C1 C 0.2785(5) 1.1637(4) 0.3513(4) 0.0239(12) Uani 0.75 1 d . . P A 1
C2 C 0.2995(5) 1.1717(4) 0.2440(4) 0.0234(12) Uani 0.75 1 d . . P A 1
C3 C 0.4113(5) 1.1450(5) 0.1752(4) 0.0284(13) Uani 1 1 d . . . A 1
C4 C 0.5055(5) 1.0478(5) 0.1846(4) 0.0273(12) Uani 1 1 d . . . A 1
C5 C 0.6279(5) 1.0162(5) 0.1330(5) 0.0339(14) Uani 1 1 d . . . A 1
H5 H 0.6590 1.0600 0.0883 0.041 Uiso 1 1 calc R U . A 1
C6 C 0.6884(5) 0.9126(5) 0.1611(5) 0.0324(14) Uani 1 1 d . . . A 1
H6 H 0.7704 0.8694 0.1386 0.039 Uiso 1 1 calc R U . A 1
C7 C 0.6067(5) 0.8788(5) 0.2315(4) 0.0255(12) Uani 1 1 d . . . A 1
C8 C 0.6386(4) 0.7745(5) 0.2757(4) 0.0236(12) Uani 1 1 d . . . A 1
C9 C 0.5659(4) 0.7465(4) 0.3540(4) 0.0228(12) Uani 1 1 d . . . A 1
C10 C 0.5993(5) 0.6397(4) 0.4014(4) 0.0240(12) Uani 1 1 d . . . A 1
H10 H 0.6692 0.5747 0.3795 0.029 Uiso 1 1 calc R U . A 1
C11 C 0.5128(5) 0.6502(4) 0.4817(4) 0.0250(12) Uani 1 1 d . . . A 1
H11 H 0.5095 0.5936 0.5270 0.030 Uiso 1 1 calc R U . A 1
C12 C 0.4248(4) 0.7644(4) 0.4872(4) 0.0228(12) Uani 1 1 d . . . A 1
C13 C 0.3306(4) 0.8121(4) 0.5674(4) 0.0223(12) Uani 1 1 d . . . A 1
C14 C 0.2475(4) 0.9251(4) 0.5746(4) 0.0223(12) Uani 1 1 d . . . A 1
C15 C 0.1610(5) 0.9780(5) 0.6669(4) 0.0268(12) Uani 1 1 d . . . A 1
H15 H 0.1525 0.9450 0.7309 0.032 Uiso 1 1 calc R U . A 1
C16 C 0.0954(5) 1.0813(5) 0.6457(4) 0.0294(13) Uani 1 1 d . . . A 1
H16 H 0.0327 1.1363 0.6925 0.035 Uiso 1 1 calc R U . A 1
C17 C 0.1372(4) 1.0949(5) 0.5381(4) 0.0240(12) Uani 1 1 d . . . A 1
C18 C 0.0897(4) 1.1845(4) 0.4806(4) 0.0221(11) Uani 1 1 d . . . A 1
C19 C 0.1538(5) 1.1929(4) 0.3810(4) 0.0250(12) Uani 0.75 1 d . . P A 1
C21 C 0.4218(5) 1.2284(5) 0.1002(4) 0.0259(12) Uani 1 1 d . . . A 1
C22 C 0.3633(5) 1.3416(5) 0.1309(5) 0.0311(13) Uani 1 1 d . . . A 1
H22 H 0.3134 1.3640 0.1970 0.037 Uiso 1 1 calc R U . A 1
C23 C 0.3768(5) 1.4231(5) 0.0661(5) 0.0364(15) Uani 1 1 d . . . A 1
H23 H 0.3367 1.5005 0.0881 0.044 Uiso 1 1 calc R U . A 1
C24 C 0.4490(5) 1.3906(6) -0.0307(5) 0.0375(15) Uani 1 1 d . . . A 1
H24 H 0.4602 1.4458 -0.0744 0.045 Uiso 1 1 calc R U . A 1
C25 C 0.5045(5) 1.2785(5) -0.0633(5) 0.0358(15) Uani 1 1 d . . . A 1
H25 H 0.5527 1.2564 -0.1302 0.043 Uiso 1 1 calc R U . A 1
C26 C 0.4903(5) 1.1977(5) 0.0010(5) 0.0342(14) Uani 1 1 d . . . A 1
H26 H 0.5278 1.1204 -0.0227 0.041 Uiso 1 1 calc R U . A 1
C27 C 0.7600(4) 0.6893(4) 0.2377(4) 0.0229(12) Uani 1 1 d . . . A 1
C28 C 0.7880(5) 0.6282(5) 0.1434(4) 0.0276(13) Uani 1 1 d . . . A 1
H28 H 0.7300 0.6442 0.1008 0.033 Uiso 1 1 calc R U . A 1
C29 C 0.8979(5) 0.5449(5) 0.1097(5) 0.0308(13) Uani 1 1 d . . . A 1
H29 H 0.9146 0.5037 0.0450 0.037 Uiso 1 1 calc R U . A 1
C30 C 0.9838(5) 0.5213(5) 0.1701(4) 0.0320(13) Uani 1 1 d . . . A 1
H30 H 1.0595 0.4636 0.1473 0.038 Uiso 1 1 calc R U . A 1
C31 C 0.9590(5) 0.5818(5) 0.2635(5) 0.0343(14) Uani 1 1 d . . . A 1
H31 H 1.0185 0.5673 0.3044 0.041 Uiso 1 1 calc R U . A 1
C32 C 0.8474(5) 0.6640(5) 0.2979(4) 0.0311(13) Uani 1 1 d . . . A 1
H32 H 0.8303 0.7035 0.3636 0.037 Uiso 1 1 calc R U . A 1
C33 C 0.3170(5) 0.7421(5) 0.6559(4) 0.0247(12) Uani 1 1 d . . . A 1
C34 C 0.3761(6) 0.7322(7) 0.7350(5) 0.053(2) Uani 1 1 d . . . A 1
H34 H 0.4293 0.7691 0.7343 0.064 Uiso 1 1 calc R U . A 1
C35 C 0.3599(6) 0.6686(7) 0.8173(6) 0.059(2) Uani 1 1 d . . . A 1
H35 H 0.4019 0.6622 0.8725 0.071 Uiso 1 1 calc R U . A 1
C36 C 0.2843(5) 0.6157(6) 0.8188(6) 0.0454(18) Uani 1 1 d . . . A 1
H36 H 0.2754 0.5702 0.8739 0.054 Uiso 1 1 calc R U . A 1
C37 C 0.2209(7) 0.6275(6) 0.7414(5) 0.0462(17) Uani 1 1 d . . . A 1
H37 H 0.1651 0.5933 0.7439 0.055 Uiso 1 1 calc R U . A 1
C38 C 0.2388(7) 0.6893(6) 0.6599(5) 0.0458(17) Uani 1 1 d . . . A 1
H38 H 0.1963 0.6958 0.6050 0.055 Uiso 1 1 calc R U . A 1
C39 C -0.0282(4) 1.2729(5) 0.5189(4) 0.0243(12) Uani 1 1 d . . . A 1
C40 C -0.0531(5) 1.3844(5) 0.4955(4) 0.0262(12) Uani 1 1 d . . . A 1
H40 H 0.0057 1.4028 0.4523 0.031 Uiso 1 1 calc R U . A 1
C41 C -0.1613(5) 1.4681(5) 0.5338(4) 0.0300(13) Uani 1 1 d . . . A 1
H41 H -0.1760 1.5433 0.5167 0.036 Uiso 1 1 calc R U . A 1
C42 C -0.2493(5) 1.4442(5) 0.5971(5) 0.0336(14) Uani 1 1 d . . . A 1
H42 H -0.3227 1.5028 0.6253 0.040 Uiso 1 1 calc R U . A 1
C43 C -0.2284(5) 1.3327(5) 0.6189(4) 0.0303(13) Uani 1 1 d . . . A 1
H43 H -0.2883 1.3146 0.6607 0.036 Uiso 1 1 calc R U . A 1
C44 C -0.1194(5) 1.2484(5) 0.5789(4) 0.0281(13) Uani 1 1 d . . . A 1
H44 H -0.1063 1.1726 0.5925 0.034 Uiso 1 1 calc R U . A 1
C45 C 0.3613(5) 1.1588(5) 0.4236(4) 0.0274(13) Uani 1 1 d . . . A 1
H45A H 0.3926 1.0829 0.4477 0.041 Uiso 1 1 calc R U . A 1
H45B H 0.3187 1.2131 0.4833 0.041 Uiso 1 1 calc R U . A 1
H45C H 0.4267 1.1771 0.3871 0.041 Uiso 1 1 calc R U . A 1
C46 C 0.1739(6) 1.1997(7) 0.1049(6) 0.0305(18) Uani 0.75 1 d . . P A 1
H46A H 0.2127 1.2419 0.0615 0.046 Uiso 0.75 1 calc R U P A 1
H46B H 0.0890 1.2317 0.1042 0.046 Uiso 0.75 1 calc R U P A 1
H46C H 0.2074 1.1208 0.0779 0.046 Uiso 0.75 1 calc R U P A 1
N1 N 0.1927(4) 1.2063(4) 0.2106(3) 0.0240(10) Uani 0.75 1 d . . P A 1
C20 C 0.1062(5) 1.2186(4) 0.2923(4) 0.0290(13) Uani 0.75 1 d . . P A 1
H20 H 0.0247 1.2415 0.2894 0.035 Uiso 0.75 1 calc R U P A 1
C46A C 0.000(2) 1.214(2) 0.268(2) 0.042(7) Uani 0.25 1 d D . P B 4
H46D H -0.0575 1.2235 0.3325 0.062 Uiso 0.25 1 calc DR U P B 4
H46E H -0.0339 1.2737 0.2232 0.062 Uiso 0.25 1 calc DR U P B 4
H46F H 0.0180 1.1406 0.2325 0.062 Uiso 0.25 1 calc DR U P B 4
C20A C 0.1927(4) 1.2063(4) 0.2106(3) 0.0240(10) Uani 0.25 1 d . . P B 4
H20A H 0.1821 1.2194 0.1410 0.029 Uiso 0.25 1 calc R U P B 4
N1A N 0.1062(5) 1.2186(4) 0.2923(4) 0.0290(13) Uani 0.25 1 d . . P B 4
C1A C 0.2785(5) 1.1637(4) 0.3513(4) 0.0239(12) Uani 0.25 1 d . . P B 4
C2A C 0.2995(5) 1.1717(4) 0.2440(4) 0.0234(12) Uani 0.25 1 d . . P B 4
C19A C 0.1538(5) 1.1929(4) 0.3810(4) 0.0250(12) Uani 0.25 1 d . . P B 4
C47 C 0.8805(17) 0.1593(14) 0.9714(10) 0.0697(15) Uani 0.3 1 d D . P C 5
H47A H 0.7931 0.1893 0.9885 0.084 Uiso 0.3 1 calc R U P C 5
H47B H 0.9076 0.0941 0.9201 0.084 Uiso 0.3 1 calc R U P C 5
Cl2 Cl 0.9281(4) 0.2643(3) 0.9188(3) 0.0697(15) Uani 0.3 1 d D . P C 5
Cl1 Cl 0.9399(7) 0.1166(5) 1.0848(4) 0.0697(15) Uani 0.3 1 d D . P C 5
Cl1A Cl 1.0152(10) 0.0330(4) 0.9690(8) 0.082(3) Uani 0.2 1 d D . P D 6
C47A C 0.8970(18) 0.1655(9) 1.000(2) 0.082(3) Uani 0.2 1 d D . P D 6
H47C H 0.8874 0.1899 1.0733 0.099 Uiso 0.2 1 calc R U P D 6
H47D H 0.8225 0.1600 0.9887 0.099 Uiso 0.2 1 calc R U P D 6
Cl2A Cl 0.9281(4) 0.2643(3) 0.9188(3) 0.082(3) Uani 0.2 1 d D . P D 6
loop_
_atom_site_aniso_label
_atom_site_aniso_U_11
_atom_site_aniso_U_22
_atom_site_aniso_U_33
_atom_site_aniso_U_23
_atom_site_aniso_U_13
_atom_site_aniso_U_12
Fe1 0.0187(4) 0.0233(4) 0.0232(4) 0.0086(3) -0.0076(3) -0.0096(3)
N2 0.019(2) 0.027(3) 0.027(2) 0.011(2) -0.0065(19) -0.009(2)
N3 0.020(2) 0.025(2) 0.023(2) 0.0102(19) -0.0069(19) -0.011(2)
N4 0.020(2) 0.023(2) 0.025(2) 0.0107(19) -0.0071(19) -0.009(2)
Br1 0.0346(4) 0.0396(4) 0.0360(4) 0.0108(3) -0.0165(3) -0.0209(3)
C1 0.027(3) 0.020(3) 0.027(3) 0.008(2) -0.006(2) -0.011(2)
C2 0.025(3) 0.023(3) 0.026(3) 0.013(2) -0.010(2) -0.011(2)
C3 0.030(3) 0.032(3) 0.023(3) 0.010(2) -0.007(2) -0.011(3)
C4 0.026(3) 0.027(3) 0.029(3) 0.012(2) -0.005(2) -0.009(3)
C5 0.027(3) 0.037(4) 0.038(3) 0.021(3) -0.002(3) -0.014(3)
C6 0.021(3) 0.037(4) 0.036(3) 0.013(3) 0.001(2) -0.011(3)
C7 0.021(3) 0.030(3) 0.026(3) 0.005(2) -0.003(2) -0.011(2)
C8 0.020(3) 0.027(3) 0.025(3) 0.006(2) -0.007(2) -0.009(2)
C9 0.021(3) 0.027(3) 0.024(3) 0.007(2) -0.009(2) -0.011(2)
C10 0.018(3) 0.022(3) 0.032(3) 0.006(2) -0.008(2) -0.007(2)
C11 0.024(3) 0.022(3) 0.032(3) 0.011(2) -0.009(2) -0.011(2)
C12 0.020(3) 0.027(3) 0.025(3) 0.009(2) -0.010(2) -0.012(2)
C13 0.022(3) 0.027(3) 0.024(3) 0.014(2) -0.012(2) -0.013(2)
C14 0.021(3) 0.023(3) 0.027(3) 0.012(2) -0.009(2) -0.010(2)
C15 0.025(3) 0.031(3) 0.025(3) 0.015(2) -0.008(2) -0.009(3)
C16 0.029(3) 0.033(3) 0.024(3) 0.007(2) -0.002(2) -0.011(3)
C17 0.020(3) 0.027(3) 0.027(3) 0.008(2) -0.008(2) -0.011(2)
C18 0.017(3) 0.025(3) 0.028(3) 0.008(2) -0.009(2) -0.010(2)
C19 0.022(3) 0.023(3) 0.033(3) 0.013(2) -0.012(2) -0.009(2)
C21 0.021(3) 0.028(3) 0.031(3) 0.013(2) -0.010(2) -0.010(2)
C22 0.027(3) 0.036(3) 0.037(3) 0.012(3) -0.015(3) -0.015(3)
C23 0.036(3) 0.030(3) 0.052(4) 0.018(3) -0.024(3) -0.017(3)
C24 0.038(3) 0.046(4) 0.045(4) 0.028(3) -0.024(3) -0.027(3)
C25 0.031(3) 0.044(4) 0.038(4) 0.020(3) -0.013(3) -0.018(3)
C26 0.030(3) 0.038(4) 0.038(4) 0.015(3) -0.009(3) -0.015(3)
C27 0.020(3) 0.026(3) 0.022(3) 0.011(2) -0.006(2) -0.008(2)
C28 0.025(3) 0.036(3) 0.024(3) 0.007(2) -0.004(2) -0.014(3)
C29 0.027(3) 0.034(3) 0.030(3) 0.000(3) 0.000(2) -0.013(3)
C30 0.022(3) 0.031(3) 0.034(3) 0.005(3) 0.000(2) -0.003(3)
C31 0.028(3) 0.044(4) 0.030(3) 0.010(3) -0.013(3) -0.009(3)
C32 0.024(3) 0.039(4) 0.024(3) 0.006(3) -0.005(2) -0.006(3)
C33 0.022(3) 0.024(3) 0.025(3) 0.008(2) -0.001(2) -0.006(2)
C34 0.049(4) 0.083(6) 0.056(4) 0.050(4) -0.036(4) -0.046(4)
C35 0.052(4) 0.091(6) 0.056(5) 0.048(4) -0.036(4) -0.041(4)
C36 0.033(4) 0.039(4) 0.060(5) 0.030(3) -0.006(3) -0.012(3)
C37 0.073(5) 0.044(4) 0.034(4) 0.006(3) -0.006(3) -0.038(4)
C38 0.074(5) 0.054(4) 0.027(3) 0.007(3) -0.008(3) -0.045(4)
C39 0.017(3) 0.028(3) 0.028(3) 0.008(2) -0.006(2) -0.009(2)
C40 0.024(3) 0.028(3) 0.033(3) 0.011(2) -0.016(2) -0.013(3)
C41 0.028(3) 0.027(3) 0.037(3) 0.007(3) -0.019(3) -0.008(3)
C42 0.026(3) 0.036(4) 0.035(3) 0.000(3) -0.015(3) -0.003(3)
C43 0.023(3) 0.039(4) 0.030(3) 0.010(3) -0.010(2) -0.011(3)
C44 0.025(3) 0.028(3) 0.031(3) 0.009(2) -0.006(2) -0.010(3)
C45 0.019(3) 0.034(3) 0.032(3) 0.007(3) -0.006(2) -0.012(2)
C46 0.024(4) 0.043(5) 0.023(4) 0.008(3) -0.012(3) -0.009(4)
N1 0.022(2) 0.029(3) 0.024(3) 0.015(2) -0.011(2) -0.010(2)
C20 0.023(3) 0.031(3) 0.040(3) 0.019(3) -0.015(2) -0.014(2)
C46A 0.020(12) 0.060(18) 0.047(16) 0.017(13) -0.020(11) -0.011(12)
C20A 0.022(2) 0.029(3) 0.024(3) 0.015(2) -0.011(2) -0.010(2)
N1A 0.023(3) 0.031(3) 0.040(3) 0.019(3) -0.015(2) -0.014(2)
C1A 0.027(3) 0.020(3) 0.027(3) 0.008(2) -0.006(2) -0.011(2)
C2A 0.025(3) 0.023(3) 0.026(3) 0.013(2) -0.010(2) -0.011(2)
C19A 0.022(3) 0.023(3) 0.033(3) 0.013(2) -0.012(2) -0.009(2)
C47 0.090(4) 0.062(4) 0.058(3) 0.002(3) -0.017(3) -0.029(3)
Cl2 0.090(4) 0.062(4) 0.058(3) 0.002(3) -0.017(3) -0.029(3)
Cl1 0.090(4) 0.062(4) 0.058(3) 0.002(3) -0.017(3) -0.029(3)
Cl1A 0.093(7) 0.082(7) 0.067(6) -0.020(5) 0.026(5) -0.045(5)
C47A 0.093(7) 0.082(7) 0.067(6) -0.020(5) 0.026(5) -0.045(5)
Cl2A 0.093(7) 0.082(7) 0.067(6) -0.020(5) 0.026(5) -0.045(5)
loop_
_atom_type_symbol
_atom_type_description
_atom_type_scat_dispersion_real
_atom_type_scat_dispersion_imag
_atom_type_scat_source
C C 0.0033 0.0016 'International Tables Vol C Tables 4.2.6.8 and 6.1.1.4'
H H 0.0000 0.0000 'International Tables Vol C Tables 4.2.6.8 and 6.1.1.4'
N N 0.0061 0.0033 'International Tables Vol C Tables 4.2.6.8 and 6.1.1.4'
Fe Fe 0.3463 0.8444 'International Tables Vol C Tables 4.2.6.8 and 6.1.1.4'
Br Br -0.2901 2.4595 'International Tables Vol C Tables 4.2.6.8 and 6.1.1.4'
Cl Cl 0.1484 0.1585 'International Tables Vol C Tables 4.2.6.8 and 6.1.1.4'
loop_
_geom_angle_atom_site_label_1
_geom_angle_atom_site_label_2
_geom_angle_atom_site_label_3
_geom_angle
_geom_angle_site_symmetry_1
N3 Fe1 N2 86.40(16) .
N3 Fe1 N4 87.11(16) .
N2 Fe1 N4 146.86(17) .
N3 Fe1 Br1 117.43(12) .
N2 Fe1 Br1 105.62(12) .
N4 Fe1 Br1 106.21(11) .
N3 Fe1 C1 141.09(17) .
N2 Fe1 C1 83.08(17) .
N4 Fe1 C1 81.80(17) .
Br1 Fe1 C1 101.49(13) .
C7 N2 C4 106.6(4) .
C7 N2 Fe1 125.4(3) .
C4 N2 Fe1 128.0(3) .
C9 N3 C12 106.4(4) .
C9 N3 Fe1 126.4(3) .
C12 N3 Fe1 124.8(3) .
C14 N4 C17 105.9(4) .
C14 N4 Fe1 124.9(4) .
C17 N4 Fe1 129.2(3) .
C2 C1 C19 105.9(5) .
C2 C1 C45 126.4(5) .
C19 C1 C45 125.6(5) .
C2 C1 Fe1 96.5(3) .
C19 C1 Fe1 98.5(3) .
C45 C1 Fe1 90.1(3) .
N1 C2 C1 108.4(4) .
N1 C2 C3 123.5(5) .
C1 C2 C3 128.1(5) .
C4 C3 C2 119.8(5) .
C4 C3 C21 122.4(5) .
C2 C3 C21 117.8(5) .
C3 C4 N2 124.1(5) .
C3 C4 C5 126.9(5) .
N2 C4 C5 109.0(5) .
C6 C5 C4 106.7(5) .
C5 C6 C7 108.0(5) .
N2 C7 C8 126.4(5) .
N2 C7 C6 109.7(5) .
C8 C7 C6 123.8(5) .
C9 C8 C7 124.5(5) .
C9 C8 C27 117.9(5) .
C7 C8 C27 117.5(4) .
N3 C9 C8 125.0(5) .
N3 C9 C10 109.9(4) .
C8 C9 C10 124.8(5) .
C11 C10 C9 106.9(5) .
C10 C11 C12 107.5(5) .
C13 C12 N3 126.0(5) .
C13 C12 C11 124.8(5) .
N3 C12 C11 109.0(4) .
C12 C13 C14 124.6(5) .
C12 C13 C33 118.0(5) .
C14 C13 C33 117.3(5) .
N4 C14 C13 126.1(5) .
N4 C14 C15 110.6(4) .
C13 C14 C15 123.2(4) .
C16 C15 C14 107.5(5) .
C15 C16 C17 107.5(5) .
C18 C17 N4 123.8(5) .
C18 C17 C16 127.8(5) .
N4 C17 C16 108.4(4) .
C17 C18 C19 120.2(5) .
C17 C18 C39 121.0(5) .
C19 C18 C39 118.8(5) .
C20 C19 C1 107.1(5) .
C20 C19 C18 124.9(5) .
C1 C19 C18 127.7(5) .
C22 C21 C26 118.5(5) .
C22 C21 C3 118.6(5) .
C26 C21 C3 122.9(5) .
C21 C22 C23 120.9(6) .
C24 C23 C22 119.7(6) .
C25 C24 C23 119.9(5) .
C24 C25 C26 120.2(6) .
C25 C26 C21 120.7(6) .
C28 C27 C32 117.6(5) .
C28 C27 C8 121.0(5) .
C32 C27 C8 121.3(5) .
C29 C28 C27 121.7(5) .
C28 C29 C30 120.0(6) .
C31 C30 C29 119.6(5) .
C30 C31 C32 120.1(5) .
C31 C32 C27 120.9(6) .
C34 C33 C38 118.4(5) .
C34 C33 C13 121.9(5) .
C38 C33 C13 119.7(5) .
C33 C34 C35 120.6(6) .
C36 C35 C34 120.0(6) .
C35 C36 C37 120.3(6) .
C36 C37 C38 119.1(6) .
C37 C38 C33 121.5(6) .
C40 C39 C44 117.6(5) .
C40 C39 C18 120.7(5) .
C44 C39 C18 121.7(5) .
C41 C40 C39 121.2(5) .
C40 C41 C42 120.9(5) .
C41 C42 C43 119.1(5) .
C44 C43 C42 119.6(5) .
C43 C44 C39 121.5(5) .
C20 N1 C2 109.0(4) .
C20 N1 C46 121.3(5) .
C2 N1 C46 127.4(5) .
N1 C20 C19 109.6(5) .
N1A C20A C2A 109.0(4) .
C20A N1A C19A 109.6(5) .
C20A N1A C46A 115.7(12) .
C19A N1A C46A 130.1(11) .
C2A C1A C19A 105.9(5) .
C20A C2A C1A 108.4(4) .
N1A C19A C1A 107.1(5) .
Cl1 C47 Cl2 108.94(9) .
Cl1A Cl1A C47A 104.4(9) 2_757
Cl1A C47A Cl2A 108.87(9) .
loop_
_geom_bond_atom_site_label_1
_geom_bond_atom_site_label_2
_geom_bond_distance
_geom_bond_site_symmetry_2
Fe1 N3 2.063(4) .
Fe1 N2 2.141(4) .
Fe1 N4 2.147(4) .
Fe1 Br1 2.4323(9) .
Fe1 C1 2.462(5) .
N2 C7 1.361(7) .
N2 C4 1.397(7) .
N3 C9 1.368(7) .
N3 C12 1.379(6) .
N4 C14 1.352(6) .
N4 C17 1.407(7) .
C1 C2 1.399(7) .
C1 C19 1.432(7) .
C1 C45 1.501(7) .
C2 N1 1.381(7) .
C2 C3 1.440(8) .
C3 C4 1.375(8) .
C3 C21 1.485(7) .
C4 C5 1.456(8) .
C5 C6 1.348(8) .
C6 C7 1.448(7) .
C7 C8 1.405(7) .
C8 C9 1.392(7) .
C8 C27 1.489(7) .
C9 C10 1.452(7) .
C10 C11 1.337(7) .
C11 C12 1.456(7) .
C12 C13 1.375(7) .
C13 C14 1.422(7) .
C13 C33 1.497(7) .
C14 C15 1.444(8) .
C15 C16 1.331(8) .
C16 C17 1.454(7) .
C17 C18 1.374(7) .
C18 C19 1.437(7) .
C18 C39 1.477(7) .
C19 C20 1.380(7) .
C21 C22 1.384(8) .
C21 C26 1.393(8) .
C22 C23 1.392(8) .
C23 C24 1.384(9) .
C24 C25 1.375(9) .
C25 C26 1.385(8) .
C27 C28 1.384(8) .
C27 C32 1.393(7) .
C28 C29 1.377(8) .
C29 C30 1.380(8) .
C30 C31 1.376(8) .
C31 C32 1.387(8) .
C33 C34 1.351(8) .
C33 C38 1.379(8) .
C34 C35 1.390(9) .
C35 C36 1.353(9) .
C36 C37 1.364(10) .
C37 C38 1.370(8) .
C39 C40 1.396(7) .
C39 C44 1.406(7) .
C40 C41 1.376(8) .
C41 C42 1.390(8) .
C42 C43 1.400(8) .
C43 C44 1.390(8) .
C46 N1 1.452(8) .
N1 C20 1.346(7) .
C46A N1A 1.44(2) .
C20A N1A 1.346(7) .
C20A C2A 1.381(7) .
N1A C19A 1.380(7) .
C1A C2A 1.399(7) .
C1A C19A 1.432(7) .
C47 Cl1 1.7692(10) .
C47 Cl2 1.7695(10) .
Cl1A Cl1A 1.293(14) 2_757
Cl1A C47A 1.7698(10) .
C47A Cl2A 1.7698(10) .
