#------------------------------------------------------------------------------
#$Date: 2019-11-17 10:17:56 +0200 (Sun, 17 Nov 2019) $
#$Revision: 229305 $
#$URL: file:///home/coder/svn-repositories/cod/cif/7/04/72/7047280.cif $
#------------------------------------------------------------------------------
#
# This file is available in the Crystallography Open Database (COD),
# http://www.crystallography.net/
#
# All data on this site have been placed in the public domain by the
# contributors.
#
data_7047280
loop_
_publ_author_name
'Yang, Wu'
'Chen, Chen'
'Chan, Kin Shing'
_publ_section_title
;
 Hydrodebromination of allylic and benzylic bromides with water catalyzed
 by a rhodium porphyrin complex.
;
_journal_issue                   37
_journal_name_full
'Dalton transactions (Cambridge, England : 2003)'
_journal_page_first              12879
_journal_page_last               12883
_journal_paper_doi               10.1039/c8dt02168f
_journal_volume                  47
_journal_year                    2018
_chemical_formula_sum            'C58.5 H48.5 N4 Rh'
_chemical_formula_weight         910.42
_space_group_crystal_system      triclinic
_space_group_IT_number           2
_space_group_name_Hall           '-P 1'
_space_group_name_H-M_alt        'P -1'
_symmetry_space_group_name_Hall  '-P 1'
_symmetry_space_group_name_H-M   'P -1'
_atom_sites_solution_hydrogens   geom
_audit_creation_method           SHELXL-2014/6
_audit_update_record
;
2018-07-16 deposited with the CCDC.
2018-08-16 downloaded from the CCDC.
;
_cell_angle_alpha                112.876(4)
_cell_angle_beta                 91.885(4)
_cell_angle_gamma                112.174(4)
_cell_formula_units_Z            2
_cell_length_a                   12.498(2)
_cell_length_b                   14.419(2)
_cell_length_c                   15.675(2)
_cell_measurement_reflns_used    276
_cell_measurement_temperature    222(2)
_cell_measurement_theta_max      15
_cell_measurement_theta_min      15
_cell_volume                     2356.1(6)
_computing_cell_refinement       'BRUKER D8VENTURE DIFFRACTOMETER'
_computing_data_collection       'BRUKER D8VENTURE DIFFRACTOMETER'
_computing_data_reduction        'BRUKER D8VENTURE DIFFRACTOMETER'
_computing_molecular_graphics    'BRUKER SHELXTL'
_computing_publication_material  'BRUKER SHELXTL'
_computing_structure_refinement  'SHELXL-2014/6 (Sheldrick, 2014)'
_diffrn_ambient_temperature      222(2)
_diffrn_measured_fraction_theta_full 0.997
_diffrn_measured_fraction_theta_max 0.991
_diffrn_measurement_device_type  'BRUKER D8VENTURE DIFFRACTOMETER'
_diffrn_measurement_method       'PHI & OMEGA SCAN'
_diffrn_radiation_type           MoK\a
_diffrn_radiation_wavelength     0.71073
_diffrn_reflns_av_unetI/netI     0.1059
_diffrn_reflns_Laue_measured_fraction_full 0.997
_diffrn_reflns_Laue_measured_fraction_max 0.991
_diffrn_reflns_limit_h_max       14
_diffrn_reflns_limit_h_min       -14
_diffrn_reflns_limit_k_max       17
_diffrn_reflns_limit_k_min       -17
_diffrn_reflns_limit_l_max       18
_diffrn_reflns_limit_l_min       -11
_diffrn_reflns_number            8476
_diffrn_reflns_point_group_measured_fraction_full 0.997
_diffrn_reflns_point_group_measured_fraction_max 0.991
_diffrn_reflns_theta_full        25.242
_diffrn_reflns_theta_max         25.302
_diffrn_reflns_theta_min         2.056
_exptl_absorpt_coefficient_mu    0.405
_exptl_absorpt_correction_T_max  0.7441
_exptl_absorpt_correction_T_min  0.5655
_exptl_absorpt_correction_type   multi-scan
_exptl_crystal_colour            red
_exptl_crystal_density_diffrn    1.283
_exptl_crystal_description       block
_exptl_crystal_F_000             945
_exptl_crystal_size_max          0.500
_exptl_crystal_size_mid          0.400
_exptl_crystal_size_min          0.300
_refine_diff_density_max         3.817
_refine_diff_density_min         -2.051
_refine_diff_density_rms         0.169
_refine_ls_extinction_method     none
_refine_ls_goodness_of_fit_ref   0.995
_refine_ls_hydrogen_treatment    constr
_refine_ls_matrix_type           full
_refine_ls_number_parameters     587
_refine_ls_number_reflns         8476
_refine_ls_number_restraints     10
_refine_ls_restrained_S_all      0.998
_refine_ls_R_factor_all          0.1330
_refine_ls_R_factor_gt           0.0960
_refine_ls_shift/su_max          0.000
_refine_ls_shift/su_mean         0.000
_refine_ls_structure_factor_coef Fsqd
_refine_ls_weighting_details
'w=1/[\s^2^(Fo^2^)+(0.1643P)^2^+9.5519P] where P=(Fo^2^+2Fc^2^)/3'
_refine_ls_weighting_scheme      calc
_refine_ls_wR_factor_gt          0.2507
_refine_ls_wR_factor_ref         0.2743
_reflns_Friedel_coverage         0.000
_reflns_number_gt                6046
_reflns_number_total             8476
_reflns_threshold_expression     'I > 2\s(I)'
_cod_data_source_file            c8dt02168f2.cif
_cod_data_source_block           WY313(low)
_cod_depositor_comments
'Adding full bibliography for 7047279--7047280.cif.'
_cod_original_cell_volume        2356.3(6)
_cod_original_formula_sum        'C58.50 H48.50 N4 Rh'
_cod_database_code               7047280
_shelx_space_group_comment
;
The symmetry employed for this shelxl refinement is uniquely defined
by the following loop, which should always be used as a source of
symmetry information in preference to the above space-group names.
They are only intended as comments.
;
_shelx_estimated_absorpt_t_min   0.823
_shelx_estimated_absorpt_t_max   0.888
_shelxl_version_number           2014/6
_shelx_res_file
;
TITL P in P-1
CELL 0.71073  12.49820  14.41940  15.67530 112.8755  91.8852 112.1741
ZERR   2.00   0.00200   0.00220   0.00220   0.0037   0.0044   0.0044
LATT 1
SFAC C  H  N  Rh
UNIT 117 97 8 2
REM C58.50 H48.50 N4 Rh
REM D8VENTURE BLOCK RED
SIZE 0.50 0.40 0.30
ISOR 0.01 c26
DFIX 1.54 0.01 C61 C62
EQIV  $1   -x+1, -y-1, -z+1
DFIX 1.54 0.01 C71 C72 C72 C73 C73 C73_$1
L.S. 40
ACTA
FMAP 2
PLAN 20
TEMP -50.500
merg 0
WGHT    0.164300    9.551906
BASF   0.32409
FVAR       3.51707
RH1   4    0.712026   -0.006050    0.504837    11.00000    0.03667    0.02665 =
         0.01785    0.01109    0.00451    0.01930
N1    3    0.755464    0.071128    0.646988    11.00000    0.04401    0.03482 =
         0.02846    0.01619    0.00994    0.02416
N2    3    0.637346    0.096001    0.505277    11.00000    0.03138    0.03882 =
         0.02010    0.00991    0.00295    0.02023
N3    3    0.673134   -0.080106    0.361643    11.00000    0.03388    0.03093 =
         0.03414    0.01465    0.00791    0.01632
N4    3    0.767077   -0.120430    0.505249    11.00000    0.02999    0.03666 =
         0.02698    0.01403    0.00739    0.02109
C1    1    0.816796    0.047557    0.705162    11.00000    0.03482    0.04344 =
         0.02309    0.02081    0.00664    0.01666
C2    1    0.850891    0.135064    0.799881    11.00000    0.05325    0.05087 =
         0.01212    0.01079    0.00758    0.02957
AFIX  43
H2A   2    0.892366    0.139342    0.853411    11.00000   -1.20000
AFIX   0
C3    1    0.812702    0.208714    0.797439    11.00000    0.04761    0.05528 =
         0.01819    0.00505    0.00825    0.03648
AFIX  43
H3A   2    0.824107    0.275396    0.849056    11.00000   -1.20000
AFIX   0
C4    1    0.752669    0.170067    0.704983    11.00000    0.04435    0.03129 =
         0.02344    0.01206    0.00841    0.01607
C5    1    0.690985    0.218859    0.673966    11.00000    0.04779    0.03060 =
         0.02840    0.01230    0.01167    0.02018
C6    1    0.629388    0.177106    0.582089    11.00000    0.03267    0.03776 =
         0.03025    0.01771    0.01190    0.02322
C7    1    0.554937    0.219558    0.553183    11.00000    0.06010    0.06673 =
         0.04730    0.03615    0.02221    0.05192
AFIX  43
H7A   2    0.531468    0.273300    0.592991    11.00000   -1.20000
AFIX   0
C8    1    0.525557    0.167688    0.458601    11.00000    0.03799    0.04853 =
         0.06104    0.02520    0.00307    0.02967
AFIX  43
H8A   2    0.477364    0.178883    0.419840    11.00000   -1.20000
AFIX   0
C9    1    0.579795    0.092181    0.426183    11.00000    0.03172    0.03585 =
         0.03097    0.01992    0.00225    0.01742
C10   1    0.584651    0.035452    0.333071    11.00000    0.03696    0.03858 =
         0.03294    0.01584   -0.00008    0.01626
C11   1    0.634253   -0.041901    0.303632    11.00000    0.04597    0.03640 =
         0.02119    0.01695    0.00269    0.02091
C12   1    0.647124   -0.100164    0.209087    11.00000    0.05238    0.04864 =
         0.01213    0.01480    0.00793    0.02135
AFIX  43
H12A  2    0.629379   -0.089332    0.155911    11.00000   -1.20000
AFIX   0
C13   1    0.689173   -0.172932    0.210716    11.00000    0.04761    0.03978 =
         0.01757    0.00674    0.01060    0.02426
AFIX  43
H13A  2    0.705410   -0.222376    0.158633    11.00000   -1.20000
AFIX   0
C14   1    0.704570   -0.161986    0.304145    11.00000    0.03735    0.02741 =
         0.02527    0.00692    0.00479    0.01366
C15   1    0.742442   -0.225286    0.335053    11.00000    0.03711    0.03270 =
         0.02720    0.00985    0.00921    0.02362
C16   1    0.764935   -0.209812    0.427394    11.00000    0.03600    0.03556 =
         0.03240    0.01214    0.00676    0.01833
C17   1    0.801861   -0.275973    0.458795    11.00000    0.04244    0.03893 =
         0.03648    0.01288    0.00288    0.02853
AFIX  43
H17A  2    0.808123   -0.341572    0.419852    11.00000   -1.20000
AFIX   0
C18   1    0.825882   -0.227634    0.553607    11.00000    0.04956    0.05876 =
         0.03361    0.02467    0.01068    0.03987
AFIX  43
H18A  2    0.850849   -0.253711    0.593301    11.00000   -1.20000
AFIX   0
C19   1    0.806514   -0.128534    0.583637    11.00000    0.02671    0.03049 =
         0.03694    0.01755    0.00407    0.01722
C20   1    0.834879   -0.048079    0.677558    11.00000    0.03707    0.04297 =
         0.02338    0.01832    0.00796    0.02287
C21   1    0.695312    0.325467    0.748096    11.00000    0.06629    0.03972 =
         0.02617    0.01002    0.01099    0.03512
C22   1    0.615318    0.327450    0.804959    11.00000    0.04679    0.05485 =
         0.05248    0.00983    0.01963    0.01020
AFIX  43
H22A  2    0.553870    0.259999    0.796624    11.00000   -1.20000
AFIX   0
C23   1    0.621890    0.426149    0.874841    11.00000    0.07151    0.08716 =
         0.05255    0.01308    0.02608    0.05496
AFIX  43
H23A  2    0.561686    0.423558    0.909468    11.00000   -1.20000
AFIX   0
C24   1    0.709272    0.523481    0.894619    11.00000    0.13221    0.05983 =
         0.04173    0.01900    0.03937    0.06320
C25   1    0.798895    0.525331    0.842824    11.00000    0.16114    0.04175 =
         0.09264    0.01318    0.08193    0.03463
AFIX  43
H25A  2    0.863212    0.593214    0.856208    11.00000   -1.20000
AFIX   0
C26   1    0.793191    0.426448    0.771100    11.00000    0.09193    0.05910 =
         0.08031    0.02261    0.05121    0.02706
AFIX  43
H26A  2    0.855145    0.428008    0.738467    11.00000   -1.20000
AFIX   0
C27   1    0.718220    0.631346    0.975290    11.00000    0.21188    0.08476 =
         0.05690    0.03068    0.05560    0.10122
AFIX  33
H27A  2    0.788157    0.693512    0.978478    11.00000   -1.50000
H27B  2    0.648592    0.642811    0.963450    11.00000   -1.50000
H27C  2    0.723560    0.625808    1.034868    11.00000   -1.50000
AFIX   0
C31   1    0.540025    0.060301    0.257729    11.00000    0.05121    0.04076 =
         0.02619    0.01547    0.00817    0.02737
C32   1    0.592946    0.163166    0.260568    11.00000    0.09553    0.06024 =
         0.06137    0.02385   -0.02270    0.03202
AFIX  43
H32A  2    0.657282    0.219422    0.310047    11.00000   -1.20000
AFIX   0
C33   1    0.551643    0.185585    0.189641    11.00000    0.10914    0.06387 =
         0.07378    0.04738   -0.00124    0.03619
AFIX  43
H33A  2    0.589472    0.256928    0.192145    11.00000   -1.20000
AFIX   0
C34   1    0.458270    0.106501    0.117512    11.00000    0.08321    0.09533 =
         0.04038    0.03614    0.00573    0.05762
C35   1    0.406306    0.004006    0.116973    11.00000    0.05292    0.10225 =
         0.06097    0.04673   -0.00470    0.03086
AFIX  43
H35A  2    0.342543   -0.052526    0.067124    11.00000   -1.20000
AFIX   0
C36   1    0.444176   -0.020248    0.187666    11.00000    0.04266    0.08402 =
         0.05157    0.04014    0.00155    0.02421
AFIX  43
H36A  2    0.404353   -0.090550    0.186806    11.00000   -1.20000
AFIX   0
C37   1    0.416807    0.131523    0.040223    11.00000    0.12394    0.14318 =
         0.06924    0.06902    0.01996    0.08929
AFIX  33
H37A  2    0.349723    0.065976   -0.005029    11.00000   -1.50000
H37B  2    0.393668    0.192138    0.068166    11.00000   -1.50000
H37C  2    0.480546    0.152439    0.008165    11.00000   -1.50000
AFIX   0
C41   1    0.756317   -0.322541    0.259518    11.00000    0.05717    0.04638 =
         0.02341    0.00839    0.00811    0.03644
C42   1    0.864568   -0.312634    0.239856    11.00000    0.04909    0.06031 =
         0.06037   -0.00128    0.00655    0.02478
AFIX  43
H42A  2    0.930343   -0.243603    0.271233    11.00000   -1.20000
AFIX   0
C43   1    0.879645   -0.403440    0.173736    11.00000    0.07197    0.08122 =
         0.06842   -0.00527    0.01511    0.05368
AFIX  43
H43A  2    0.955477   -0.394898    0.162575    11.00000   -1.20000
AFIX   0
C44   1    0.785548   -0.503888    0.125517    11.00000    0.12339    0.05357 =
         0.03632    0.00960    0.01546    0.06403
C45   1    0.676751   -0.514432    0.145523    11.00000    0.10706    0.03505 =
         0.05068    0.00582    0.02352    0.03370
AFIX  43
H45A  2    0.610882   -0.583421    0.114321    11.00000   -1.20000
AFIX   0
C46   1    0.662970   -0.424094    0.211481    11.00000    0.06543    0.02990 =
         0.05682    0.00520    0.02171    0.02176
AFIX  43
H46A  2    0.587328   -0.433059    0.223408    11.00000   -1.20000
AFIX   0
C47   1    0.798903   -0.603997    0.053298    11.00000    0.18019    0.08986 =
         0.07282   -0.00981    0.00327    0.09973
AFIX  33
H47A  2    0.722248   -0.667165    0.026918    11.00000   -1.50000
H47B  2    0.830889   -0.586941    0.002939    11.00000   -1.50000
H47C  2    0.852083   -0.621678    0.084014    11.00000   -1.50000
AFIX   0
C51   1    0.893333   -0.064988    0.752122    11.00000    0.04716    0.04178 =
         0.03343    0.01915    0.00447    0.02356
C52   1    1.015314   -0.016424    0.781928    11.00000    0.04390    0.09348 =
         0.05178    0.04894    0.01328    0.03246
AFIX  43
H52A  2    1.063364    0.030130    0.756783    11.00000   -1.20000
AFIX   0
C53   1    1.065971   -0.036458    0.848379    11.00000    0.03879    0.09066 =
         0.06645    0.04511    0.00625    0.02890
AFIX  43
H53A  2    1.148491   -0.000109    0.869835    11.00000   -1.20000
AFIX   0
C54   1    1.000282   -0.107813    0.884669    11.00000    0.06483    0.07146 =
         0.03378    0.02166    0.00075    0.04242
C55   1    0.879967   -0.153747    0.855452    11.00000    0.06348    0.06933 =
         0.05633    0.04735    0.00764    0.01873
AFIX  43
H55A  2    0.832203   -0.200982    0.880156    11.00000   -1.20000
AFIX   0
C56   1    0.826442   -0.132660    0.790475    11.00000    0.04108    0.08172 =
         0.05500    0.04850   -0.00231    0.01445
AFIX  43
H56A  2    0.743569   -0.165030    0.772544    11.00000   -1.20000
AFIX   0
C57   1    1.058861   -0.134226    0.952726    11.00000    0.09726    0.08679 =
         0.06047    0.04044   -0.00602    0.04817
AFIX  33
H57A  2    1.143977   -0.093736    0.964573    11.00000   -1.50000
H57B  2    1.032349   -0.112480    1.011895    11.00000   -1.50000
H57C  2    1.037772   -0.213378    0.925294    11.00000   -1.50000
AFIX   0
C61   1    0.882113    0.096242    0.500874    11.00000    0.04397    0.03351 =
         0.06561    0.02950    0.01202    0.01733
AFIX  23
H61A  2    0.937726    0.118346    0.558166    11.00000   -1.20000
H61B  2    0.907368    0.054341    0.446097    11.00000   -1.20000
AFIX   0
C62   1    0.885196    0.197032    0.494442    11.00000    0.04136    0.08919 =
         0.08550    0.05857    0.02696    0.03204
AFIX  43
H62A  2    0.884792    0.256427    0.548045    11.00000   -1.20000
AFIX   0
C63   1    0.888449    0.201933    0.413957    11.00000    0.06475    0.08618 =
         0.08564    0.04181    0.01867    0.03570
AFIX  43
H63A  2    0.889986    0.141881    0.361680    11.00000   -1.20000
AFIX   0
C64   1    0.889871    0.301017    0.400884    11.00000    0.06031    0.07068 =
         0.09071    0.04390    0.01076    0.03258
C65   1    0.922864    0.310296    0.319710    11.00000    0.12378    0.10005 =
         0.10058    0.04868    0.04334    0.07435
AFIX  43
H65A  2    0.948339    0.258689    0.279156    11.00000   -1.20000
AFIX   0
C66   1    0.919773    0.390601    0.296755    11.00000    0.15056    0.10000 =
         0.09008    0.05881    0.05586    0.08005
AFIX  43
H66A  2    0.945994    0.396245    0.242705    11.00000   -1.20000
AFIX   0
C67   1    0.878182    0.463644    0.352795    11.00000    0.13861    0.11999 =
         0.13121    0.07757    0.02914    0.08178
AFIX  43
H67A  2    0.871915    0.517299    0.335612    11.00000   -1.20000
AFIX   0
C68   1    0.844734    0.458109    0.436479    11.00000    0.10795    0.08190 =
         0.11688    0.04184    0.02587    0.05968
AFIX  43
H68A  2    0.818091    0.509793    0.475196    11.00000   -1.20000
AFIX   0
C69   1    0.850108    0.378184    0.463290    11.00000    0.06324    0.09925 =
         0.11695    0.04783    0.01754    0.03187
AFIX  43
H69A  2    0.828731    0.375161    0.519408    11.00000   -1.20000
AFIX   0
C72   1    0.523345   -0.425878    0.618932    10.50000    0.07544    0.08222 =
         0.34557    0.10877    0.04749    0.03133
AFIX  23
H72A  2    0.550508   -0.352080    0.620043    10.50000   -1.20000
H72B  2    0.439809   -0.452444    0.622749    10.50000   -1.20000
AFIX   0
C73   1    0.542823   -0.507474    0.530321    10.50000    0.12632    0.05871 =
         0.30533    0.08326    0.11100    0.03527
AFIX  23
H73A  2    0.514762   -0.582968    0.525549    10.50000   -1.20000
H73B  2    0.624029   -0.480933    0.520760    10.50000   -1.20000
AFIX   0
C71   1    0.598372   -0.423697    0.698966    10.50000    0.14020    0.05942 =
         0.21046    0.06385    0.05984    0.02209
AFIX  33
H71A  2    0.592175   -0.373526    0.759391    10.50000   -1.50000
H71B  2    0.570444   -0.497861    0.695559    10.50000   -1.50000
H71C  2    0.680239   -0.398316    0.692874    10.50000   -1.50000

AFIX   0
HKLF 5

REM  P in P-1
REM R1 =  0.0960 for    6046 Fo > 4sig(Fo)  and  0.1330 for all    8476 data
REM    587 parameters refined using     10 restraints

END

WGHT      0.1437      8.1543

REM Highest difference peak  3.817,  deepest hole -2.051,  1-sigma level  0.169
Q1    1   0.7852  0.0008  0.4944  11.00000  0.05    3.82
Q2    1   0.6705  0.0020  0.4730  11.00000  0.05    1.17
Q3    1   0.4018  0.1201  0.4894  11.00000  0.05    1.12
Q4    1   1.0026  0.1524  0.5020  11.00000  0.05    0.98
Q5    1   0.8779  0.0205  0.5261  11.00000  0.05    0.92
Q6    1   0.4745  0.1380  0.5021  11.00000  0.05    0.85
Q7    1   0.6142  0.1644  0.1389  11.00000  0.05    0.83
Q8    1   0.7273  0.4146  0.7445  11.00000  0.05    0.82
Q9    1   0.9381  0.2965  0.5931  11.00000  0.05    0.81
Q10   1   0.8947  0.2787  0.5023  11.00000  0.05    0.74
Q11   1   0.4630 -0.4514  0.5515  11.00000  0.05    0.71
Q12   1   0.9431  0.3962  0.6007  11.00000  0.05    0.70
Q13   1   0.8869 -0.1645  0.4341  11.00000  0.05    0.69
Q14   1   0.8759 -0.0811  0.5123  11.00000  0.05    0.69
Q15   1   0.8736  0.5248  0.5586  11.00000  0.05    0.66
Q16   1   0.7419  0.0619  0.5398  11.00000  0.05    0.64
Q17   1   0.5804 -0.5409  0.4998  11.00000  0.05    0.64
Q18   1   0.9544 -0.0794  0.7378  11.00000  0.05    0.61
Q19   1   0.6605  0.1219  0.1964  11.00000  0.05    0.61
Q20   1   0.8616  0.0226  0.6976  11.00000  0.05    0.60
;
_shelx_res_checksum              15073
loop_
_space_group_symop_operation_xyz
'x, y, z'
'-x, -y, -z'
loop_
_atom_site_label
_atom_site_type_symbol
_atom_site_fract_x
_atom_site_fract_y
_atom_site_fract_z
_atom_site_U_iso_or_equiv
_atom_site_adp_type
_atom_site_occupancy
_atom_site_site_symmetry_order
_atom_site_calc_flag
_atom_site_refinement_flags_posn
_atom_site_refinement_flags_adp
_atom_site_refinement_flags_occupancy
Rh1 Rh 0.71203(6) -0.00605(5) 0.50484(5) 0.0246(3) Uani 1 1 d . . .
N1 N 0.7555(6) 0.0711(6) 0.6470(5) 0.0324(17) Uani 1 1 d . . .
N2 N 0.6373(6) 0.0960(6) 0.5053(5) 0.0294(15) Uani 1 1 d . . .
N3 N 0.6731(6) -0.0801(6) 0.3616(5) 0.0319(16) Uani 1 1 d . . .
N4 N 0.7671(6) -0.1204(6) 0.5052(5) 0.0288(15) Uani 1 1 d . . .
C1 C 0.8168(7) 0.0476(8) 0.7052(6) 0.032(2) Uani 1 1 d . . .
C2 C 0.8509(8) 0.1351(8) 0.7999(6) 0.037(2) Uani 1 1 d . . .
H2A H 0.8924 0.1393 0.8534 0.045 Uiso 1 1 calc R U .
C3 C 0.8127(8) 0.2087(9) 0.7974(6) 0.039(2) Uani 1 1 d . . .
H3A H 0.8241 0.2754 0.8491 0.047 Uiso 1 1 calc R U .
C4 C 0.7527(8) 0.1701(7) 0.7050(6) 0.033(2) Uani 1 1 d . . .
C5 C 0.6910(8) 0.2189(7) 0.6740(6) 0.034(2) Uani 1 1 d . . .
C6 C 0.6294(7) 0.1771(7) 0.5821(6) 0.0296(19) Uani 1 1 d . . .
C7 C 0.5549(9) 0.2196(9) 0.5532(7) 0.045(3) Uani 1 1 d . . .
H7A H 0.5315 0.2733 0.5930 0.055 Uiso 1 1 calc R U .
C8 C 0.5256(8) 0.1677(8) 0.4586(8) 0.045(3) Uani 1 1 d . . .
H8A H 0.4774 0.1789 0.4198 0.054 Uiso 1 1 calc R U .
C9 C 0.5798(7) 0.0922(7) 0.4262(6) 0.0301(19) Uani 1 1 d . . .
C10 C 0.5847(8) 0.0355(8) 0.3331(7) 0.036(2) Uani 1 1 d . . .
C11 C 0.6343(8) -0.0419(7) 0.3036(6) 0.032(2) Uani 1 1 d . . .
C12 C 0.6471(8) -0.1002(8) 0.2091(6) 0.037(2) Uani 1 1 d . . .
H12A H 0.6294 -0.0893 0.1559 0.045 Uiso 1 1 calc R U .
C13 C 0.6892(8) -0.1729(8) 0.2107(6) 0.035(2) Uani 1 1 d . . .
H13A H 0.7054 -0.2224 0.1586 0.042 Uiso 1 1 calc R U .
C14 C 0.7046(8) -0.1620(7) 0.3041(6) 0.0316(19) Uani 1 1 d . . .
C15 C 0.7424(7) -0.2253(7) 0.3351(6) 0.0304(19) Uani 1 1 d . . .
C16 C 0.7649(8) -0.2098(8) 0.4274(6) 0.035(2) Uani 1 1 d . . .
C17 C 0.8019(8) -0.2760(8) 0.4588(7) 0.037(2) Uani 1 1 d . . .
H17A H 0.8081 -0.3416 0.4199 0.044 Uiso 1 1 calc R U .
C18 C 0.8259(8) -0.2276(8) 0.5536(7) 0.040(2) Uani 1 1 d . . .
H18A H 0.8508 -0.2537 0.5933 0.048 Uiso 1 1 calc R U .
C19 C 0.8065(7) -0.1285(7) 0.5836(6) 0.0287(19) Uani 1 1 d . . .
C20 C 0.8349(7) -0.0481(8) 0.6776(6) 0.0311(19) Uani 1 1 d . . .
C21 C 0.6953(9) 0.3255(8) 0.7481(7) 0.041(2) Uani 1 1 d . . .
C22 C 0.6153(10) 0.3274(10) 0.8050(8) 0.060(3) Uani 1 1 d . . .
H22A H 0.5539 0.2600 0.7966 0.071 Uiso 1 1 calc R U .
C23 C 0.6219(12) 0.4261(13) 0.8748(9) 0.069(4) Uani 1 1 d . . .
H23A H 0.5617 0.4236 0.9095 0.083 Uiso 1 1 calc R U .
C24 C 0.7093(15) 0.5235(12) 0.8946(9) 0.071(4) Uani 1 1 d . . .
C25 C 0.7989(17) 0.5253(11) 0.8428(12) 0.105(7) Uani 1 1 d . . .
H25A H 0.8632 0.5932 0.8562 0.126 Uiso 1 1 calc R U .
C26 C 0.7932(13) 0.4264(11) 0.7711(10) 0.080(4) Uani 1 1 d . U .
H26A H 0.8551 0.4280 0.7385 0.097 Uiso 1 1 calc R U .
C27 C 0.7182(19) 0.6313(13) 0.9753(11) 0.104(6) Uani 1 1 d . . .
H27A H 0.7882 0.6935 0.9785 0.157 Uiso 1 1 calc R U .
H27B H 0.6486 0.6428 0.9635 0.157 Uiso 1 1 calc R U .
H27C H 0.7236 0.6258 1.0349 0.157 Uiso 1 1 calc R U .
C31 C 0.5400(8) 0.0603(8) 0.2577(7) 0.036(2) Uani 1 1 d . . .
C32 C 0.5929(13) 0.1632(11) 0.2606(9) 0.075(4) Uani 1 1 d . . .
H32A H 0.6573 0.2194 0.3100 0.090 Uiso 1 1 calc R U .
C33 C 0.5516(13) 0.1856(11) 0.1896(10) 0.077(4) Uani 1 1 d . . .
H33A H 0.5895 0.2569 0.1921 0.092 Uiso 1 1 calc R U .
C34 C 0.4583(12) 0.1065(12) 0.1175(9) 0.064(3) Uani 1 1 d . . .
C35 C 0.4063(11) 0.0040(13) 0.1170(9) 0.069(4) Uani 1 1 d . . .
H35A H 0.3425 -0.0525 0.0671 0.083 Uiso 1 1 calc R U .
C36 C 0.4442(9) -0.0202(11) 0.1877(8) 0.057(3) Uani 1 1 d . . .
H36A H 0.4044 -0.0906 0.1868 0.068 Uiso 1 1 calc R U .
C37 C 0.4168(15) 0.1315(15) 0.0402(11) 0.093(5) Uani 1 1 d . . .
H37A H 0.3497 0.0660 -0.0050 0.140 Uiso 1 1 calc R U .
H37B H 0.3937 0.1921 0.0682 0.140 Uiso 1 1 calc R U .
H37C H 0.4805 0.1524 0.0082 0.140 Uiso 1 1 calc R U .
C41 C 0.7563(9) -0.3225(8) 0.2595(7) 0.040(2) Uani 1 1 d . . .
C42 C 0.8646(10) -0.3126(11) 0.2399(9) 0.066(3) Uani 1 1 d . . .
H42A H 0.9303 -0.2436 0.2712 0.079 Uiso 1 1 calc R U .
C43 C 0.8796(12) -0.4034(12) 0.1737(10) 0.080(4) Uani 1 1 d . . .
H43A H 0.9555 -0.3949 0.1626 0.096 Uiso 1 1 calc R U .
C44 C 0.7855(14) -0.5039(11) 0.1255(9) 0.066(4) Uani 1 1 d . . .
C45 C 0.6768(13) -0.5144(10) 0.1455(9) 0.067(4) Uani 1 1 d . . .
H45A H 0.6109 -0.5834 0.1143 0.081 Uiso 1 1 calc R U .
C46 C 0.6630(10) -0.4241(8) 0.2115(8) 0.055(3) Uani 1 1 d . . .
H46A H 0.5873 -0.4331 0.2234 0.066 Uiso 1 1 calc R U .
C47 C 0.7989(18) -0.6040(14) 0.0533(12) 0.116(7) Uani 1 1 d . . .
H47A H 0.7222 -0.6672 0.0269 0.174 Uiso 1 1 calc R U .
H47B H 0.8309 -0.5869 0.0029 0.174 Uiso 1 1 calc R U .
H47C H 0.8521 -0.6217 0.0840 0.174 Uiso 1 1 calc R U .
C51 C 0.8933(8) -0.0650(8) 0.7521(7) 0.038(2) Uani 1 1 d . . .
C52 C 1.0153(9) -0.0164(11) 0.7819(8) 0.056(3) Uani 1 1 d . . .
H52A H 1.0634 0.0301 0.7568 0.067 Uiso 1 1 calc R U .
C53 C 1.0660(9) -0.0365(11) 0.8484(9) 0.061(3) Uani 1 1 d . . .
H53A H 1.1485 -0.0001 0.8698 0.073 Uiso 1 1 calc R U .
C54 C 1.0003(10) -0.1078(10) 0.8847(8) 0.053(3) Uani 1 1 d . . .
C55 C 0.8800(10) -0.1537(10) 0.8555(8) 0.059(3) Uani 1 1 d . . .
H55A H 0.8322 -0.2010 0.8802 0.071 Uiso 1 1 calc R U .
C56 C 0.8264(9) -0.1327(10) 0.7905(8) 0.057(3) Uani 1 1 d . . .
H56A H 0.7436 -0.1650 0.7725 0.068 Uiso 1 1 calc R U .
C57 C 1.0589(13) -0.1342(12) 0.9527(10) 0.076(4) Uani 1 1 d . . .
H57A H 1.1440 -0.0937 0.9646 0.114 Uiso 1 1 calc R U .
H57B H 1.0323 -0.1125 1.0119 0.114 Uiso 1 1 calc R U .
H57C H 1.0378 -0.2134 0.9253 0.114 Uiso 1 1 calc R U .
C61 C 0.8821(8) 0.0962(7) 0.5009(9) 0.045(2) Uani 1 1 d D . .
H61A H 0.9377 0.1183 0.5582 0.054 Uiso 1 1 calc R U .
H61B H 0.9074 0.0543 0.4461 0.054 Uiso 1 1 calc R U .
C62 C 0.8852(9) 0.1970(10) 0.4944(10) 0.063(3) Uani 1 1 d D . .
H62A H 0.8848 0.2564 0.5480 0.076 Uiso 1 1 calc R U .
C63 C 0.8884(11) 0.2019(12) 0.4140(11) 0.076(4) Uani 1 1 d . . .
H63A H 0.8900 0.1419 0.3617 0.091 Uiso 1 1 calc R U .
C64 C 0.8899(11) 0.3010(11) 0.4009(11) 0.069(4) Uani 1 1 d . . .
C65 C 0.9229(16) 0.3103(14) 0.3197(12) 0.097(5) Uani 1 1 d . . .
H65A H 0.9483 0.2587 0.2792 0.116 Uiso 1 1 calc R U .
C66 C 0.9198(17) 0.3906(14) 0.2968(12) 0.098(5) Uani 1 1 d . . .
H66A H 0.9460 0.3962 0.2427 0.117 Uiso 1 1 calc R U .
C67 C 0.8782(17) 0.4636(16) 0.3528(15) 0.113(6) Uani 1 1 d . . .
H67A H 0.8719 0.5173 0.3356 0.136 Uiso 1 1 calc R U .
C68 C 0.8447(15) 0.4581(14) 0.4365(14) 0.096(5) Uani 1 1 d . . .
H68A H 0.8181 0.5098 0.4752 0.115 Uiso 1 1 calc R U .
C69 C 0.8501(12) 0.3782(14) 0.4633(13) 0.094(5) Uani 1 1 d . . .
H69A H 0.8287 0.3752 0.5194 0.112 Uiso 1 1 calc R U .
C72 C 0.523(3) -0.426(3) 0.619(3) 0.16(2) Uani 0.5 1 d D . P
H72A H 0.5505 -0.3521 0.6200 0.195 Uiso 0.5 1 calc R U P
H72B H 0.4398 -0.4524 0.6227 0.195 Uiso 0.5 1 calc R U P
C73 C 0.543(2) -0.507(3) 0.530(2) 0.16(3) Uani 0.5 1 d D . P
H73A H 0.5148 -0.5830 0.5255 0.194 Uiso 0.5 1 calc R U P
H73B H 0.6240 -0.4809 0.5208 0.194 Uiso 0.5 1 calc R U P
C71 C 0.598(4) -0.424(3) 0.699(3) 0.141(18) Uani 0.5 1 d D . P
H71A H 0.5922 -0.3735 0.7594 0.211 Uiso 0.5 1 calc R U P
H71B H 0.5704 -0.4979 0.6956 0.211 Uiso 0.5 1 calc R U P
H71C H 0.6802 -0.3983 0.6929 0.211 Uiso 0.5 1 calc R U P
loop_
_atom_site_aniso_label
_atom_site_aniso_U_11
_atom_site_aniso_U_22
_atom_site_aniso_U_33
_atom_site_aniso_U_23
_atom_site_aniso_U_13
_atom_site_aniso_U_12
Rh1 0.0367(4) 0.0266(4) 0.0178(3) 0.0111(3) 0.0045(3) 0.0193(3)
N1 0.044(4) 0.035(4) 0.028(4) 0.016(4) 0.010(3) 0.024(4)
N2 0.031(4) 0.039(4) 0.020(4) 0.010(3) 0.003(3) 0.020(3)
N3 0.034(4) 0.031(4) 0.034(4) 0.015(4) 0.008(3) 0.016(3)
N4 0.030(4) 0.037(4) 0.027(4) 0.014(3) 0.007(3) 0.021(3)
C1 0.035(5) 0.043(5) 0.023(5) 0.021(4) 0.007(4) 0.017(4)
C2 0.053(6) 0.051(6) 0.012(4) 0.011(4) 0.008(4) 0.030(5)
C3 0.048(6) 0.055(6) 0.018(5) 0.005(4) 0.008(4) 0.036(5)
C4 0.044(5) 0.031(5) 0.023(5) 0.012(4) 0.008(4) 0.016(4)
C5 0.048(5) 0.031(5) 0.028(5) 0.012(4) 0.012(4) 0.020(4)
C6 0.033(5) 0.038(5) 0.030(5) 0.018(4) 0.012(4) 0.023(4)
C7 0.060(6) 0.067(7) 0.047(7) 0.036(6) 0.022(5) 0.052(6)
C8 0.038(5) 0.049(6) 0.061(7) 0.025(6) 0.003(5) 0.030(5)
C9 0.032(5) 0.036(5) 0.031(5) 0.020(4) 0.002(4) 0.017(4)
C10 0.037(5) 0.039(5) 0.033(5) 0.016(4) 0.000(4) 0.016(4)
C11 0.046(5) 0.036(5) 0.021(5) 0.017(4) 0.003(4) 0.021(4)
C12 0.052(6) 0.049(6) 0.012(4) 0.015(4) 0.008(4) 0.021(5)
C13 0.048(5) 0.040(5) 0.018(4) 0.007(4) 0.011(4) 0.024(4)
C14 0.037(5) 0.027(5) 0.025(5) 0.007(4) 0.005(4) 0.014(4)
C15 0.037(5) 0.033(5) 0.027(5) 0.010(4) 0.009(4) 0.024(4)
C16 0.036(5) 0.036(5) 0.032(5) 0.012(4) 0.007(4) 0.018(4)
C17 0.042(5) 0.039(5) 0.036(5) 0.013(4) 0.003(4) 0.029(4)
C18 0.050(6) 0.059(6) 0.034(6) 0.025(5) 0.011(4) 0.040(5)
C19 0.027(4) 0.030(5) 0.037(5) 0.018(4) 0.004(4) 0.017(4)
C20 0.037(5) 0.043(5) 0.023(5) 0.018(4) 0.008(4) 0.023(4)
C21 0.066(7) 0.040(6) 0.026(5) 0.010(4) 0.011(5) 0.035(5)
C22 0.047(6) 0.055(7) 0.052(7) 0.010(6) 0.020(5) 0.010(5)
C23 0.072(8) 0.087(10) 0.053(8) 0.013(7) 0.026(6) 0.055(8)
C24 0.132(13) 0.060(8) 0.042(7) 0.019(7) 0.039(8) 0.063(9)
C25 0.161(16) 0.042(8) 0.093(12) 0.013(8) 0.082(12) 0.035(9)
C26 0.092(7) 0.059(7) 0.080(8) 0.023(6) 0.051(6) 0.027(6)
C27 0.21(2) 0.085(11) 0.057(9) 0.031(8) 0.056(11) 0.101(13)
C31 0.051(6) 0.041(6) 0.026(5) 0.015(4) 0.008(4) 0.027(5)
C32 0.096(10) 0.060(8) 0.061(8) 0.024(7) -0.023(7) 0.032(7)
C33 0.109(11) 0.064(8) 0.074(9) 0.047(8) -0.001(8) 0.036(8)
C34 0.083(9) 0.095(10) 0.040(7) 0.036(7) 0.006(6) 0.058(8)
C35 0.053(7) 0.102(11) 0.061(8) 0.047(8) -0.005(6) 0.031(7)
C36 0.043(6) 0.084(9) 0.052(7) 0.040(7) 0.002(5) 0.024(6)
C37 0.124(13) 0.143(15) 0.069(10) 0.069(10) 0.020(9) 0.089(12)
C41 0.057(6) 0.046(6) 0.023(5) 0.008(5) 0.008(4) 0.036(5)
C42 0.049(7) 0.060(8) 0.060(8) -0.001(6) 0.007(6) 0.025(6)
C43 0.072(9) 0.081(10) 0.068(9) -0.005(8) 0.015(7) 0.054(8)
C44 0.123(12) 0.054(8) 0.036(7) 0.010(6) 0.015(7) 0.064(8)
C45 0.107(11) 0.035(6) 0.051(8) 0.006(6) 0.024(7) 0.034(7)
C46 0.065(7) 0.030(6) 0.057(7) 0.005(5) 0.022(6) 0.022(5)
C47 0.180(18) 0.090(12) 0.073(11) -0.010(9) 0.003(11) 0.100(13)
C51 0.047(6) 0.042(6) 0.033(5) 0.019(5) 0.004(4) 0.024(5)
C52 0.044(6) 0.093(9) 0.052(7) 0.049(7) 0.013(5) 0.032(6)
C53 0.039(6) 0.091(9) 0.066(8) 0.045(8) 0.006(5) 0.029(6)
C54 0.065(7) 0.071(8) 0.034(6) 0.022(6) 0.001(5) 0.042(6)
C55 0.063(7) 0.069(8) 0.056(7) 0.047(7) 0.008(6) 0.019(6)
C56 0.041(6) 0.082(8) 0.055(7) 0.048(7) -0.002(5) 0.014(6)
C57 0.097(10) 0.087(10) 0.060(9) 0.040(8) -0.006(7) 0.048(8)
C61 0.044(5) 0.034(5) 0.066(7) 0.030(5) 0.012(5) 0.017(4)
C62 0.041(6) 0.089(9) 0.086(9) 0.059(8) 0.027(6) 0.032(6)
C63 0.065(8) 0.086(10) 0.086(10) 0.042(9) 0.019(7) 0.036(7)
C64 0.060(8) 0.071(9) 0.091(10) 0.044(8) 0.011(7) 0.033(7)
C65 0.124(14) 0.100(12) 0.101(13) 0.049(11) 0.043(10) 0.074(11)
C66 0.151(16) 0.100(12) 0.090(11) 0.059(10) 0.056(11) 0.080(12)
C67 0.139(16) 0.120(15) 0.131(17) 0.078(14) 0.029(13) 0.082(13)
C68 0.108(13) 0.082(11) 0.117(15) 0.042(10) 0.026(10) 0.060(10)
C69 0.063(9) 0.099(12) 0.117(14) 0.048(11) 0.018(9) 0.032(8)
C72 0.08(2) 0.08(3) 0.35(8) 0.11(4) 0.05(4) 0.03(2)
C73 0.13(4) 0.06(2) 0.31(8) 0.08(3) 0.11(5) 0.04(2)
C71 0.14(4) 0.06(2) 0.21(5) 0.06(3) 0.06(4) 0.02(2)
loop_
_atom_type_symbol
_atom_type_description
_atom_type_scat_dispersion_real
_atom_type_scat_dispersion_imag
_atom_type_scat_source
C C 0.0033 0.0016 'International Tables Vol C Tables 4.2.6.8 and 6.1.1.4'
H H 0.0000 0.0000 'International Tables Vol C Tables 4.2.6.8 and 6.1.1.4'
N N 0.0061 0.0033 'International Tables Vol C Tables 4.2.6.8 and 6.1.1.4'
Rh Rh -1.1178 0.9187 'International Tables Vol C Tables 4.2.6.8 and 6.1.1.4'
loop_
_geom_angle_atom_site_label_1
_geom_angle_atom_site_label_2
_geom_angle_atom_site_label_3
_geom_angle
_geom_angle_site_symmetry_3
N1 Rh1 N4 90.3(3) .
N1 Rh1 N2 89.6(3) .
N4 Rh1 N2 173.0(3) .
N1 Rh1 N3 178.2(3) .
N4 Rh1 N3 90.0(3) .
N2 Rh1 N3 90.3(3) .
N1 Rh1 C61 89.2(4) .
N4 Rh1 C61 91.0(3) .
N2 Rh1 C61 96.0(3) .
N3 Rh1 C61 89.0(4) .
C4 N1 C1 105.4(7) .
C4 N1 Rh1 127.3(6) .
C1 N1 Rh1 126.2(6) .
C6 N2 C9 107.3(6) .
C6 N2 Rh1 126.8(5) .
C9 N2 Rh1 125.8(6) .
C14 N3 C11 106.6(7) .
C14 N3 Rh1 126.1(6) .
C11 N3 Rh1 125.9(6) .
C19 N4 C16 106.7(6) .
C19 N4 Rh1 126.3(6) .
C16 N4 Rh1 126.9(6) .
C20 C1 N1 125.3(8) .
C20 C1 C2 125.9(8) .
N1 C1 C2 108.7(8) .
C3 C2 C1 107.2(8) .
C2 C3 C4 108.4(9) .
N1 C4 C3 110.3(8) .
N1 C4 C5 123.1(8) .
C3 C4 C5 126.5(9) .
C6 C5 C4 125.3(8) .
C6 C5 C21 119.1(8) .
C4 C5 C21 115.5(8) .
N2 C6 C5 125.1(7) .
N2 C6 C7 109.6(8) .
C5 C6 C7 125.1(8) .
C8 C7 C6 106.6(9) .
C7 C8 C9 108.6(8) .
N2 C9 C10 126.2(8) .
N2 C9 C8 107.6(8) .
C10 C9 C8 125.8(8) .
C9 C10 C11 124.0(8) .
C9 C10 C31 119.2(8) .
C11 C10 C31 116.6(8) .
N3 C11 C10 124.7(8) .
N3 C11 C12 108.1(8) .
C10 C11 C12 127.1(8) .
C13 C12 C11 107.6(8) .
C12 C13 C14 108.1(8) .
N3 C14 C15 124.2(8) .
N3 C14 C13 109.6(8) .
C15 C14 C13 126.1(8) .
C16 C15 C14 126.1(8) .
C16 C15 C41 117.0(8) .
C14 C15 C41 116.9(8) .
C15 C16 N4 124.6(8) .
C15 C16 C17 126.0(8) .
N4 C16 C17 109.1(8) .
C18 C17 C16 107.7(8) .
C17 C18 C19 107.5(8) .
N4 C19 C20 125.7(7) .
N4 C19 C18 109.0(8) .
C20 C19 C18 125.0(7) .
C1 C20 C19 124.2(7) .
C1 C20 C51 118.2(8) .
C19 C20 C51 117.5(8) .
C22 C21 C26 116.6(11) .
C22 C21 C5 122.4(10) .
C26 C21 C5 120.3(10) .
C21 C22 C23 121.9(12) .
C24 C23 C22 122.6(12) .
C23 C24 C25 117.8(12) .
C23 C24 C27 121.9(13) .
C25 C24 C27 120.2(15) .
C24 C25 C26 120.5(14) .
C21 C26 C25 120.1(12) .
C32 C31 C36 119.9(9) .
C32 C31 C10 120.3(9) .
C36 C31 C10 119.7(9) .
C31 C32 C33 120.1(11) .
C34 C33 C32 121.5(12) .
C33 C34 C35 117.0(10) .
C33 C34 C37 120.7(13) .
C35 C34 C37 122.2(13) .
C34 C35 C36 122.8(12) .
C31 C36 C35 118.6(11) .
C42 C41 C46 117.4(10) .
C42 C41 C15 120.7(10) .
C46 C41 C15 121.9(9) .
C41 C42 C43 121.3(12) .
C44 C43 C42 120.7(12) .
C43 C44 C45 118.2(11) .
C43 C44 C47 122.0(14) .
C45 C44 C47 119.8(14) .
C44 C45 C46 120.6(12) .
C41 C46 C45 121.8(11) .
C56 C51 C52 118.1(9) .
C56 C51 C20 120.3(8) .
C52 C51 C20 121.6(9) .
C53 C52 C51 120.0(10) .
C52 C53 C54 122.6(10) .
C55 C54 C53 116.6(9) .
C55 C54 C57 122.0(11) .
C53 C54 C57 121.4(11) .
C54 C55 C56 122.0(10) .
C51 C56 C55 120.7(10) .
C62 C61 Rh1 111.6(6) .
C63 C62 C61 118.9(13) .
C62 C63 C64 122.3(14) .
C65 C64 C69 119.7(13) .
C65 C64 C63 117.0(14) .
C69 C64 C63 123.1(14) .
C66 C65 C64 122.6(15) .
C65 C66 C67 119.5(16) .
C66 C67 C68 119.8(15) .
C69 C68 C67 121.9(16) .
C68 C69 C64 116.5(16) .
C71 C72 C73 103(3) .
C72 C73 C73 89(3) 2_646
loop_
_geom_bond_atom_site_label_1
_geom_bond_atom_site_label_2
_geom_bond_distance
_geom_bond_site_symmetry_2
Rh1 N1 2.009(7) .
Rh1 N4 2.014(6) .
Rh1 N2 2.016(6) .
Rh1 N3 2.022(7) .
Rh1 C61 2.100(9) .
N1 C4 1.376(11) .
N1 C1 1.388(10) .
N2 C6 1.352(11) .
N2 C9 1.384(10) .
N3 C14 1.381(11) .
N3 C11 1.389(10) .
N4 C19 1.372(10) .
N4 C16 1.378(12) .
C1 C20 1.385(13) .
C1 C2 1.440(13) .
C2 C3 1.330(13) .
C3 C4 1.400(12) .
C4 C5 1.406(12) .
C5 C6 1.390(12) .
C5 C21 1.504(13) .
C6 C7 1.437(11) .
C7 C8 1.337(14) .
C8 C9 1.433(12) .
C9 C10 1.385(13) .
C10 C11 1.408(13) .
C10 C31 1.507(12) .
C11 C12 1.441(12) .
C12 C13 1.347(13) .
C13 C14 1.409(12) .
C14 C15 1.395(12) .
C15 C16 1.378(12) .
C15 C41 1.518(12) .
C16 C17 1.431(12) .
C17 C18 1.339(12) .
C18 C19 1.438(12) .
C19 C20 1.402(12) .
C20 C51 1.503(11) .
C21 C22 1.362(15) .
C21 C26 1.402(17) .
C22 C23 1.388(17) .
C23 C24 1.319(19) .
C24 C25 1.40(2) .
C24 C27 1.537(18) .
C25 C26 1.405(19) .
C31 C32 1.359(15) .
C31 C36 1.364(15) .
C32 C33 1.405(15) .
C33 C34 1.359(18) .
C34 C35 1.368(18) .
C34 C37 1.519(15) .
C35 C36 1.402(15) .
C41 C42 1.364(15) .
C41 C46 1.367(15) .
C42 C43 1.403(17) .
C43 C44 1.363(19) .
C44 C45 1.371(19) .
C44 C47 1.522(18) .
C45 C46 1.389(16) .
C51 C56 1.373(14) .
C51 C52 1.388(14) .
C52 C53 1.378(14) .
C53 C54 1.380(16) .
C54 C55 1.370(16) .
C54 C57 1.515(14) .
C55 C56 1.388(14) .
C61 C62 1.482(8) .
C62 C63 1.292(17) .
C63 C64 1.514(18) .
C64 C65 1.39(2) .
C64 C69 1.43(2) .
C65 C66 1.35(2) .
C66 C67 1.37(2) .
C67 C68 1.41(2) .
C68 C69 1.39(2) .
C72 C71 1.524(10) .
C72 C73 1.530(10) .
C73 C73 1.537(10) 2_646
