#------------------------------------------------------------------------------
#$Date: 2018-09-20 02:05:04 +0300 (Thu, 20 Sep 2018) $
#$Revision: 211069 $
#$URL: file:///home/coder/svn-repositories/cod/cif/7/04/75/7047594.cif $
#------------------------------------------------------------------------------
#
# This file is available in the Crystallography Open Database (COD),
# http://www.crystallography.net/
#
# All data on this site have been placed in the public domain by the
# contributors.
#
data_7047594
loop_
_publ_author_name
'Tung, Jo-Yu'
'Chen, Yi-Chun'
'Liu, Ta-Kang'
'Tsai, Wei-Joe'
'Lin, Hsiang-Yin'
'Chen, Jyh-Horung'
'Chang, Yu-Chang'
_publ_section_title
;
 The \h1-H--C&#x2026;Hg agostic interactions in mercury complexes of
 N-confused porphyrin
;
_journal_name_full               'Dalton Transactions'
_journal_paper_doi               10.1039/C8DT02895H
_journal_year                    2018
_chemical_formula_moiety         'C48 H35 Br Hg N4 O2'
_chemical_formula_sum            'C48 H35 Br Hg N4 O2'
_chemical_formula_weight         980.30
_space_group_crystal_system      triclinic
_space_group_IT_number           2
_space_group_name_Hall           '-P 1'
_space_group_name_H-M_alt        'P -1'
_symmetry_cell_setting           triclinic
_symmetry_space_group_name_Hall  '-P 1'
_symmetry_space_group_name_H-M   'P -1'
_atom_sites_solution_hydrogens   mixed
_audit_creation_method           SHELXL-2014/7
_audit_update_record
;
2018-06-05 deposited with the CCDC.
2018-09-19 downloaded from the CCDC.
;
_cell_angle_alpha                69.4115(18)
_cell_angle_beta                 67.3886(16)
_cell_angle_gamma                70.4786(16)
_cell_formula_units_Z            2
_cell_length_a                   12.8582(6)
_cell_length_b                   13.2646(7)
_cell_length_c                   13.3976(7)
_cell_measurement_reflns_used    9107
_cell_measurement_temperature    150(2)
_cell_measurement_theta_max      27.884
_cell_measurement_theta_min      3.101
_cell_volume                     1921.66(17)
_computing_cell_refinement       'SAINT V7.34A (Bruker AXS, 2006)'
_computing_data_collection       'APEX2 (Bruker AXS, 2010)'
_computing_data_reduction        'SAINT V7.34A (Bruker AXS, 2006)'
_computing_molecular_graphics    'Bruker SHELXTL'
_computing_publication_material  'Bruker SHELXTL'
_computing_structure_refinement  'SHELXL-2014/7 (Sheldrick, 2014)'
_computing_structure_solution    'SHELXL-2014/7 (Sheldrick, 2014)'
_diffrn_ambient_temperature      150(2)
_diffrn_measured_fraction_theta_full 0.998
_diffrn_measured_fraction_theta_max 0.992
_diffrn_measurement_device_type  'Bruker APEX-II CCD'
_diffrn_measurement_method       '\f and \w scans'
_diffrn_radiation_probe          x-ray
_diffrn_radiation_type           MoK\a
_diffrn_radiation_wavelength     0.71073
_diffrn_reflns_av_R_equivalents  0.0393
_diffrn_reflns_av_unetI/netI     0.0353
_diffrn_reflns_Laue_measured_fraction_full 0.998
_diffrn_reflns_Laue_measured_fraction_max 0.992
_diffrn_reflns_limit_h_max       16
_diffrn_reflns_limit_h_min       -16
_diffrn_reflns_limit_k_max       17
_diffrn_reflns_limit_k_min       -17
_diffrn_reflns_limit_l_max       17
_diffrn_reflns_limit_l_min       -17
_diffrn_reflns_number            39795
_diffrn_reflns_point_group_measured_fraction_full 0.998
_diffrn_reflns_point_group_measured_fraction_max 0.992
_diffrn_reflns_theta_full        25.242
_diffrn_reflns_theta_max         27.957
_diffrn_reflns_theta_min         3.101
_exptl_absorpt_coefficient_mu    5.091
_exptl_absorpt_correction_T_max  0.9281
_exptl_absorpt_correction_T_min  0.5297
_exptl_absorpt_correction_type   multi-scan
_exptl_absorpt_process_details   'SADABS V2012/1 (Bruker AXS Inc.)'
_exptl_crystal_colour            blue
_exptl_crystal_density_diffrn    1.694
_exptl_crystal_description       parallelepiped
_exptl_crystal_F_000             964
_exptl_crystal_size_max          0.600
_exptl_crystal_size_mid          0.510
_exptl_crystal_size_min          0.110
_refine_diff_density_max         1.893
_refine_diff_density_min         -5.569
_refine_diff_density_rms         0.238
_refine_ls_extinction_method     none
_refine_ls_goodness_of_fit_ref   1.045
_refine_ls_hydrogen_treatment    mixed
_refine_ls_matrix_type           full
_refine_ls_number_parameters     509
_refine_ls_number_reflns         9165
_refine_ls_number_restraints     0
_refine_ls_restrained_S_all      1.045
_refine_ls_R_factor_all          0.0641
_refine_ls_R_factor_gt           0.0551
_refine_ls_shift/su_max          0.001
_refine_ls_shift/su_mean         0.000
_refine_ls_structure_factor_coef Fsqd
_refine_ls_weighting_details
'w=1/[\s^2^(Fo^2^)+(0.0868P)^2^+22.0438P] where P=(Fo^2^+2Fc^2^)/3'
_refine_ls_weighting_scheme      calc
_refine_ls_wR_factor_gt          0.1470
_refine_ls_wR_factor_ref         0.1551
_reflns_Friedel_coverage         0.000
_reflns_number_gt                8176
_reflns_number_total             9165
_reflns_threshold_expression     'I > 2\s(I)'
_cod_data_source_file            c8dt02895h2.cif
_cod_data_source_block           hgbr2622
_cod_depositor_comments
;
The following automatic conversions were performed:

'_symmetry_cell_setting' value 'Triclinic' changed to 'triclinic'
according to
/home/data/users/saulius/crontab/automatic-downloads/rss-feeds/RSC/lib/dictionaries/cif_core.dic
dictionary named 'cif_core.dic' version 2.4.2 from 2011-04-26.

Automatic conversion script
Id: cif_fix_values 4973 2017-02-22 13:04:09Z antanas 
;
_cod_original_sg_symbol_H-M      P-1
_cod_database_code               7047594
_shelx_shelxl_version_number     2014/7
_shelx_space_group_comment
; 
The symmetry employed for this shelxl refinement is uniquely defined 
by the following loop, which should always be used as a source of 
symmetry information in preference to the above space-group names. 
They are only intended as comments. 
;
_shelx_estimated_absorpt_t_min   0.150
_shelx_estimated_absorpt_t_max   0.604
_shelx_res_file
; 
  
    hgbr2622.res created by SHELXL-2014/7 
  
  
TITL hgbr2622 in P-1 
CELL 0.71073  12.85820  13.26460  13.39760  69.4115  67.3886  70.4786 
ZERR    2.00   0.00060   0.00070   0.00070   0.0018   0.0016   0.0016 
LATT 1 
SFAC C  H  N  O  Br Hg 
UNIT 96  70  8  4  2  2 
L.S. 8 
ACTA 
BOND $H 
FMAP 2 
PLAN 0 
SIZE 0.11 0.51 0.60 
TEMP -123.140 
WGHT    0.086800   22.043800 
FVAR       0.10642 
HG    6    0.503199    0.687220    0.628196    11.00000    0.01304    0.01948 = 
         0.02325   -0.00733   -0.00328   -0.00121 
BR    5    0.672724    0.740581    0.615452    11.00000    0.04906    0.07949 = 
         0.07599   -0.03745   -0.01293   -0.02056 
O1    4    0.980951    0.619770    0.185434    11.00000    0.02570    0.05212 = 
         0.03367   -0.00419   -0.00715   -0.00751 
O2    4    1.095392    0.535035    0.297773    11.00000    0.01802    0.04841 = 
         0.03958   -0.01694   -0.00777    0.00197 
N1    3    0.390668    0.824774    0.516317    11.00000    0.01171    0.01049 = 
         0.01604   -0.00186    0.00149    0.00134 
N2    3    0.329181    0.660913    0.729634    11.00000    0.00973    0.01224 = 
         0.01569   -0.00260    0.00014    0.00033 
N3    3    0.541259    0.494525    0.653459    11.00000    0.01046    0.01350 = 
         0.00880   -0.00248   -0.00102    0.00058 
N4    3    0.787063    0.639451    0.375143    11.00000    0.01213    0.01938 = 
         0.02356   -0.00645   -0.00357   -0.00113 
C1    1    0.431289    0.888209    0.409532    11.00000    0.01556    0.01406 = 
         0.01828   -0.00118   -0.00382    0.00023 
C2    1    0.343649    0.988289    0.389636    11.00000    0.02053    0.01245 = 
         0.02472    0.00229   -0.00064    0.00034 
AFIX  43 
H2A   2    0.348602    1.045706    0.322329    11.00000   -1.20000 
AFIX   0 
C3    1    0.254129    0.985177    0.483604    11.00000    0.01718    0.01235 = 
         0.02645    0.00058    0.00205    0.00651 
AFIX  43 
H3A   2    0.183966    1.040108    0.495764    11.00000   -1.20000 
AFIX   0 
C4    1    0.284670    0.881982    0.563286    11.00000    0.01355    0.01205 = 
         0.02127   -0.00341   -0.00152    0.00078 
C5    1    0.213549    0.850197    0.675762    11.00000    0.01131    0.01335 = 
         0.01957   -0.00590    0.00176    0.00335 
C6    1    0.234492    0.747278    0.750661    11.00000    0.00971    0.01621 = 
         0.01436   -0.00591    0.00159    0.00185 
C7    1    0.154245    0.709590    0.858822    11.00000    0.01193    0.02846 = 
         0.01417   -0.00538    0.00142    0.00122 
AFIX  43 
H7A   2    0.083410    0.753191    0.894763    11.00000   -1.20000 
AFIX   0 
C8    1    0.197957    0.602273    0.898919    11.00000    0.01344    0.02548 = 
         0.01111   -0.00513    0.00443   -0.00289 
AFIX  43 
H8A   2    0.163039    0.555619    0.967862    11.00000   -1.20000 
AFIX   0 
C9    1    0.309327    0.569644    0.817413    11.00000    0.01659    0.02034 = 
         0.01070   -0.00244   -0.00281   -0.00417 
C10   1    0.378271    0.462102    0.826625    11.00000    0.01492    0.01642 = 
         0.01152    0.00143   -0.00519   -0.00396 
C11   1    0.485391    0.428243    0.746318    11.00000    0.01209    0.01679 = 
         0.01397   -0.00400   -0.00453    0.00158 
C12   1    0.547819    0.313462    0.752964    11.00000    0.01985    0.01119 = 
         0.01831    0.00071   -0.00529   -0.00086 
AFIX  43 
H12A  2    0.526588    0.250719    0.810727    11.00000   -1.20000 
AFIX   0 
C13   1    0.642144    0.312963    0.661020    11.00000    0.01673    0.01120 = 
         0.01804   -0.00307   -0.00633    0.00120 
AFIX  43 
H13A  2    0.698954    0.249781    0.641499    11.00000   -1.20000 
AFIX   0 
C14   1    0.639592    0.427938    0.597959    11.00000    0.01343    0.01382 = 
         0.01358   -0.00308   -0.00702    0.00058 
C15   1    0.720889    0.465591    0.498388    11.00000    0.00884    0.01423 = 
         0.01085   -0.00436   -0.00253    0.00510 
C16   1    0.700699    0.578560    0.433497    11.00000    0.00958    0.01456 = 
         0.01168   -0.00438   -0.00080    0.00085 
C17   1    0.596582    0.651513    0.421840    11.00000    0.00983    0.01466 = 
         0.01142   -0.00359   -0.00047    0.00120 
H17A  2    0.533542    0.637628    0.438448    11.00000    0.01543 
C18   1    0.620159    0.757728    0.356993    11.00000    0.01226    0.01286 = 
         0.01438   -0.00282    0.00236    0.00015 
C19   1    0.739642    0.743495    0.329883    11.00000    0.01543    0.01593 = 
         0.01880   -0.00386    0.00082   -0.00308 
AFIX  43 
H19A  2    0.781019    0.799730    0.285671    11.00000   -1.20000 
AFIX   0 
C20   1    0.541424    0.863632    0.336383    11.00000    0.01850    0.01222 = 
         0.01365    0.00027    0.00125   -0.00228 
C21   1    0.104747    0.933349    0.713784    11.00000    0.01759    0.01526 = 
         0.02062   -0.00290    0.00355    0.00570 
C22   1    0.012702    0.958323    0.673384    11.00000    0.01611    0.01669 = 
         0.03891   -0.00107   -0.00318   -0.00055 
AFIX  43 
H22A  2    0.017496    0.921148    0.622187    11.00000   -1.20000 
AFIX   0 
C23   1   -0.087627    1.037943    0.707200    11.00000    0.01530    0.02478 = 
         0.04796    0.00672    0.00038    0.00254 
AFIX  43 
H23A  2   -0.150394    1.054917    0.678725    11.00000   -1.20000 
AFIX   0 
C24   1   -0.095121    1.092101    0.782593    11.00000    0.03257    0.03557 = 
         0.03143   -0.00166    0.00921    0.01968 
AFIX  43 
H24A  2   -0.163393    1.145440    0.806601    11.00000   -1.20000 
AFIX   0 
C25   1   -0.003466    1.068120    0.822102    11.00000    0.07443    0.05381 = 
         0.04615   -0.03202   -0.01616    0.03396 
AFIX  43 
H25A  2   -0.008517    1.105703    0.873061    11.00000   -1.20000 
AFIX   0 
C26   1    0.097103    0.989310    0.788528    11.00000    0.03941    0.05003 = 
         0.03884   -0.02606   -0.01548    0.02223 
AFIX  43 
H26A  2    0.160120    0.973680    0.816252    11.00000   -1.20000 
AFIX   0 
C27   1    0.331224    0.373841    0.923319    11.00000    0.01632    0.01313 = 
         0.01058   -0.00019    0.00176   -0.00035 
C28   1    0.233715    0.344466    0.929959    11.00000    0.01769    0.02386 = 
         0.02466   -0.00677    0.00080   -0.00406 
AFIX  43 
H28A  2    0.196998    0.381454    0.873115    11.00000   -1.20000 
AFIX   0 
C29   1    0.189866    0.261004    1.019714    11.00000    0.02229    0.03147 = 
         0.03256   -0.01339    0.01135   -0.01173 
AFIX  43 
H29A  2    0.123463    0.241448    1.023688    11.00000   -1.20000 
AFIX   0 
C30   1    0.242399    0.207030    1.102342    11.00000    0.04745    0.02196 = 
         0.01829   -0.00569    0.01440   -0.01144 
AFIX  43 
H30A  2    0.212054    0.150672    1.163658    11.00000   -1.20000 
AFIX   0 
C31   1    0.338279    0.234670    1.095998    11.00000    0.04744    0.03269 = 
         0.02361    0.00962   -0.01226   -0.01009 
AFIX  43 
H31A  2    0.375212    0.196558    1.152575    11.00000   -1.20000 
AFIX   0 
C32   1    0.382404    0.318081    1.007511    11.00000    0.03086    0.03075 = 
         0.02081    0.00244   -0.00696   -0.00764 
AFIX  43 
H32A  2    0.448611    0.337033    1.004842    11.00000   -1.20000 
AFIX   0 
C33   1    0.832483    0.390235    0.456580    11.00000    0.01068    0.01175 = 
         0.01347   -0.00569   -0.00192    0.00376 
C34   1    0.898277    0.318859    0.526716    11.00000    0.01543    0.01598 = 
         0.02039   -0.00704   -0.00680    0.00279 
AFIX  43 
H34A  2    0.868861    0.314364    0.604568    11.00000   -1.20000 
AFIX   0 
C35   1    1.006827    0.253975    0.483824    11.00000    0.01869    0.01856 = 
         0.02886   -0.00637   -0.01249    0.00572 
AFIX  43 
H35A  2    1.050259    0.204371    0.532483    11.00000   -1.20000 
AFIX   0 
C36   1    1.050911    0.262201    0.370141    11.00000    0.01131    0.02293 = 
         0.03056   -0.01771   -0.00222    0.00509 
AFIX  43 
H36A  2    1.126342    0.220820    0.340252    11.00000   -1.20000 
AFIX   0 
C37   1    0.985473    0.330563    0.299704    11.00000    0.01976    0.02442 = 
         0.01788   -0.01431    0.00230    0.00059 
AFIX  43 
H37A  2    1.014968    0.333911    0.222094    11.00000   -1.20000 
AFIX   0 
C38   1    0.877325    0.393899    0.342214    11.00000    0.01012    0.02352 = 
         0.01733   -0.00965   -0.00258    0.00198 
AFIX  43 
H38A  2    0.832848    0.440437    0.293461    11.00000   -1.20000 
AFIX   0 
C39   1    0.584443    0.951436    0.236685    11.00000    0.01865    0.01050 = 
         0.02217   -0.00048    0.00014   -0.00114 
C40   1    0.633307    0.932958    0.132233    11.00000    0.04409    0.01761 = 
         0.02261   -0.00776    0.00957   -0.00827 
AFIX  43 
H40A  2    0.641395    0.862423    0.123499    11.00000   -1.20000 
AFIX   0 
C41   1    0.671106    1.015353    0.039175    11.00000    0.06521    0.02578 = 
         0.01869   -0.00584    0.01558   -0.01723 
AFIX  43 
H41A  2    0.703980    1.001369   -0.032782    11.00000   -1.20000 
AFIX   0 
C42   1    0.661071    1.117877    0.050845    11.00000    0.04541    0.01793 = 
         0.02304    0.00208    0.00540   -0.01288 
AFIX  43 
H42A  2    0.687021    1.174292   -0.013185    11.00000   -1.20000 
AFIX   0 
C43   1    0.613858    1.138545    0.154357    11.00000    0.03081    0.01470 = 
         0.03207   -0.00364   -0.00423   -0.00398 
AFIX  43 
H43A  2    0.607592    1.209085    0.161939    11.00000   -1.20000 
AFIX   0 
C44   1    0.575073    1.056611    0.248369    11.00000    0.02750    0.01981 = 
         0.01820   -0.00437   -0.00172   -0.00389 
AFIX  43 
H44A  2    0.542428    1.071003    0.320144    11.00000   -1.20000 
AFIX   0 
C45   1    0.903616    0.610036    0.381962    11.00000    0.01763    0.02849 = 
         0.02922   -0.01128   -0.00588   -0.00289 
AFIX  23 
H45A  2    0.912328    0.542357    0.443407    11.00000   -1.20000 
H45B  2    0.915761    0.670329    0.400590    11.00000   -1.20000 
AFIX   0 
C46   1    0.995167    0.589949    0.275177    11.00000    0.01829    0.02896 = 
         0.03512   -0.00887   -0.00870   -0.00422 
C47   1    1.194448    0.504412    0.205568    11.00000    0.02453    0.05181 = 
         0.03788   -0.01545    0.00008   -0.00277 
AFIX  23 
H47A  2    1.167957    0.488592    0.153500    11.00000   -1.20000 
H47B  2    1.247701    0.436423    0.234736    11.00000   -1.20000 
AFIX   0 
C48   1    1.256528    0.594761    0.144862    11.00000    0.04358    0.10033 = 
         0.05377   -0.03990    0.00782   -0.03523 
AFIX  33 
H48A  2    1.322982    0.572763    0.083042    11.00000   -1.50000 
H48B  2    1.204048    0.661723    0.115114    11.00000   -1.50000 
H48C  2    1.283669    0.609635    0.196224    11.00000   -1.50000 
  
AFIX   0 
HKLF 4 
  
REM  hgbr2622 in P-1 
REM R1 =  0.0551 for    8176 Fo > 4sig(Fo)  and  0.0641 for all    9165 data 
REM    509 parameters refined using      0 restraints 
  
END 
  
WGHT      0.0793     21.8963 
  
REM Highest difference peak  1.893,  deepest hole -5.569,  1-sigma level  0.238 
Q1    1   0.4851  0.9419  0.1204  11.00000  0.05    1.89 
Q2    1   1.0209  0.7197  0.2426  11.00000  0.05    1.40 
Q3    1   0.4765  0.6946  0.6839  11.00000  0.05    1.21 
Q4    1   0.3299  0.6401  0.6439  11.00000  0.05    1.14 
Q5    1   0.9413  0.7844  0.1085  11.00000  0.05    1.13 
Q6    1   0.8217  0.8158  0.2884  11.00000  0.05    1.10 
Q7    1   0.5988  0.7015  0.6412  11.00000  0.05    1.05 
Q8    1   0.5204  0.6776  0.5713  11.00000  0.05    0.99 
Q9    1   0.9384  0.7664  0.2014  11.00000  0.05    0.95 
Q10   1   0.8576  0.3965  0.3921  11.00000  0.05    0.89 
Q11   1   0.0577  0.9409  0.8188  11.00000  0.05    0.86 
Q12   1   0.4623  0.6167  0.7301  11.00000  0.05    0.84 
Q13   1   0.5660  0.7487  0.5401  11.00000  0.05    0.82 
Q14   1   0.5766  0.6340  0.7108  11.00000  0.05    0.78 
Q15   1   0.5794  0.7807  0.6509  11.00000  0.05    0.78 
Q16   1   0.6501  0.7790  0.6823  11.00000  0.05    0.77 
Q17   1   0.5753  0.7344  0.6324  11.00000  0.05    0.77 
Q18   1   1.1353  0.6594  0.1676  11.00000  0.05    0.76 
Q19   1   0.6404  0.8253  0.6393  11.00000  0.05    0.75 
Q20   1   0.3642  0.1828  1.2761  11.00000  0.05    0.73 
;
_shelx_res_checksum              87332
loop_
_space_group_symop_operation_xyz
'x, y, z'
'-x, -y, -z'
loop_
_atom_site_label
_atom_site_type_symbol
_atom_site_fract_x
_atom_site_fract_y
_atom_site_fract_z
_atom_site_U_iso_or_equiv
_atom_site_adp_type
_atom_site_occupancy
_atom_site_site_symmetry_order
_atom_site_calc_flag
_atom_site_refinement_flags_posn
_atom_site_refinement_flags_adp
Hg Hg 0.50320(2) 0.68722(2) 0.62820(2) 0.01946(10) Uani 1 1 d . .
Br Br 0.67272(11) 0.74058(12) 0.61545(12) 0.0635(3) Uani 1 1 d . .
O1 O 0.9810(5) 0.6198(6) 0.1854(5) 0.0401(14) Uani 1 1 d . .
O2 O 1.0954(5) 0.5350(5) 0.2978(5) 0.0366(13) Uani 1 1 d . .
N1 N 0.3907(4) 0.8248(4) 0.5163(4) 0.0161(10) Uani 1 1 d . .
N2 N 0.3292(4) 0.6609(4) 0.7296(4) 0.0149(10) Uani 1 1 d . .
N3 N 0.5413(4) 0.4945(4) 0.6535(4) 0.0125(9) Uani 1 1 d . .
N4 N 0.7871(5) 0.6395(5) 0.3751(5) 0.0194(11) Uani 1 1 d . .
C1 C 0.4313(6) 0.8882(5) 0.4095(5) 0.0182(12) Uani 1 1 d . .
C2 C 0.3436(6) 0.9883(5) 0.3896(6) 0.0244(14) Uani 1 1 d . .
H2A H 0.3486 1.0457 0.3223 0.029 Uiso 1 1 calc R U
C3 C 0.2541(6) 0.9852(5) 0.4836(6) 0.0257(15) Uani 1 1 d . .
H3A H 0.1840 1.0401 0.4958 0.031 Uiso 1 1 calc R U
C4 C 0.2847(5) 0.8820(5) 0.5633(6) 0.0181(12) Uani 1 1 d . .
C5 C 0.2135(5) 0.8502(5) 0.6758(5) 0.0180(12) Uani 1 1 d . .
C6 C 0.2345(5) 0.7473(5) 0.7507(5) 0.0158(12) Uani 1 1 d . .
C7 C 0.1542(6) 0.7096(6) 0.8588(5) 0.0215(13) Uani 1 1 d . .
H7A H 0.0834 0.7532 0.8948 0.026 Uiso 1 1 calc R U
C8 C 0.1980(5) 0.6023(6) 0.8989(5) 0.0196(13) Uani 1 1 d . .
H8A H 0.1630 0.5556 0.9679 0.024 Uiso 1 1 calc R U
C9 C 0.3093(5) 0.5696(5) 0.8174(5) 0.0168(12) Uani 1 1 d . .
C10 C 0.3783(5) 0.4621(5) 0.8266(5) 0.0153(11) Uani 1 1 d . .
C11 C 0.4854(5) 0.4282(5) 0.7463(5) 0.0154(11) Uani 1 1 d . .
C12 C 0.5478(6) 0.3135(5) 0.7530(5) 0.0186(12) Uani 1 1 d . .
H12A H 0.5266 0.2507 0.8107 0.022 Uiso 1 1 calc R U
C13 C 0.6421(5) 0.3130(5) 0.6610(5) 0.0164(12) Uani 1 1 d . .
H13A H 0.6990 0.2498 0.6415 0.020 Uiso 1 1 calc R U
C14 C 0.6396(5) 0.4279(5) 0.5980(5) 0.0138(11) Uani 1 1 d . .
C15 C 0.7209(5) 0.4656(5) 0.4984(5) 0.0132(11) Uani 1 1 d . .
C16 C 0.7007(5) 0.5786(5) 0.4335(5) 0.0134(11) Uani 1 1 d . .
C17 C 0.5966(5) 0.6515(5) 0.4218(5) 0.0139(11) Uani 1 1 d . .
H17A H 0.534(8) 0.638(7) 0.438(7) 0.015(19) Uiso 1 1 d . .
C18 C 0.6202(5) 0.7577(5) 0.3570(5) 0.0162(12) Uani 1 1 d . .
C19 C 0.7396(6) 0.7435(5) 0.3299(5) 0.0190(12) Uani 1 1 d . .
H19A H 0.7810 0.7997 0.2857 0.023 Uiso 1 1 calc R U
C20 C 0.5414(6) 0.8636(5) 0.3364(5) 0.0181(12) Uani 1 1 d . .
C21 C 0.1047(6) 0.9333(5) 0.7138(6) 0.0239(14) Uani 1 1 d . .
C22 C 0.0127(6) 0.9583(6) 0.6734(7) 0.0282(16) Uani 1 1 d . .
H22A H 0.0175 0.9211 0.6222 0.034 Uiso 1 1 calc R U
C23 C -0.0876(7) 1.0379(7) 0.7072(8) 0.039(2) Uani 1 1 d . .
H23A H -0.1504 1.0549 0.6787 0.047 Uiso 1 1 calc R U
C24 C -0.0951(8) 1.0921(8) 0.7826(8) 0.049(3) Uani 1 1 d . .
H24A H -0.1634 1.1454 0.8066 0.058 Uiso 1 1 calc R U
C25 C -0.0035(12) 1.0681(10) 0.8221(10) 0.067(4) Uani 1 1 d . .
H25A H -0.0085 1.1057 0.8731 0.080 Uiso 1 1 calc R U
C26 C 0.0971(9) 0.9893(8) 0.7885(8) 0.046(2) Uani 1 1 d . .
H26A H 0.1601 0.9737 0.8163 0.055 Uiso 1 1 calc R U
C27 C 0.3312(5) 0.3738(5) 0.9233(5) 0.0169(12) Uani 1 1 d . .
C28 C 0.2337(6) 0.3445(6) 0.9300(6) 0.0244(14) Uani 1 1 d . .
H28A H 0.1970 0.3815 0.8731 0.029 Uiso 1 1 calc R U
C29 C 0.1899(7) 0.2610(7) 1.0197(7) 0.0321(17) Uani 1 1 d . .
H29A H 0.1235 0.2414 1.0237 0.038 Uiso 1 1 calc R U
C30 C 0.2424(8) 0.2070(6) 1.1023(6) 0.036(2) Uani 1 1 d . .
H30A H 0.2121 0.1507 1.1637 0.043 Uiso 1 1 calc R U
C31 C 0.3383(8) 0.2347(7) 1.0960(7) 0.039(2) Uani 1 1 d . .
H31A H 0.3752 0.1966 1.1526 0.046 Uiso 1 1 calc R U
C32 C 0.3824(7) 0.3181(7) 1.0075(6) 0.0302(16) Uani 1 1 d . .
H32A H 0.4486 0.3370 1.0048 0.036 Uiso 1 1 calc R U
C33 C 0.8325(5) 0.3902(5) 0.4566(5) 0.0135(11) Uani 1 1 d . .
C34 C 0.8983(6) 0.3189(5) 0.5267(6) 0.0179(12) Uani 1 1 d . .
H34A H 0.8689 0.3144 0.6046 0.021 Uiso 1 1 calc R U
C35 C 1.0068(6) 0.2540(6) 0.4838(6) 0.0230(14) Uani 1 1 d . .
H35A H 1.0503 0.2044 0.5325 0.028 Uiso 1 1 calc R U
C36 C 1.0509(6) 0.2622(6) 0.3701(6) 0.0222(13) Uani 1 1 d . .
H36A H 1.1263 0.2208 0.3403 0.027 Uiso 1 1 calc R U
C37 C 0.9855(6) 0.3306(6) 0.2997(6) 0.0222(13) Uani 1 1 d . .
H37A H 1.0150 0.3339 0.2221 0.027 Uiso 1 1 calc R U
C38 C 0.8773(5) 0.3939(6) 0.3422(5) 0.0178(12) Uani 1 1 d . .
H38A H 0.8328 0.4404 0.2935 0.021 Uiso 1 1 calc R U
C39 C 0.5844(6) 0.9514(5) 0.2367(6) 0.0208(13) Uani 1 1 d . .
C40 C 0.6333(8) 0.9330(6) 0.1322(6) 0.0333(18) Uani 1 1 d . .
H40A H 0.6414 0.8624 0.1235 0.040 Uiso 1 1 calc R U
C41 C 0.6711(9) 1.0154(7) 0.0392(7) 0.044(2) Uani 1 1 d . .
H41A H 0.7040 1.0014 -0.0328 0.052 Uiso 1 1 calc R U
C42 C 0.6611(8) 1.1179(6) 0.0508(7) 0.0344(18) Uani 1 1 d . .
H42A H 0.6870 1.1743 -0.0132 0.041 Uiso 1 1 calc R U
C43 C 0.6139(7) 1.1385(6) 0.1544(7) 0.0286(16) Uani 1 1 d . .
H43A H 0.6076 1.2091 0.1619 0.034 Uiso 1 1 calc R U
C44 C 0.5751(6) 1.0566(6) 0.2484(6) 0.0241(14) Uani 1 1 d . .
H44A H 0.5424 1.0710 0.3201 0.029 Uiso 1 1 calc R U
C45 C 0.9036(6) 0.6100(6) 0.3820(6) 0.0250(14) Uani 1 1 d . .
H45A H 0.9123 0.5424 0.4434 0.030 Uiso 1 1 calc R U
H45B H 0.9158 0.6703 0.4006 0.030 Uiso 1 1 calc R U
C46 C 0.9952(6) 0.5899(6) 0.2752(7) 0.0274(15) Uani 1 1 d . .
C47 C 1.1944(7) 0.5044(8) 0.2056(8) 0.042(2) Uani 1 1 d . .
H47A H 1.1680 0.4886 0.1535 0.050 Uiso 1 1 calc R U
H47B H 1.2477 0.4364 0.2347 0.050 Uiso 1 1 calc R U
C48 C 1.2565(10) 0.5948(12) 0.1449(10) 0.062(3) Uani 1 1 d . .
H48A H 1.3230 0.5728 0.0830 0.093 Uiso 1 1 calc R U
H48B H 1.2040 0.6617 0.1151 0.093 Uiso 1 1 calc R U
H48C H 1.2837 0.6096 0.1962 0.093 Uiso 1 1 calc R U
loop_
_atom_site_aniso_label
_atom_site_aniso_U_11
_atom_site_aniso_U_22
_atom_site_aniso_U_33
_atom_site_aniso_U_23
_atom_site_aniso_U_13
_atom_site_aniso_U_12
Hg 0.01304(13) 0.01948(14) 0.02325(15) -0.00733(9) -0.00328(9) -0.00121(9)
Br 0.0491(6) 0.0795(8) 0.0760(8) -0.0375(7) -0.0129(6) -0.0206(6)
O1 0.026(3) 0.052(4) 0.034(3) -0.004(3) -0.007(2) -0.008(3)
O2 0.018(3) 0.048(4) 0.040(3) -0.017(3) -0.008(2) 0.002(2)
N1 0.012(2) 0.010(2) 0.016(2) -0.0019(19) 0.0015(19) 0.0013(18)
N2 0.010(2) 0.012(2) 0.016(2) -0.0026(19) 0.0001(19) 0.0003(18)
N3 0.010(2) 0.014(2) 0.009(2) -0.0025(18) -0.0010(18) 0.0006(18)
N4 0.012(2) 0.019(3) 0.024(3) -0.006(2) -0.004(2) -0.001(2)
C1 0.016(3) 0.014(3) 0.018(3) -0.001(2) -0.004(2) 0.000(2)
C2 0.021(3) 0.012(3) 0.025(3) 0.002(2) -0.001(3) 0.000(2)
C3 0.017(3) 0.012(3) 0.026(4) 0.001(3) 0.002(3) 0.007(2)
C4 0.014(3) 0.012(3) 0.021(3) -0.003(2) -0.002(2) 0.001(2)
C5 0.011(3) 0.013(3) 0.020(3) -0.006(2) 0.002(2) 0.003(2)
C6 0.010(3) 0.016(3) 0.014(3) -0.006(2) 0.002(2) 0.002(2)
C7 0.012(3) 0.028(3) 0.014(3) -0.005(3) 0.001(2) 0.001(2)
C8 0.013(3) 0.025(3) 0.011(3) -0.005(2) 0.004(2) -0.003(2)
C9 0.017(3) 0.020(3) 0.011(3) -0.002(2) -0.003(2) -0.004(2)
C10 0.015(3) 0.016(3) 0.012(3) 0.001(2) -0.005(2) -0.004(2)
C11 0.012(3) 0.017(3) 0.014(3) -0.004(2) -0.005(2) 0.002(2)
C12 0.020(3) 0.011(3) 0.018(3) 0.001(2) -0.005(2) -0.001(2)
C13 0.017(3) 0.011(3) 0.018(3) -0.003(2) -0.006(2) 0.001(2)
C14 0.013(3) 0.014(3) 0.014(3) -0.003(2) -0.007(2) 0.001(2)
C15 0.009(3) 0.014(3) 0.011(3) -0.004(2) -0.003(2) 0.005(2)
C16 0.010(3) 0.015(3) 0.012(3) -0.004(2) -0.001(2) 0.001(2)
C17 0.010(3) 0.015(3) 0.011(3) -0.004(2) 0.000(2) 0.001(2)
C18 0.012(3) 0.013(3) 0.014(3) -0.003(2) 0.002(2) 0.000(2)
C19 0.015(3) 0.016(3) 0.019(3) -0.004(2) 0.001(2) -0.003(2)
C20 0.018(3) 0.012(3) 0.014(3) 0.000(2) 0.001(2) -0.002(2)
C21 0.018(3) 0.015(3) 0.021(3) -0.003(2) 0.004(3) 0.006(2)
C22 0.016(3) 0.017(3) 0.039(4) -0.001(3) -0.003(3) -0.001(3)
C23 0.015(3) 0.025(4) 0.048(5) 0.007(3) 0.000(3) 0.003(3)
C24 0.033(5) 0.036(5) 0.031(4) -0.002(4) 0.009(4) 0.020(4)
C25 0.074(8) 0.054(6) 0.046(6) -0.032(5) -0.016(6) 0.034(6)
C26 0.039(5) 0.050(5) 0.039(5) -0.026(4) -0.015(4) 0.022(4)
C27 0.016(3) 0.013(3) 0.011(3) 0.000(2) 0.002(2) 0.000(2)
C28 0.018(3) 0.024(3) 0.025(3) -0.007(3) 0.001(3) -0.004(3)
C29 0.022(4) 0.031(4) 0.033(4) -0.013(3) 0.011(3) -0.012(3)
C30 0.047(5) 0.022(3) 0.018(3) -0.006(3) 0.014(3) -0.011(3)
C31 0.047(5) 0.033(4) 0.024(4) 0.010(3) -0.012(4) -0.010(4)
C32 0.031(4) 0.031(4) 0.021(3) 0.002(3) -0.007(3) -0.008(3)
C33 0.011(3) 0.012(3) 0.013(3) -0.006(2) -0.002(2) 0.004(2)
C34 0.015(3) 0.016(3) 0.020(3) -0.007(2) -0.007(2) 0.003(2)
C35 0.019(3) 0.019(3) 0.029(4) -0.006(3) -0.012(3) 0.006(2)
C36 0.011(3) 0.023(3) 0.031(4) -0.018(3) -0.002(3) 0.005(2)
C37 0.020(3) 0.024(3) 0.018(3) -0.014(3) 0.002(3) 0.001(3)
C38 0.010(3) 0.024(3) 0.017(3) -0.010(2) -0.003(2) 0.002(2)
C39 0.019(3) 0.011(3) 0.022(3) 0.000(2) 0.000(3) -0.001(2)
C40 0.044(5) 0.018(3) 0.023(4) -0.008(3) 0.010(3) -0.008(3)
C41 0.065(6) 0.026(4) 0.019(4) -0.006(3) 0.016(4) -0.017(4)
C42 0.045(5) 0.018(3) 0.023(4) 0.002(3) 0.005(3) -0.013(3)
C43 0.031(4) 0.015(3) 0.032(4) -0.004(3) -0.004(3) -0.004(3)
C44 0.028(4) 0.020(3) 0.018(3) -0.004(3) -0.002(3) -0.004(3)
C45 0.018(3) 0.028(4) 0.029(4) -0.011(3) -0.006(3) -0.003(3)
C46 0.018(3) 0.029(4) 0.035(4) -0.009(3) -0.009(3) -0.004(3)
C47 0.025(4) 0.052(5) 0.038(5) -0.015(4) 0.000(3) -0.003(4)
C48 0.044(6) 0.100(10) 0.054(6) -0.040(7) 0.008(5) -0.035(6)
loop_
_atom_type_symbol
_atom_type_description
_atom_type_scat_dispersion_real
_atom_type_scat_dispersion_imag
_atom_type_scat_source
C C 0.0033 0.0016 'International Tables Vol C Tables 4.2.6.8 and 6.1.1.4'
H H 0.0000 0.0000 'International Tables Vol C Tables 4.2.6.8 and 6.1.1.4'
N N 0.0061 0.0033 'International Tables Vol C Tables 4.2.6.8 and 6.1.1.4'
O O 0.0106 0.0060 'International Tables Vol C Tables 4.2.6.8 and 6.1.1.4'
Br Br -0.2901 2.4595 'International Tables Vol C Tables 4.2.6.8 and 6.1.1.4'
Hg Hg -2.3894 9.2266 'International Tables Vol C Tables 4.2.6.8 and 6.1.1.4'
loop_
_geom_angle_atom_site_label_1
_geom_angle_atom_site_label_2
_geom_angle_atom_site_label_3
_geom_angle
N2 Hg N3 80.98(18)
N2 Hg N1 79.43(18)
N3 Hg N1 125.41(18)
N2 Hg Br 147.08(15)
N3 Hg Br 110.95(13)
N1 Hg Br 113.00(13)
N2 Hg C17 119.8(2)
N3 Hg C17 73.37(17)
N1 Hg C17 73.48(18)
Br Hg C17 93.16(14)
C46 O2 C47 117.1(7)
C4 N1 C1 107.0(5)
C4 N1 Hg 121.1(4)
C1 N1 Hg 126.9(4)
C9 N2 C6 107.6(5)
C9 N2 Hg 123.3(4)
C6 N2 Hg 122.5(4)
C11 N3 C14 107.6(5)
C11 N3 Hg 122.5(4)
C14 N3 Hg 127.4(4)
C19 N4 C16 109.7(5)
C19 N4 C45 120.5(6)
C16 N4 C45 128.1(6)
N1 C1 C20 125.4(6)
N1 C1 C2 108.9(5)
C20 C1 C2 125.6(6)
C3 C2 C1 107.3(6)
C3 C2 H2A 126.3
C1 C2 H2A 126.3
C2 C3 C4 106.9(6)
C2 C3 H3A 126.5
C4 C3 H3A 126.5
N1 C4 C5 126.1(6)
N1 C4 C3 109.8(6)
C5 C4 C3 124.0(6)
C6 C5 C4 125.4(5)
C6 C5 C21 117.8(6)
C4 C5 C21 116.7(6)
N2 C6 C5 125.7(5)
N2 C6 C7 108.8(5)
C5 C6 C7 125.2(6)
C8 C7 C6 107.6(6)
C8 C7 H7A 126.2
C6 C7 H7A 126.2
C7 C8 C9 107.7(6)
C7 C8 H8A 126.1
C9 C8 H8A 126.1
N2 C9 C10 127.0(6)
N2 C9 C8 108.2(5)
C10 C9 C8 124.7(6)
C9 C10 C11 125.5(6)
C9 C10 C27 117.1(5)
C11 C10 C27 117.2(5)
N3 C11 C10 126.4(6)
N3 C11 C12 110.0(5)
C10 C11 C12 123.6(6)
C13 C12 C11 107.0(5)
C13 C12 H12A 126.5
C11 C12 H12A 126.5
C12 C13 C14 106.8(5)
C12 C13 H13A 126.6
C14 C13 H13A 126.6
N3 C14 C15 125.2(5)
N3 C14 C13 108.6(5)
C15 C14 C13 126.2(6)
C14 C15 C16 121.6(5)
C14 C15 C33 120.6(5)
C16 C15 C33 117.8(5)
N4 C16 C17 106.6(5)
N4 C16 C15 124.1(5)
C17 C16 C15 129.1(6)
C16 C17 C18 108.0(5)
C16 C17 Hg 99.1(4)
C18 C17 Hg 99.9(4)
C16 C17 H17A 129(6)
C18 C17 H17A 123(6)
Hg C17 H17A 81(6)
C19 C18 C17 105.7(5)
C19 C18 C20 123.8(6)
C17 C18 C20 129.8(6)
N4 C19 C18 110.1(6)
N4 C19 H19A 125.0
C18 C19 H19A 125.0
C1 C20 C18 122.4(6)
C1 C20 C39 119.6(6)
C18 C20 C39 117.8(6)
C22 C21 C26 119.2(7)
C22 C21 C5 120.9(7)
C26 C21 C5 119.9(7)
C21 C22 C23 120.6(8)
C21 C22 H22A 119.7
C23 C22 H22A 119.7
C24 C23 C22 119.8(9)
C24 C23 H23A 120.1
C22 C23 H23A 120.1
C25 C24 C23 119.7(8)
C25 C24 H24A 120.2
C23 C24 H24A 120.2
C24 C25 C26 121.0(11)
C24 C25 H25A 119.5
C26 C25 H25A 119.5
C21 C26 C25 119.7(10)
C21 C26 H26A 120.1
C25 C26 H26A 120.1
C32 C27 C28 118.2(6)
C32 C27 C10 121.8(6)
C28 C27 C10 120.0(6)
C27 C28 C29 120.3(7)
C27 C28 H28A 119.8
C29 C28 H28A 119.8
C30 C29 C28 120.2(8)
C30 C29 H29A 119.9
C28 C29 H29A 119.9
C31 C30 C29 119.8(7)
C31 C30 H30A 120.1
C29 C30 H30A 120.1
C30 C31 C32 120.6(8)
C30 C31 H31A 119.7
C32 C31 H31A 119.7
C31 C32 C27 120.9(8)
C31 C32 H32A 119.6
C27 C32 H32A 119.6
C34 C33 C38 118.4(5)
C34 C33 C15 121.9(5)
C38 C33 C15 119.7(5)
C33 C34 C35 120.7(6)
C33 C34 H34A 119.6
C35 C34 H34A 119.6
C36 C35 C34 119.7(6)
C36 C35 H35A 120.1
C34 C35 H35A 120.1
C37 C36 C35 120.3(6)
C37 C36 H36A 119.9
C35 C36 H36A 119.9
C36 C37 C38 120.1(6)
C36 C37 H37A 120.0
C38 C37 H37A 120.0
C37 C38 C33 120.7(6)
C37 C38 H38A 119.6
C33 C38 H38A 119.6
C40 C39 C44 118.6(6)
C40 C39 C20 121.1(6)
C44 C39 C20 120.3(6)
C39 C40 C41 121.1(7)
C39 C40 H40A 119.5
C41 C40 H40A 119.5
C42 C41 C40 120.1(7)
C42 C41 H41A 120.0
C40 C41 H41A 120.0
C41 C42 C43 120.3(7)
C41 C42 H42A 119.9
C43 C42 H42A 119.9
C42 C43 C44 120.2(7)
C42 C43 H43A 119.9
C44 C43 H43A 119.9
C43 C44 C39 119.7(7)
C43 C44 H44A 120.1
C39 C44 H44A 120.1
N4 C45 C46 113.1(6)
N4 C45 H45A 109.0
C46 C45 H45A 109.0
N4 C45 H45B 109.0
C46 C45 H45B 109.0
H45A C45 H45B 107.8
O1 C46 O2 126.0(7)
O1 C46 C45 125.5(7)
O2 C46 C45 108.6(7)
O2 C47 C48 110.5(8)
O2 C47 H47A 109.5
C48 C47 H47A 109.5
O2 C47 H47B 109.5
C48 C47 H47B 109.5
H47A C47 H47B 108.1
C47 C48 H48A 109.5
C47 C48 H48B 109.5
H48A C48 H48B 109.5
C47 C48 H48C 109.5
H48A C48 H48C 109.5
H48B C48 H48C 109.5
loop_
_geom_bond_atom_site_label_1
_geom_bond_atom_site_label_2
_geom_bond_distance
Hg N2 2.197(5)
Hg N3 2.360(5)
Hg N1 2.377(5)
Hg Br 2.4375(12)
Hg C17 2.701(6)
O1 C46 1.192(10)
O2 C46 1.342(9)
O2 C47 1.453(10)
N1 C4 1.347(8)
N1 C1 1.378(8)
N2 C9 1.374(8)
N2 C6 1.380(7)
N3 C11 1.343(8)
N3 C14 1.387(8)
N4 C19 1.333(8)
N4 C16 1.409(8)
N4 C45 1.448(9)
C1 C20 1.386(9)
C1 C2 1.444(9)
C2 C3 1.339(10)
C2 H2A 0.9500
C3 C4 1.450(9)
C3 H3A 0.9500
C4 C5 1.427(9)
C5 C6 1.393(9)
C5 C21 1.500(8)
C6 C7 1.449(8)
C7 C8 1.338(10)
C7 H7A 0.9500
C8 C9 1.465(8)
C8 H8A 0.9500
C9 C10 1.397(9)
C10 C11 1.429(9)
C10 C27 1.490(8)
C11 C12 1.454(8)
C12 C13 1.356(9)
C12 H12A 0.9500
C13 C14 1.457(8)
C13 H13A 0.9500
C14 C15 1.389(8)
C15 C16 1.437(8)
C15 C33 1.480(8)
C16 C17 1.393(8)
C17 C18 1.433(8)
C17 H17A 0.82(9)
C18 C19 1.398(9)
C18 C20 1.437(8)
C19 H19A 0.9500
C20 C39 1.488(8)
C21 C22 1.381(11)
C21 C26 1.401(12)
C22 C23 1.401(10)
C22 H22A 0.9500
C23 C24 1.391(16)
C23 H23A 0.9500
C24 C25 1.371(18)
C24 H24A 0.9500
C25 C26 1.395(12)
C25 H25A 0.9500
C26 H26A 0.9500
C27 C32 1.382(10)
C27 C28 1.396(10)
C28 C29 1.396(10)
C28 H28A 0.9500
C29 C30 1.374(13)
C29 H29A 0.9500
C30 C31 1.364(14)
C30 H30A 0.9500
C31 C32 1.390(11)
C31 H31A 0.9500
C32 H32A 0.9500
C33 C34 1.395(8)
C33 C38 1.403(9)
C34 C35 1.395(9)
C34 H34A 0.9500
C35 C36 1.383(10)
C35 H35A 0.9500
C36 C37 1.386(10)
C36 H36A 0.9500
C37 C38 1.382(9)
C37 H37A 0.9500
C38 H38A 0.9500
C39 C40 1.369(10)
C39 C44 1.418(9)
C40 C41 1.384(10)
C40 H40A 0.9500
C41 C42 1.381(11)
C41 H41A 0.9500
C42 C43 1.370(11)
C42 H42A 0.9500
C43 C44 1.390(10)
C43 H43A 0.9500
C44 H44A 0.9500
C45 C46 1.506(10)
C45 H45A 0.9900
C45 H45B 0.9900
C47 C48 1.480(15)
C47 H47A 0.9900
C47 H47B 0.9900
C48 H48A 0.9800
C48 H48B 0.9800
C48 H48C 0.9800
