#------------------------------------------------------------------------------
#$Date: 2019-11-07 23:25:16 +0200 (Thu, 07 Nov 2019) $
#$Revision: 224011 $
#$URL: file:///home/coder/svn-repositories/cod/cif/7/04/84/7048464.cif $
#------------------------------------------------------------------------------
#
# This file is available in the Crystallography Open Database (COD),
# http://www.crystallography.net/
#
# All data on this site have been placed in the public domain by the
# contributors.
#
data_7048464
loop_
_publ_author_name
'Volostnykh, Marina V.'
'Mikhaylov, Maxim A.'
'Sinelshchikova, Anna A.'
'Kirakosyan, Gayane A.'
'Martynov, Alexander G.'
'Grigoriev, Mikhail S.'
'Piryazev, Dmitry A.'
'Tsivadze, Aslan Yu'
'Sokolov, Maxim N.'
'Gorbunova, Yulia G.'
_publ_section_title
;
 Hybrid organic-inorganic supramolecular systems based on a pyridine
 end-decorated molybdenum(ii) halide cluster and zinc(ii) porphyrinate.
;
_journal_issue                   5
_journal_name_full
'Dalton transactions (Cambridge, England : 2003)'
_journal_page_first              1835
_journal_page_last               1842
_journal_paper_doi               10.1039/c8dt04452j
_journal_volume                  48
_journal_year                    2019
_chemical_formula_moiety
'C104 H72 I8 Mo6 N14 O12 Zn2, 4(C H2 Cl2), 2(C16 H36 N)'
_chemical_formula_sum            'C140 H152 Cl8 I8 Mo6 N16 O12 Zn2'
_chemical_formula_weight         4255.95
_space_group_crystal_system      monoclinic
_space_group_IT_number           14
_space_group_name_Hall           '-P 2ybc'
_space_group_name_H-M_alt        'P 1 21/c 1'
_symmetry_space_group_name_Hall  '-P 2ybc'
_symmetry_space_group_name_H-M   'P 1 21/c 1'
_atom_sites_solution_hydrogens   geom
_audit_creation_date             2018-04-18
_audit_creation_method
;
Olex2 1.2
(compiled 2018.04.03 svn.r3497 for OlexSys, GUI svn.r5486)
;
_audit_update_record
;
2018-12-17 deposited with the CCDC.
2019-01-03 downloaded from the CCDC.
;
_cell_angle_alpha                90
_cell_angle_beta                 91.286(3)
_cell_angle_gamma                90
_cell_formula_units_Z            2
_cell_length_a                   11.9029(7)
_cell_length_b                   21.0461(13)
_cell_length_c                   29.4339(19)
_cell_measurement_reflns_used    19856
_cell_measurement_temperature    100(2)
_cell_measurement_theta_max      27.605
_cell_measurement_theta_min      2.950
_cell_volume                     7371.6(8)
_computing_cell_refinement       'SAINT-Plus (Bruker, 1998)'
_computing_data_collection       'APEX2 (Bruker, 2006)'
_computing_data_reduction        'SAINT-Plus (Bruker, 1998)'
_computing_molecular_graphics    'Olex2 (Dolomanov et al., 2009)'
_computing_publication_material  'Olex2 (Dolomanov et al., 2009)'
_computing_structure_refinement  'XL (Sheldrick, 2008)'
_computing_structure_solution    'SHELXT 2014/5 (Sheldrick, 2014)'
_diffrn_ambient_temperature      100(2)
_diffrn_detector_area_resol_mean 7.9
_diffrn_detector_type            'CCD area detector'
_diffrn_measured_fraction_theta_full 0.995
_diffrn_measured_fraction_theta_max 0.995
_diffrn_measurement_device       'four-circle diffractometer'
_diffrn_measurement_device_type
'Bruker KAPPA APEX II area-detector diffractometer'
_diffrn_measurement_method       '\w and \f scans'
_diffrn_radiation_type           MoK\a
_diffrn_radiation_wavelength     0.71073
_diffrn_reflns_av_R_equivalents  0.0392
_diffrn_reflns_av_unetI/netI     0.0371
_diffrn_reflns_Laue_measured_fraction_full 0.995
_diffrn_reflns_Laue_measured_fraction_max 0.995
_diffrn_reflns_limit_h_max       14
_diffrn_reflns_limit_h_min       -15
_diffrn_reflns_limit_k_max       27
_diffrn_reflns_limit_k_min       -27
_diffrn_reflns_limit_l_max       37
_diffrn_reflns_limit_l_min       -38
_diffrn_reflns_number            66689
_diffrn_reflns_point_group_measured_fraction_full 0.995
_diffrn_reflns_point_group_measured_fraction_max 0.995
_diffrn_reflns_theta_full        25.242
_diffrn_reflns_theta_max         27.499
_diffrn_reflns_theta_min         4.082
_exptl_absorpt_coefficient_mu    2.697
_exptl_absorpt_correction_T_max  0.813
_exptl_absorpt_correction_T_min  0.687
_exptl_absorpt_correction_type   multi-scan
_exptl_absorpt_process_details   'SADABS (Bruker, 2008)'
_exptl_crystal_colour            'dark red'
_exptl_crystal_colour_modifier   dark
_exptl_crystal_colour_primary    red
_exptl_crystal_density_diffrn    1.917
_exptl_crystal_description       block
_exptl_crystal_F_000             4144
_exptl_crystal_size_max          0.4
_exptl_crystal_size_mid          0.2
_exptl_crystal_size_min          0.08
_refine_diff_density_max         3.137
_refine_diff_density_min         -1.981
_refine_diff_density_rms         0.131
_refine_ls_extinction_method     none
_refine_ls_goodness_of_fit_ref   1.021
_refine_ls_hydrogen_treatment    constr
_refine_ls_matrix_type           full
_refine_ls_number_parameters     871
_refine_ls_number_reflns         16876
_refine_ls_number_restraints     0
_refine_ls_restrained_S_all      1.021
_refine_ls_R_factor_all          0.0510
_refine_ls_R_factor_gt           0.0320
_refine_ls_shift/su_max          0.002
_refine_ls_shift/su_mean         0.000
_refine_ls_structure_factor_coef Fsqd
_refine_ls_weighting_details
'w=1/[\s^2^(Fo^2^)+(0.0260P)^2^+25.6363P] where P=(Fo^2^+2Fc^2^)/3'
_refine_ls_weighting_scheme      calc
_refine_ls_wR_factor_gt          0.0681
_refine_ls_wR_factor_ref         0.0777
_reflns_Friedel_coverage         0.000
_reflns_number_gt                13166
_reflns_number_total             16876
_reflns_threshold_expression     'I > 2\s(I)'
_cod_data_source_file            c8dt04452j2.cif
_cod_data_source_block           CP2
_cod_depositor_comments
'Adding full bibliography for 7048462--7048465.cif.'
_cod_database_code               7048464
_shelx_shelxl_version_number     2014/7
_shelx_space_group_comment
;
The symmetry employed for this shelxl refinement is uniquely defined
by the following loop, which should always be used as a source of
symmetry information in preference to the above space-group names.
They are only intended as comments.
;
_shelx_estimated_absorpt_t_max   0.813
_shelx_estimated_absorpt_t_min   0.412
_olex2_refinement_description
;
1. Fixed Uiso
 At 1.2 times of:
  All C(H) groups, All C(H,H) groups
 At 1.5 times of:
  All C(H,H,H) groups
2.a Secondary CH2 refined with riding coordinates:
 C1S(H1SA,H1SB), C2S(H2SA,H2SB), C41(H41A,H41B), C42(H42A,H42B), C43(H43A,
 H43B), C51(H51A,H51B), C52(H52A,H52B), C53(H53A,H53B), C61(H61A,H61B),
 C62(H62A,H62B), C63(H63A,H63B), C71(H71A,H71B), C72(H72A,H72B), C73(H73A,H73B)
2.b Aromatic/amide H refined with riding coordinates:
 C12(H12), C13(H13), C14(H14), C15(H15), C22(H22), C23(H23), C24(H24),
 C25(H25), C32(H32), C33(H33), C34(H34), C35(H35), C102(H102), C103(H103),
 C105(H105), C107(H107), C108(H108), C112(H112), C113(H113), C116(H116),
 C117(H117), C119(H119), C120(H120), C122(H122), C124(H124), C125(H125),
 C129(H129), C130(H130), C133(H133), C134(H134)
2.c Idealised Me refined as rotating group:
 C115(H11A,H11B,H11C), C132(H13A,H13B,H13C), C44(H44A,H44B,H44C), C54(H54A,
 H54B,H54C), C64(H64A,H64B,H64C), C74(H74A,H74B,H74C)
;
_shelx_res_file
;
    mo3.res created by SHELXL-2014/7

TITL CP2.res in P2(1)/c
REM Old TITL Mo3 in P2(1)/c
REM SHELXT solution in P2(1)/c
REM R1 0.100, Rweak 0.002, Alpha 0.034, Orientation as input
REM Formula found by SHELXT: C72 N9 O7 Zn Mo3 I4
CELL 0.71073 11.9029 21.0461 29.4339 90 91.286 90
ZERR 2 0.0007 0.0013 0.0019 0 0.003 0
LATT 1
SYMM -X,0.5+Y,0.5-Z
SFAC C H Cl I Mo N O Zn
UNIT 280 304 16 16 12 32 24 4

L.S. 8
PLAN  20
SIZE 0.4 0.2 0.08
TEMP -173(2)
MPLA 4 N12 N13 N14 N15 Zn1
BOND $H
list 4
fmap 2
acta
SHEL 5 0.5
OMIT -2 55
REM <olex2.extras>
REM <HklSrc "%.\\Mo3.hkl">
REM </olex2.extras>

WGHT    0.026000   25.636303
FVAR       0.13478
I1    4    0.882327    0.616710    0.563643    11.00000    0.02007    0.01662 =
         0.02127   -0.00319    0.00439    0.00211
I2    4    0.732940    0.458418    0.525697    11.00000    0.01734    0.02084 =
         0.02152   -0.00122    0.00538   -0.00255
I3    4    1.004833    0.361635    0.560524    11.00000    0.02667    0.01503 =
         0.02222    0.00556    0.00265    0.00034
I4    4    0.844003    0.480262    0.402845    11.00000    0.02090    0.02041 =
         0.01734   -0.00118   -0.00009    0.00080
MO1   5    0.868989    0.546522    0.483864    11.00000    0.01620    0.01274 =
         0.01612    0.00073    0.00199    0.00171
MO2   5    1.071248    0.575856    0.517972    11.00000    0.01676    0.01210 =
         0.01589    0.00038    0.00285   -0.00019
MO3   5    0.947241    0.489409    0.559445    11.00000    0.01684    0.01402 =
         0.01416    0.00119    0.00363   -0.00009
ZN1   8    0.362421    0.840670    0.374200    11.00000    0.01882    0.01586 =
         0.01742   -0.00058    0.00095    0.00117
O11   7    0.729841    0.606648    0.466703    11.00000    0.01901    0.02121 =
         0.02738    0.00236   -0.00104    0.00520
O12   7    0.588604    0.544541    0.441571    11.00000    0.03147    0.01853 =
         0.07791    0.00179   -0.01721    0.00133
O21   7    1.155052    0.661783    0.533541    11.00000    0.02580    0.01383 =
         0.02891   -0.00147    0.00714   -0.00342
O22   7    1.101874    0.688323    0.603657    11.00000    0.03416    0.03533 =
         0.02629   -0.00290    0.00563   -0.00988
O31   7    0.878170    0.477206    0.624272    11.00000    0.02437    0.02676 =
         0.01902    0.00027    0.00694    0.00017
O32   7    0.999140    0.439822    0.677706    11.00000    0.03357    0.04934 =
         0.03571    0.01507    0.00635    0.00691
N11   6    0.442462    0.762987    0.409985    11.00000    0.01957    0.01941 =
         0.01660    0.00103    0.00051    0.00289
N12   6    0.419109    0.809335    0.311505    11.00000    0.01897    0.01969 =
         0.02038   -0.00134    0.00296    0.00027
N13   6    0.206641    0.801793    0.358350    11.00000    0.01904    0.01843 =
         0.02041    0.00009   -0.00065   -0.00006
N14   6    0.282152    0.897130    0.421200    11.00000    0.02136    0.01955 =
         0.02020    0.00015    0.00226    0.00178
N15   6    0.493531    0.905589    0.373841    11.00000    0.01992    0.01838 =
         0.01928    0.00043    0.00151    0.00101
N21   6    1.349522    0.868586    0.557192    11.00000    0.03810    0.02586 =
         0.03291   -0.00257   -0.00006   -0.00691
N31   6    0.615348    0.427174    0.746704    11.00000    0.05457    0.03520 =
         0.04339   -0.00511    0.02898   -0.00836
C11   1    0.566077    0.656173    0.437073    11.00000    0.02070    0.01825 =
         0.02115    0.00163    0.00177    0.00316
C12   1    0.461066    0.650228    0.416586    11.00000    0.02235    0.01815 =
         0.02505    0.00240    0.00088   -0.00532
AFIX  43
H12   2    0.429940    0.609291    0.411151    11.00000   -1.20000
AFIX   0
C13   1    0.401683    0.703740    0.404075    11.00000    0.01696    0.02203 =
         0.02729    0.00088   -0.00117   -0.00493
AFIX  43
H13   2    0.328840    0.698730    0.390702    11.00000   -1.20000
AFIX   0
C14   1    0.544217    0.768291    0.429857    11.00000    0.02182    0.02039 =
         0.02303   -0.00176    0.00029    0.00135
AFIX  43
H14   2    0.574320    0.809694    0.434277    11.00000   -1.20000
AFIX   0
C15   1    0.607822    0.717165    0.444271    11.00000    0.01944    0.02235 =
         0.02769   -0.00184   -0.00409    0.00099
AFIX  43
H15   2    0.678946    0.723442    0.458871    11.00000   -1.20000
AFIX   0
C16   1    0.631831    0.596412    0.449492    11.00000    0.02817    0.01552 =
         0.02665    0.00233   -0.00157    0.00254
C21   1    1.223571    0.757195    0.563895    11.00000    0.02115    0.01944 =
         0.02461    0.00161   -0.00141    0.00141
C22   1    1.287041    0.769343    0.526093    11.00000    0.02908    0.02409 =
         0.02373   -0.00308   -0.00175    0.00148
AFIX  43
H22   2    1.288468    0.739975    0.501602    11.00000   -1.20000
AFIX   0
C23   1    1.348017    0.824724    0.524638    11.00000    0.03197    0.02752 =
         0.02391    0.00364    0.00160    0.00069
AFIX  43
H23   2    1.392040    0.832187    0.498647    11.00000   -1.20000
AFIX   0
C24   1    1.285780    0.856435    0.593366    11.00000    0.04445    0.02481 =
         0.03653   -0.00604    0.00979   -0.00460
AFIX  43
H24   2    1.283486    0.887503    0.616741    11.00000   -1.20000
AFIX   0
C25   1    1.224208    0.802315    0.598612    11.00000    0.03532    0.02987 =
         0.03405   -0.00672    0.01207   -0.00329
AFIX  43
H25   2    1.182644    0.795521    0.625359    11.00000   -1.20000
AFIX   0
C26   1    1.153088    0.697605    0.568289    11.00000    0.02381    0.02232 =
         0.02922    0.00197   -0.00059    0.00124
C31   1    0.804296    0.444432    0.692894    11.00000    0.03769    0.01908 =
         0.02331    0.00065    0.01133   -0.00086
C32   1    0.697677    0.441781    0.673843    11.00000    0.03642    0.03611 =
         0.03089   -0.00231    0.01145   -0.00888
AFIX  43
H32   2    0.686378    0.446420    0.641962    11.00000   -1.20000
AFIX   0
C33   1    0.606573    0.432200    0.701967    11.00000    0.04159    0.04774 =
         0.04626   -0.00647    0.02047   -0.01170
AFIX  43
H33   2    0.533837    0.429094    0.688190    11.00000   -1.20000
AFIX   0
C34   1    0.717871    0.430640    0.764882    11.00000    0.07823    0.02815 =
         0.02618   -0.00021    0.02136   -0.00387
AFIX  43
H34   2    0.726063    0.427584    0.796987    11.00000   -1.20000
AFIX   0
C35   1    0.814367    0.438508    0.739641    11.00000    0.05237    0.03347 =
         0.02316    0.00353    0.00840   -0.00315
AFIX  43
H35   2    0.886240    0.439796    0.754312    11.00000   -1.20000
AFIX   0
C36   1    0.905232    0.453962    0.663155    11.00000    0.03146    0.02443 =
         0.02397    0.00155    0.01046    0.00000
C101  1    0.524395    0.818105    0.294515    11.00000    0.02144    0.02280 =
         0.01792    0.00271    0.00563    0.00083
C102  1    0.543013    0.772682    0.258391    11.00000    0.02642    0.02164 =
         0.02438   -0.00287    0.00426    0.00462
AFIX  43
H102  2    0.609139    0.768633    0.241142    11.00000   -1.20000
AFIX   0
C103  1    0.448953    0.737247    0.253841    11.00000    0.03234    0.02285 =
         0.02247   -0.00587    0.00181   -0.00066
AFIX  43
H103  2    0.436414    0.703504    0.232897    11.00000   -1.20000
AFIX   0
C104  1    0.370478    0.760562    0.287103    11.00000    0.02710    0.01847 =
         0.01826    0.00100   -0.00064   -0.00091
C105  1    0.262207    0.737711    0.292749    11.00000    0.02788    0.01922 =
         0.01883   -0.00027    0.00011   -0.00491
AFIX  43
H105  2    0.238076    0.704958    0.272578    11.00000   -1.20000
AFIX   0
C106  1    0.184945    0.757556    0.324786    11.00000    0.02390    0.01944 =
         0.01804    0.00362   -0.00243   -0.00112
C107  1    0.072431    0.733545    0.328482    11.00000    0.02355    0.01964 =
         0.02491    0.00355   -0.00077   -0.00340
AFIX  43
H107  2    0.037094    0.702564    0.309537    11.00000   -1.20000
AFIX   0
C108  1    0.026611    0.763765    0.364297    11.00000    0.02124    0.02219 =
         0.02340    0.00798   -0.00272    0.00064
AFIX  43
H108  2   -0.047529    0.758187    0.374910    11.00000   -1.20000
AFIX   0
C109  1    0.110679    0.805846    0.383336    11.00000    0.01961    0.01950 =
         0.02052    0.00791   -0.00258    0.00420
C110  1    0.096862    0.843919    0.421902    11.00000    0.02164    0.02109 =
         0.01984    0.00555    0.00130    0.00487
C111  1   -0.010954    0.840286    0.447043    11.00000    0.02513    0.02071 =
         0.02294   -0.00030    0.00304    0.00139
C112  1   -0.108016    0.870202    0.431588    11.00000    0.02326    0.02533 =
         0.01996    0.00158    0.00071   -0.00083
AFIX  43
H112  2   -0.108649    0.890862    0.402887    11.00000   -1.20000
AFIX   0
C113  1   -0.204171    0.870597    0.457143    11.00000    0.02069    0.02690 =
         0.02930   -0.00259    0.00028   -0.00171
AFIX  43
H113  2   -0.269535    0.891699    0.445793    11.00000   -1.20000
AFIX   0
C114  1   -0.206550    0.840640    0.499088    11.00000    0.02806    0.03007 =
         0.03138   -0.00355    0.00839   -0.00510
C115  1   -0.310678    0.843193    0.527698    11.00000    0.03478    0.04938 =
         0.03282   -0.00744    0.01620   -0.00666
AFIX 137
H11A  2   -0.367973    0.869438    0.512352    11.00000   -1.50000
H11B  2   -0.291501    0.861694    0.557426    11.00000   -1.50000
H11C  2   -0.339920    0.800098    0.531824    11.00000   -1.50000
AFIX   0
C116  1   -0.111228    0.809167    0.514101    11.00000    0.04443    0.04550 =
         0.03256    0.01743    0.00996    0.00019
AFIX  43
H116  2   -0.111556    0.787348    0.542352    11.00000   -1.20000
AFIX   0
C117  1   -0.014730    0.808931    0.488480    11.00000    0.03618    0.03789 =
         0.03241    0.01363    0.00590    0.01054
AFIX  43
H117  2    0.049972    0.786890    0.499512    11.00000   -1.20000
AFIX   0
C118  1    0.176756    0.887769    0.438370    11.00000    0.02297    0.02332 =
         0.02369    0.00238    0.00116    0.00700
C119  1    0.158296    0.932825    0.474760    11.00000    0.02841    0.03155 =
         0.02596   -0.00216    0.00713    0.00799
AFIX  43
H119  2    0.093059    0.936105    0.492623    11.00000   -1.20000
AFIX   0
C120  1    0.251389    0.969161    0.478395    11.00000    0.03858    0.02534 =
         0.02364   -0.00531    0.00497    0.00631
AFIX  43
H120  2    0.263531    1.003162    0.499158    11.00000   -1.20000
AFIX   0
C121  1    0.328963    0.947060    0.445105    11.00000    0.02921    0.02164 =
         0.02032   -0.00117   -0.00083    0.00396
C122  1    0.434860    0.972656    0.437745    11.00000    0.03109    0.02039 =
         0.02091   -0.00514   -0.00215   -0.00028
AFIX  43
H122  2    0.458346    1.006190    0.457364    11.00000   -1.20000
AFIX   0
C123  1    0.510044    0.954192    0.404571    11.00000    0.02169    0.01749 =
         0.02250    0.00293   -0.00334    0.00272
C124  1    0.614282    0.985774    0.395944    11.00000    0.03198    0.01607 =
         0.02897   -0.00103   -0.00289   -0.00289
AFIX  43
H124  2    0.645100    1.020685    0.412452    11.00000   -1.20000
AFIX   0
C125  1    0.660641    0.956466    0.359799    11.00000    0.02449    0.02111 =
         0.02534    0.00320    0.00072   -0.00350
AFIX  43
H125  2    0.729647    0.967173    0.346115    11.00000   -1.20000
AFIX   0
C126  1    0.585143    0.905931    0.346105    11.00000    0.02218    0.01830 =
         0.01895    0.00364   -0.00127    0.00043
C127  1    0.601614    0.864543    0.309332    11.00000    0.01754    0.02020 =
         0.02078    0.00142   -0.00154    0.00247
C128  1    0.705401    0.872506    0.282147    11.00000    0.02441    0.02147 =
         0.02344    0.00150    0.00342   -0.00040
C129  1    0.811589    0.861156    0.301183    11.00000    0.02857    0.03320 =
         0.02207    0.00479    0.00006    0.00143
AFIX  43
H129  2    0.818610    0.847418    0.331860    11.00000   -1.20000
AFIX   0
C130  1    0.907806    0.869733    0.275708    11.00000    0.02300    0.03287 =
         0.02923    0.00635    0.00096    0.00169
AFIX  43
H130  2    0.979697    0.862448    0.289392    11.00000   -1.20000
AFIX   0
C131  1    0.899803    0.888807    0.230545    11.00000    0.02385    0.02587 =
         0.03054    0.00325    0.00376    0.00074
C132  1    1.002684    0.899923    0.202998    11.00000    0.02087    0.04428 =
         0.03918    0.00573    0.00530   -0.00070
AFIX 137
H13A  2    1.022076    0.945171    0.203767    11.00000   -1.50000
H13B  2    0.987674    0.886810    0.171496    11.00000   -1.50000
H13C  2    1.065423    0.875041    0.215760    11.00000   -1.50000
AFIX   0
C133  1    0.793739    0.898783    0.211244    11.00000    0.02351    0.02949 =
         0.02370    0.00771   -0.00023   -0.00205
AFIX  43
H133  2    0.786730    0.910613    0.180162    11.00000   -1.20000
AFIX   0
C134  1    0.697624    0.891698    0.236779    11.00000    0.02019    0.02815 =
         0.02381    0.00284   -0.00198   -0.00050
AFIX  43
H134  2    0.625953    0.900002    0.223212    11.00000   -1.20000
AFIX   0

CL1S  3    1.036322    0.828418    0.702613    11.00000    0.06149    0.04679 =
         0.04377   -0.00366    0.00389    0.00982
CL2S  3    0.855443    0.758338    0.657533    11.00000    0.06403    0.06023 =
         0.11767   -0.02591   -0.01430    0.01589
C1S   1    0.983930    0.754307    0.686734    11.00000    0.05176    0.04266 =
         0.06213    0.00563    0.01864    0.00899
AFIX  23
H1SA  2    1.039177    0.732920    0.667272    11.00000   -1.20000
H1SB  2    0.975110    0.728035    0.714325    11.00000   -1.20000
AFIX   0

CL3S  3    0.587850    0.583002    0.618951    11.00000    0.04162    0.13639 =
         0.03379    0.01955    0.00003    0.02007
CL4S  3    0.449837    0.649254    0.551712    11.00000    0.10138    0.05401 =
         0.06430   -0.01837   -0.03195    0.03470
C2S   1    0.537185    0.586631    0.562704    11.00000    0.06177    0.04491 =
         0.04603   -0.00469   -0.01641    0.00681
AFIX  23
H2SA  2    0.601932    0.589267    0.542256    11.00000   -1.20000
H2SB  2    0.496397    0.546746    0.555550    11.00000   -1.20000
AFIX   0

N41   6    1.289449    1.026659    0.289836    11.00000    0.02209    0.02518 =
         0.02310    0.00162    0.00142    0.00137
C41   1    1.205774    0.994032    0.320426    11.00000    0.02449    0.02439 =
         0.03333    0.00630    0.00321   -0.00004
AFIX  23
H41A  2    1.148950    0.972355    0.300851    11.00000   -1.20000
H41B  2    1.246299    0.960785    0.338049    11.00000   -1.20000
AFIX   0
C42   1    1.144542    1.036080    0.353551    11.00000    0.02939    0.03074 =
         0.02907    0.00391    0.00601   -0.00015
AFIX  23
H42A  2    1.127469    1.077517    0.339050    11.00000   -1.20000
H42B  2    1.193363    1.043980    0.380636    11.00000   -1.20000
AFIX   0
C43   1    1.035557    1.004773    0.368103    11.00000    0.02971    0.03613 =
         0.03693    0.00784    0.01098    0.00395
AFIX  23
H43A  2    0.984277    1.000473    0.341331    11.00000   -1.20000
H43B  2    1.052214    0.961596    0.379778    11.00000   -1.20000
AFIX   0
C44   1    0.977387    1.042890    0.404677    11.00000    0.04167    0.04284 =
         0.05217    0.01002    0.02276    0.01186
AFIX 137
H44A  2    0.963532    1.086213    0.393709    11.00000   -1.50000
H44B  2    1.025450    1.044345    0.432129    11.00000   -1.50000
H44C  2    0.905712    1.022659    0.411748    11.00000   -1.50000
AFIX   0
C51   1    1.380563    1.061334    0.317833    11.00000    0.02660    0.03278 =
         0.02491    0.00242   -0.00176   -0.00143
AFIX  23
H51A  2    1.395233    1.036411    0.345868    11.00000   -1.20000
H51B  2    1.450464    1.060719    0.300235    11.00000   -1.20000
AFIX   0
C52   1    1.358647    1.129286    0.331650    11.00000    0.03264    0.03242 =
         0.02941   -0.00019    0.00618   -0.00448
AFIX  23
H52A  2    1.290515    1.131522    0.350268    11.00000   -1.20000
H52B  2    1.346406    1.156029    0.304315    11.00000   -1.20000
AFIX   0
C53   1    1.460265    1.153176    0.358997    11.00000    0.04035    0.03923 =
         0.03029   -0.00062    0.00315   -0.01119
AFIX  23
H53A  2    1.528936    1.145898    0.341361    11.00000   -1.20000
H53B  2    1.467473    1.128422    0.387514    11.00000   -1.20000
AFIX   0
C54   1    1.451799    1.223681    0.370586    11.00000    0.06255    0.03963 =
         0.02860   -0.00337    0.00797   -0.01611
AFIX 137
H54A  2    1.450962    1.248702    0.342500    11.00000   -1.50000
H54B  2    1.516589    1.236141    0.389695    11.00000   -1.50000
H54C  2    1.382410    1.231468    0.387002    11.00000   -1.50000
AFIX   0
C61   1    1.352894    0.976019    0.263665    11.00000    0.02211    0.03006 =
         0.03082    0.00156    0.00265    0.00888
AFIX  23
H61A  2    1.406136    0.997777    0.243510    11.00000   -1.20000
H61B  2    1.398057    0.950774    0.285802    11.00000   -1.20000
AFIX   0
C62   1    1.283142    0.930560    0.235072    11.00000    0.02569    0.03103 =
         0.03144    0.00248    0.00216    0.00463
AFIX  23
H62A  2    1.226022    0.954420    0.217034    11.00000   -1.20000
H62B  2    1.243685    0.900332    0.254953    11.00000   -1.20000
AFIX   0
C63   1    1.360125    0.894344    0.203360    11.00000    0.02701    0.03748 =
         0.03506   -0.00019    0.00147    0.00994
AFIX  23
H63A  2    1.392666    0.924551    0.181482    11.00000   -1.20000
H63B  2    1.422833    0.875536    0.221471    11.00000   -1.20000
AFIX   0
C64   1    1.299608    0.842010    0.177303    11.00000    0.04331    0.04126 =
         0.03600   -0.00654   -0.00271    0.01015
AFIX 137
H64A  2    1.352191    0.821020    0.157011    11.00000   -1.50000
H64B  2    1.237333    0.860295    0.159311    11.00000   -1.50000
H64C  2    1.270156    0.810862    0.198733    11.00000   -1.50000
AFIX   0
C71   1    1.225255    1.070786    0.257559    11.00000    0.02152    0.02735 =
         0.02533    0.00231    0.00260    0.00304
AFIX  23
H71A  2    1.162016    1.046668    0.243560    11.00000   -1.20000
H71B  2    1.192573    1.105571    0.275650    11.00000   -1.20000
AFIX   0
C72   1    1.292603    1.100161    0.219788    11.00000    0.01973    0.03238 =
         0.02313    0.00015    0.00023    0.00051
AFIX  23
H72A  2    1.305506    1.068267    0.195739    11.00000   -1.20000
H72B  2    1.366564    1.114555    0.231917    11.00000   -1.20000
AFIX   0
C73   1    1.227074    1.156710    0.199986    11.00000    0.02677    0.03109 =
         0.02907    0.00227    0.00173    0.00177
AFIX  23
H73A  2    1.148984    1.143322    0.192726    11.00000   -1.20000
H73B  2    1.224138    1.190863    0.223058    11.00000   -1.20000
AFIX   0
C74   1    1.280124    1.182597    0.157267    11.00000    0.03595    0.03885 =
         0.02755    0.00693    0.00135    0.00177
AFIX 137
H74A  2    1.275811    1.150411    0.133230    11.00000   -1.50000
H74B  2    1.359016    1.193198    0.163795    11.00000   -1.50000
H74C  2    1.239734    1.220864    0.147246    11.00000   -1.50000
AFIX   0
HKLF 4

REM  CP2.res in P2(1)/c
REM R1 =  0.0320 for   13166 Fo > 4sig(Fo)  and  0.0510 for all   16876 data
REM    871 parameters refined using      0 restraints

END

WGHT      0.0259     25.6419

REM Highest difference peak  3.137,  deepest hole -1.981,  1-sigma level  0.131
Q1    1   0.5240  0.6438  0.5384  11.00000  0.05    3.14
Q2    1   0.9405  0.3573  0.5528  11.00000  0.05    1.78
Q3    1   0.6991  0.4673  0.5051  11.00000  0.05    1.47
Q4    1   0.9104  0.7980  0.6155  11.00000  0.05    1.45
Q5    1   0.9926  0.7923  0.7076  11.00000  0.05    1.34
Q6    1   0.4644  0.5943  0.5814  11.00000  0.05    1.07
Q7    1   0.9048  0.4945  0.4072  11.00000  0.05    0.98
Q8    1   0.9489  0.6165  0.5671  11.00000  0.05    0.87
Q9    1   1.0186  0.7032  0.5213  11.00000  0.05    0.86
Q10   1   0.9269  0.5593  0.4891  11.00000  0.05    0.82
Q11   1   0.8510  0.4411  0.3999  11.00000  0.05    0.79
Q12   1   1.0900  0.6455  0.5973  11.00000  0.05    0.78
Q13   1   0.9281  0.6470  0.5562  11.00000  0.05    0.76
Q14   1   1.1185  0.5743  0.5353  11.00000  0.05    0.71
Q15   1   1.2795  0.6087  0.5540  11.00000  0.05    0.71
Q16   1   0.9689  0.9423  0.1425  11.00000  0.05    0.71
Q17   1   0.8153  0.3977  0.6036  11.00000  0.05    0.70
Q18   1   0.8166  0.4866  0.3817  11.00000  0.05    0.69
Q19   1   1.1993  0.6731  0.4752  11.00000  0.05    0.67
Q20   1   1.0236  0.4315  0.6387  11.00000  0.05    0.67
;
_shelx_res_checksum              56033
_olex2_submission_special_instructions 'No special instructions were received'
loop_
_space_group_symop_operation_xyz
'x, y, z'
'-x, y+1/2, -z+1/2'
'-x, -y, -z'
'x, -y-1/2, z-1/2'
loop_
_atom_site_label
_atom_site_type_symbol
_atom_site_fract_x
_atom_site_fract_y
_atom_site_fract_z
_atom_site_U_iso_or_equiv
_atom_site_adp_type
_atom_site_occupancy
_atom_site_site_symmetry_order
_atom_site_calc_flag
_atom_site_refinement_flags_posn
I1 I 0.88233(2) 0.61671(2) 0.56364(2) 0.01926(6) Uani 1 1 d .
I2 I 0.73294(2) 0.45842(2) 0.52570(2) 0.01983(6) Uani 1 1 d .
I3 I 1.00483(2) 0.36163(2) 0.56052(2) 0.02128(6) Uani 1 1 d .
I4 I 0.84400(2) 0.48026(2) 0.40284(2) 0.01956(6) Uani 1 1 d .
Mo1 Mo 0.86899(3) 0.54652(2) 0.48386(2) 0.01500(7) Uani 1 1 d .
Mo2 Mo 1.07125(3) 0.57586(2) 0.51797(2) 0.01488(7) Uani 1 1 d .
Mo3 Mo 0.94724(3) 0.48941(2) 0.55944(2) 0.01496(7) Uani 1 1 d .
Zn1 Zn 0.36242(4) 0.84067(2) 0.37420(2) 0.01736(10) Uani 1 1 d .
O11 O 0.7298(2) 0.60665(14) 0.46670(10) 0.0226(6) Uani 1 1 d .
O12 O 0.5886(3) 0.54454(15) 0.44157(15) 0.0429(10) Uani 1 1 d .
O21 O 1.1551(2) 0.66178(13) 0.53354(10) 0.0227(6) Uani 1 1 d .
O22 O 1.1019(3) 0.68832(16) 0.60366(11) 0.0319(8) Uani 1 1 d .
O31 O 0.8782(2) 0.47721(14) 0.62427(10) 0.0233(6) Uani 1 1 d .
O32 O 0.9991(3) 0.43982(18) 0.67771(12) 0.0395(9) Uani 1 1 d .
N11 N 0.4425(3) 0.76299(16) 0.40998(11) 0.0185(7) Uani 1 1 d .
N12 N 0.4191(3) 0.80933(16) 0.31151(12) 0.0196(7) Uani 1 1 d .
N13 N 0.2066(3) 0.80179(16) 0.35835(12) 0.0193(7) Uani 1 1 d .
N14 N 0.2822(3) 0.89713(16) 0.42120(12) 0.0203(7) Uani 1 1 d .
N15 N 0.4935(3) 0.90559(16) 0.37384(12) 0.0192(7) Uani 1 1 d .
N21 N 1.3495(3) 0.86859(18) 0.55719(14) 0.0323(9) Uani 1 1 d .
N31 N 0.6153(4) 0.4272(2) 0.74670(16) 0.0440(12) Uani 1 1 d .
C11 C 0.5661(3) 0.65617(19) 0.43707(14) 0.0200(9) Uani 1 1 d .
C12 C 0.4611(3) 0.6502(2) 0.41659(15) 0.0218(9) Uani 1 1 d .
H12 H 0.4299 0.6093 0.4112 0.026 Uiso 1 1 calc R
C13 C 0.4017(3) 0.7037(2) 0.40407(15) 0.0221(9) Uani 1 1 d .
H13 H 0.3288 0.6987 0.3907 0.027 Uiso 1 1 calc R
C14 C 0.5442(3) 0.7683(2) 0.42986(15) 0.0217(9) Uani 1 1 d .
H14 H 0.5743 0.8097 0.4343 0.026 Uiso 1 1 calc R
C15 C 0.6078(4) 0.7172(2) 0.44427(15) 0.0232(9) Uani 1 1 d .
H15 H 0.6789 0.7234 0.4589 0.028 Uiso 1 1 calc R
C16 C 0.6318(4) 0.59641(19) 0.44949(15) 0.0235(9) Uani 1 1 d .
C21 C 1.2236(3) 0.7572(2) 0.56390(15) 0.0218(9) Uani 1 1 d .
C22 C 1.2870(4) 0.7693(2) 0.52609(16) 0.0257(9) Uani 1 1 d .
H22 H 1.2885 0.7400 0.5016 0.031 Uiso 1 1 calc R
C23 C 1.3480(4) 0.8247(2) 0.52464(16) 0.0278(10) Uani 1 1 d .
H23 H 1.3920 0.8322 0.4986 0.033 Uiso 1 1 calc R
C24 C 1.2858(4) 0.8564(2) 0.59337(18) 0.0351(12) Uani 1 1 d .
H24 H 1.2835 0.8875 0.6167 0.042 Uiso 1 1 calc R
C25 C 1.2242(4) 0.8023(2) 0.59861(17) 0.0329(11) Uani 1 1 d .
H25 H 1.1826 0.7955 0.6254 0.039 Uiso 1 1 calc R
C26 C 1.1531(4) 0.6976(2) 0.56829(16) 0.0251(9) Uani 1 1 d .
C31 C 0.8043(4) 0.4444(2) 0.69289(15) 0.0265(10) Uani 1 1 d .
C32 C 0.6977(4) 0.4418(2) 0.67384(18) 0.0343(11) Uani 1 1 d .
H32 H 0.6864 0.4464 0.6420 0.041 Uiso 1 1 calc R
C33 C 0.6066(5) 0.4322(3) 0.7020(2) 0.0449(14) Uani 1 1 d .
H33 H 0.5338 0.4291 0.6882 0.054 Uiso 1 1 calc R
C34 C 0.7179(6) 0.4306(2) 0.76488(18) 0.0439(15) Uani 1 1 d .
H34 H 0.7261 0.4276 0.7970 0.053 Uiso 1 1 calc R
C35 C 0.8144(5) 0.4385(2) 0.73964(17) 0.0362(12) Uani 1 1 d .
H35 H 0.8862 0.4398 0.7543 0.043 Uiso 1 1 calc R
C36 C 0.9052(4) 0.4540(2) 0.66315(16) 0.0265(10) Uani 1 1 d .
C101 C 0.5244(3) 0.8181(2) 0.29452(14) 0.0206(9) Uani 1 1 d .
C102 C 0.5430(4) 0.7727(2) 0.25839(15) 0.0241(9) Uani 1 1 d .
H102 H 0.6091 0.7686 0.2411 0.029 Uiso 1 1 calc R
C103 C 0.4490(4) 0.7372(2) 0.25384(15) 0.0259(10) Uani 1 1 d .
H103 H 0.4364 0.7035 0.2329 0.031 Uiso 1 1 calc R
C104 C 0.3705(4) 0.7606(2) 0.28710(14) 0.0213(9) Uani 1 1 d .
C105 C 0.2622(4) 0.7377(2) 0.29275(14) 0.0220(9) Uani 1 1 d .
H105 H 0.2381 0.7050 0.2726 0.026 Uiso 1 1 calc R
C106 C 0.1849(4) 0.75756(19) 0.32479(14) 0.0205(9) Uani 1 1 d .
C107 C 0.0724(4) 0.7335(2) 0.32848(15) 0.0227(9) Uani 1 1 d .
H107 H 0.0371 0.7026 0.3095 0.027 Uiso 1 1 calc R
C108 C 0.0266(4) 0.7638(2) 0.36430(15) 0.0223(9) Uani 1 1 d .
H108 H -0.0475 0.7582 0.3749 0.027 Uiso 1 1 calc R
C109 C 0.1107(3) 0.80585(19) 0.38334(14) 0.0199(9) Uani 1 1 d .
C110 C 0.0969(3) 0.8439(2) 0.42190(14) 0.0208(9) Uani 1 1 d .
C111 C -0.0110(4) 0.8403(2) 0.44704(15) 0.0229(9) Uani 1 1 d .
C112 C -0.1080(4) 0.8702(2) 0.43159(15) 0.0228(9) Uani 1 1 d .
H112 H -0.1086 0.8909 0.4029 0.027 Uiso 1 1 calc R
C113 C -0.2042(4) 0.8706(2) 0.45714(16) 0.0256(10) Uani 1 1 d .
H113 H -0.2695 0.8917 0.4458 0.031 Uiso 1 1 calc R
C114 C -0.2066(4) 0.8406(2) 0.49909(17) 0.0297(10) Uani 1 1 d .
C115 C -0.3107(4) 0.8432(3) 0.52770(18) 0.0388(13) Uani 1 1 d .
H11A H -0.3680 0.8694 0.5124 0.058 Uiso 1 1 calc GR
H11B H -0.2915 0.8617 0.5574 0.058 Uiso 1 1 calc GR
H11C H -0.3399 0.8001 0.5318 0.058 Uiso 1 1 calc GR
C116 C -0.1112(5) 0.8092(3) 0.51410(18) 0.0407(13) Uani 1 1 d .
H116 H -0.1116 0.7873 0.5424 0.049 Uiso 1 1 calc R
C117 C -0.0147(4) 0.8089(2) 0.48848(17) 0.0354(12) Uani 1 1 d .
H117 H 0.0500 0.7869 0.4995 0.042 Uiso 1 1 calc R
C118 C 0.1768(4) 0.8878(2) 0.43837(15) 0.0233(9) Uani 1 1 d .
C119 C 0.1583(4) 0.9328(2) 0.47476(16) 0.0285(10) Uani 1 1 d .
H119 H 0.0931 0.9361 0.4926 0.034 Uiso 1 1 calc R
C120 C 0.2514(4) 0.9692(2) 0.47839(16) 0.0291(10) Uani 1 1 d .
H120 H 0.2635 1.0032 0.4992 0.035 Uiso 1 1 calc R
C121 C 0.3290(4) 0.9471(2) 0.44510(15) 0.0237(9) Uani 1 1 d .
C122 C 0.4349(4) 0.9727(2) 0.43774(15) 0.0242(9) Uani 1 1 d .
H122 H 0.4583 1.0062 0.4574 0.029 Uiso 1 1 calc R
C123 C 0.5100(3) 0.95419(19) 0.40457(15) 0.0206(9) Uani 1 1 d .
C124 C 0.6143(4) 0.9858(2) 0.39594(16) 0.0257(10) Uani 1 1 d .
H124 H 0.6451 1.0207 0.4125 0.031 Uiso 1 1 calc R
C125 C 0.6606(4) 0.9565(2) 0.35980(15) 0.0236(9) Uani 1 1 d .
H125 H 0.7296 0.9672 0.3461 0.028 Uiso 1 1 calc R
C126 C 0.5851(3) 0.90593(19) 0.34611(14) 0.0198(8) Uani 1 1 d .
C127 C 0.6016(3) 0.86454(19) 0.30933(14) 0.0195(8) Uani 1 1 d .
C128 C 0.7054(4) 0.8725(2) 0.28215(15) 0.0231(9) Uani 1 1 d .
C129 C 0.8116(4) 0.8612(2) 0.30118(16) 0.0280(10) Uani 1 1 d .
H129 H 0.8186 0.8474 0.3319 0.034 Uiso 1 1 calc R
C130 C 0.9078(4) 0.8697(2) 0.27571(16) 0.0284(10) Uani 1 1 d .
H130 H 0.9797 0.8624 0.2894 0.034 Uiso 1 1 calc R
C131 C 0.8998(4) 0.8888(2) 0.23054(16) 0.0267(10) Uani 1 1 d .
C132 C 1.0027(4) 0.8999(3) 0.20300(18) 0.0347(11) Uani 1 1 d .
H13A H 1.0221 0.9452 0.2038 0.052 Uiso 1 1 calc GR
H13B H 0.9877 0.8868 0.1715 0.052 Uiso 1 1 calc GR
H13C H 1.0654 0.8750 0.2158 0.052 Uiso 1 1 calc GR
C133 C 0.7937(4) 0.8988(2) 0.21124(16) 0.0256(10) Uani 1 1 d .
H133 H 0.7867 0.9106 0.1802 0.031 Uiso 1 1 calc R
C134 C 0.6976(4) 0.8917(2) 0.23678(15) 0.0241(9) Uani 1 1 d .
H134 H 0.6260 0.9000 0.2232 0.029 Uiso 1 1 calc R
Cl1S Cl 1.03632(13) 0.82842(7) 0.70261(5) 0.0506(4) Uani 1 1 d .
Cl2S Cl 0.85544(16) 0.75834(9) 0.65753(8) 0.0809(6) Uani 1 1 d .
C1S C 0.9839(5) 0.7543(3) 0.6867(2) 0.0519(16) Uani 1 1 d .
H1SA H 1.0392 0.7329 0.6673 0.062 Uiso 1 1 calc R
H1SB H 0.9751 0.7280 0.7143 0.062 Uiso 1 1 calc R
Cl3S Cl 0.58785(13) 0.58300(11) 0.61895(5) 0.0706(6) Uani 1 1 d .
Cl4S Cl 0.44984(18) 0.64925(8) 0.55171(6) 0.0737(6) Uani 1 1 d .
C2S C 0.5372(6) 0.5866(3) 0.5627(2) 0.0512(15) Uani 1 1 d .
H2SA H 0.6019 0.5893 0.5423 0.061 Uiso 1 1 calc R
H2SB H 0.4964 0.5467 0.5555 0.061 Uiso 1 1 calc R
N41 N 1.2894(3) 1.02666(17) 0.28984(13) 0.0234(8) Uani 1 1 d .
C41 C 1.2058(4) 0.9940(2) 0.32043(16) 0.0274(10) Uani 1 1 d .
H41A H 1.1490 0.9724 0.3009 0.033 Uiso 1 1 calc R
H41B H 1.2463 0.9608 0.3380 0.033 Uiso 1 1 calc R
C42 C 1.1445(4) 1.0361(2) 0.35355(17) 0.0297(10) Uani 1 1 d .
H42A H 1.1275 1.0775 0.3390 0.036 Uiso 1 1 calc R
H42B H 1.1934 1.0440 0.3806 0.036 Uiso 1 1 calc R
C43 C 1.0356(4) 1.0048(2) 0.36810(18) 0.0341(11) Uani 1 1 d .
H43A H 0.9843 1.0005 0.3413 0.041 Uiso 1 1 calc R
H43B H 1.0522 0.9616 0.3798 0.041 Uiso 1 1 calc R
C44 C 0.9774(5) 1.0429(3) 0.4047(2) 0.0452(14) Uani 1 1 d .
H44A H 0.9635 1.0862 0.3937 0.068 Uiso 1 1 calc GR
H44B H 1.0254 1.0443 0.4321 0.068 Uiso 1 1 calc GR
H44C H 0.9057 1.0227 0.4117 0.068 Uiso 1 1 calc GR
C51 C 1.3806(4) 1.0613(2) 0.31783(16) 0.0281(10) Uani 1 1 d .
H51A H 1.3952 1.0364 0.3459 0.034 Uiso 1 1 calc R
H51B H 1.4505 1.0607 0.3002 0.034 Uiso 1 1 calc R
C52 C 1.3586(4) 1.1293(2) 0.33165(17) 0.0314(11) Uani 1 1 d .
H52A H 1.2905 1.1315 0.3503 0.038 Uiso 1 1 calc R
H52B H 1.3464 1.1560 0.3043 0.038 Uiso 1 1 calc R
C53 C 1.4603(4) 1.1532(2) 0.35900(18) 0.0366(12) Uani 1 1 d .
H53A H 1.5289 1.1459 0.3414 0.044 Uiso 1 1 calc R
H53B H 1.4675 1.1284 0.3875 0.044 Uiso 1 1 calc R
C54 C 1.4518(5) 1.2237(3) 0.37059(18) 0.0435(14) Uani 1 1 d .
H54A H 1.4510 1.2487 0.3425 0.065 Uiso 1 1 calc GR
H54B H 1.5166 1.2361 0.3897 0.065 Uiso 1 1 calc GR
H54C H 1.3824 1.2315 0.3870 0.065 Uiso 1 1 calc GR
C61 C 1.3529(4) 0.9760(2) 0.26366(16) 0.0276(10) Uani 1 1 d .
H61A H 1.4061 0.9978 0.2435 0.033 Uiso 1 1 calc R
H61B H 1.3981 0.9508 0.2858 0.033 Uiso 1 1 calc R
C62 C 1.2831(4) 0.9306(2) 0.23507(17) 0.0294(10) Uani 1 1 d .
H62A H 1.2260 0.9544 0.2170 0.035 Uiso 1 1 calc R
H62B H 1.2437 0.9003 0.2550 0.035 Uiso 1 1 calc R
C63 C 1.3601(4) 0.8943(2) 0.20336(17) 0.0332(11) Uani 1 1 d .
H63A H 1.3927 0.9246 0.1815 0.040 Uiso 1 1 calc R
H63B H 1.4228 0.8755 0.2215 0.040 Uiso 1 1 calc R
C64 C 1.2996(5) 0.8420(3) 0.17730(19) 0.0402(13) Uani 1 1 d .
H64A H 1.3522 0.8210 0.1570 0.060 Uiso 1 1 calc GR
H64B H 1.2373 0.8603 0.1593 0.060 Uiso 1 1 calc GR
H64C H 1.2702 0.8109 0.1987 0.060 Uiso 1 1 calc GR
C71 C 1.2253(4) 1.0708(2) 0.25756(15) 0.0247(9) Uani 1 1 d .
H71A H 1.1620 1.0467 0.2436 0.030 Uiso 1 1 calc R
H71B H 1.1926 1.1056 0.2756 0.030 Uiso 1 1 calc R
C72 C 1.2926(4) 1.1002(2) 0.21979(15) 0.0251(9) Uani 1 1 d .
H72A H 1.3055 1.0683 0.1957 0.030 Uiso 1 1 calc R
H72B H 1.3666 1.1146 0.2319 0.030 Uiso 1 1 calc R
C73 C 1.2271(4) 1.1567(2) 0.19999(16) 0.0290(10) Uani 1 1 d .
H73A H 1.1490 1.1433 0.1927 0.035 Uiso 1 1 calc R
H73B H 1.2241 1.1909 0.2231 0.035 Uiso 1 1 calc R
C74 C 1.2801(4) 1.1826(2) 0.15727(17) 0.0341(11) Uani 1 1 d .
H74A H 1.2758 1.1504 0.1332 0.051 Uiso 1 1 calc GR
H74B H 1.3590 1.1932 0.1638 0.051 Uiso 1 1 calc GR
H74C H 1.2397 1.2209 0.1472 0.051 Uiso 1 1 calc GR
loop_
_atom_site_aniso_label
_atom_site_aniso_U_11
_atom_site_aniso_U_22
_atom_site_aniso_U_33
_atom_site_aniso_U_23
_atom_site_aniso_U_13
_atom_site_aniso_U_12
I1 0.02007(13) 0.01662(12) 0.02127(14) -0.00319(10) 0.00439(10) 0.00211(10)
I2 0.01734(12) 0.02084(13) 0.02152(14) -0.00122(10) 0.00538(10) -0.00255(10)
I3 0.02667(14) 0.01503(12) 0.02222(14) 0.00556(10) 0.00265(11) 0.00034(10)
I4 0.02090(13) 0.02041(13) 0.01734(13) -0.00118(10) -0.00009(10) 0.00080(10)
Mo1 0.01620(16) 0.01274(15) 0.01612(17) 0.00073(13) 0.00199(13) 0.00171(12)
Mo2 0.01676(16) 0.01210(15) 0.01589(17) 0.00038(12) 0.00285(13) -0.00019(12)
Mo3 0.01684(16) 0.01402(16) 0.01416(17) 0.00119(13) 0.00363(13) -0.00009(12)
Zn1 0.0188(2) 0.0159(2) 0.0174(2) -0.00058(18) 0.00095(19) 0.00117(18)
O11 0.0190(14) 0.0212(15) 0.0274(17) 0.0024(13) -0.0010(12) 0.0052(12)
O12 0.0315(18) 0.0185(17) 0.078(3) 0.0018(17) -0.0172(19) 0.0013(14)
O21 0.0258(15) 0.0138(14) 0.0289(17) -0.0015(12) 0.0071(13) -0.0034(12)
O22 0.0342(18) 0.0353(19) 0.0263(18) -0.0029(14) 0.0056(14) -0.0099(15)
O31 0.0244(15) 0.0268(16) 0.0190(16) 0.0003(13) 0.0069(12) 0.0002(12)
O32 0.0336(19) 0.049(2) 0.036(2) 0.0151(17) 0.0063(16) 0.0069(16)
N11 0.0196(17) 0.0194(17) 0.0166(18) 0.0010(14) 0.0005(14) 0.0029(14)
N12 0.0190(17) 0.0197(17) 0.0204(18) -0.0013(14) 0.0030(14) 0.0003(14)
N13 0.0190(17) 0.0184(17) 0.0204(18) 0.0001(14) -0.0006(14) -0.0001(14)
N14 0.0214(17) 0.0195(18) 0.0202(18) 0.0002(14) 0.0023(15) 0.0018(14)
N15 0.0199(17) 0.0184(17) 0.0193(18) 0.0004(14) 0.0015(14) 0.0010(14)
N21 0.038(2) 0.026(2) 0.033(2) -0.0026(17) -0.0001(19) -0.0069(17)
N31 0.055(3) 0.035(2) 0.043(3) -0.005(2) 0.029(2) -0.008(2)
C11 0.021(2) 0.018(2) 0.021(2) 0.0016(16) 0.0018(17) 0.0032(16)
C12 0.022(2) 0.018(2) 0.025(2) 0.0024(17) 0.0009(18) -0.0053(16)
C13 0.017(2) 0.022(2) 0.027(2) 0.0009(18) -0.0012(17) -0.0049(16)
C14 0.022(2) 0.020(2) 0.023(2) -0.0018(17) 0.0003(18) 0.0014(17)
C15 0.019(2) 0.022(2) 0.028(2) -0.0018(18) -0.0041(18) 0.0010(17)
C16 0.028(2) 0.016(2) 0.027(2) 0.0023(17) -0.0016(19) 0.0025(17)
C21 0.021(2) 0.019(2) 0.025(2) 0.0016(17) -0.0014(17) 0.0014(16)
C22 0.029(2) 0.024(2) 0.024(2) -0.0031(18) -0.0018(19) 0.0015(18)
C23 0.032(2) 0.028(2) 0.024(2) 0.0036(19) 0.0016(19) 0.0007(19)
C24 0.044(3) 0.025(2) 0.037(3) -0.006(2) 0.010(2) -0.005(2)
C25 0.035(3) 0.030(3) 0.034(3) -0.007(2) 0.012(2) -0.003(2)
C26 0.024(2) 0.022(2) 0.029(3) 0.0020(19) -0.0006(19) 0.0012(17)
C31 0.038(3) 0.019(2) 0.023(2) 0.0007(18) 0.011(2) -0.0009(18)
C32 0.036(3) 0.036(3) 0.031(3) -0.002(2) 0.011(2) -0.009(2)
C33 0.042(3) 0.048(3) 0.046(3) -0.006(3) 0.020(3) -0.012(3)
C34 0.078(4) 0.028(3) 0.026(3) 0.000(2) 0.021(3) -0.004(3)
C35 0.052(3) 0.033(3) 0.023(3) 0.004(2) 0.008(2) -0.003(2)
C36 0.031(2) 0.024(2) 0.024(2) 0.0016(18) 0.010(2) 0.0000(19)
C101 0.021(2) 0.023(2) 0.018(2) 0.0027(17) 0.0056(17) 0.0008(16)
C102 0.026(2) 0.022(2) 0.024(2) -0.0029(18) 0.0043(18) 0.0046(17)
C103 0.032(2) 0.023(2) 0.022(2) -0.0059(18) 0.0018(19) -0.0007(18)
C104 0.027(2) 0.018(2) 0.018(2) 0.0010(16) -0.0006(18) -0.0009(17)
C105 0.028(2) 0.019(2) 0.019(2) -0.0003(17) 0.0001(18) -0.0049(17)
C106 0.024(2) 0.019(2) 0.018(2) 0.0036(16) -0.0024(17) -0.0011(17)
C107 0.024(2) 0.020(2) 0.025(2) 0.0035(17) -0.0008(18) -0.0034(17)
C108 0.021(2) 0.022(2) 0.023(2) 0.0080(17) -0.0027(17) 0.0006(17)
C109 0.020(2) 0.019(2) 0.021(2) 0.0079(17) -0.0026(17) 0.0042(16)
C110 0.022(2) 0.021(2) 0.020(2) 0.0055(17) 0.0013(17) 0.0049(16)
C111 0.025(2) 0.021(2) 0.023(2) -0.0003(17) 0.0030(18) 0.0014(17)
C112 0.023(2) 0.025(2) 0.020(2) 0.0016(17) 0.0007(17) -0.0008(17)
C113 0.021(2) 0.027(2) 0.029(2) -0.0026(19) 0.0003(19) -0.0017(18)
C114 0.028(2) 0.030(2) 0.031(3) -0.004(2) 0.008(2) -0.0051(19)
C115 0.035(3) 0.049(3) 0.033(3) -0.007(2) 0.016(2) -0.007(2)
C116 0.044(3) 0.045(3) 0.033(3) 0.017(2) 0.010(2) 0.000(2)
C117 0.036(3) 0.038(3) 0.032(3) 0.014(2) 0.006(2) 0.011(2)
C118 0.023(2) 0.023(2) 0.024(2) 0.0024(18) 0.0012(18) 0.0070(17)
C119 0.028(2) 0.032(3) 0.026(2) -0.002(2) 0.0071(19) 0.0080(19)
C120 0.039(3) 0.025(2) 0.024(2) -0.0053(19) 0.005(2) 0.006(2)
C121 0.029(2) 0.022(2) 0.020(2) -0.0012(17) -0.0008(18) 0.0040(18)
C122 0.031(2) 0.020(2) 0.021(2) -0.0051(17) -0.0021(19) -0.0003(18)
C123 0.022(2) 0.017(2) 0.023(2) 0.0029(17) -0.0033(17) 0.0027(16)
C124 0.032(2) 0.016(2) 0.029(2) -0.0010(18) -0.003(2) -0.0029(18)
C125 0.024(2) 0.021(2) 0.025(2) 0.0032(18) 0.0007(18) -0.0035(17)
C126 0.022(2) 0.018(2) 0.019(2) 0.0036(16) -0.0013(17) 0.0004(16)
C127 0.0175(19) 0.020(2) 0.021(2) 0.0014(16) -0.0015(16) 0.0025(16)
C128 0.024(2) 0.021(2) 0.023(2) 0.0015(17) 0.0034(18) -0.0004(17)
C129 0.029(2) 0.033(3) 0.022(2) 0.0048(19) 0.0001(19) 0.001(2)
C130 0.023(2) 0.033(3) 0.029(3) 0.006(2) 0.0010(19) 0.0017(19)
C131 0.024(2) 0.026(2) 0.031(3) 0.0032(19) 0.0038(19) 0.0007(18)
C132 0.021(2) 0.044(3) 0.039(3) 0.006(2) 0.005(2) -0.001(2)
C133 0.024(2) 0.029(2) 0.024(2) 0.0077(19) -0.0002(18) -0.0021(18)
C134 0.020(2) 0.028(2) 0.024(2) 0.0028(18) -0.0020(18) -0.0005(17)
Cl1S 0.0615(9) 0.0468(8) 0.0438(8) -0.0037(6) 0.0039(7) 0.0098(7)
Cl2S 0.0640(11) 0.0602(11) 0.1177(18) -0.0259(11) -0.0143(11) 0.0159(9)
C1S 0.052(4) 0.043(3) 0.062(4) 0.006(3) 0.019(3) 0.009(3)
Cl3S 0.0416(8) 0.1364(17) 0.0338(8) 0.0196(9) 0.0000(7) 0.0201(10)
Cl4S 0.1014(14) 0.0540(10) 0.0643(11) -0.0184(8) -0.0320(10) 0.0347(10)
C2S 0.062(4) 0.045(3) 0.046(4) -0.005(3) -0.016(3) 0.007(3)
N41 0.0221(18) 0.0252(19) 0.023(2) 0.0016(15) 0.0014(15) 0.0014(15)
C41 0.024(2) 0.024(2) 0.033(3) 0.0063(19) 0.003(2) 0.0000(18)
C42 0.029(2) 0.031(2) 0.029(3) 0.004(2) 0.006(2) -0.0001(19)
C43 0.030(3) 0.036(3) 0.037(3) 0.008(2) 0.011(2) 0.004(2)
C44 0.042(3) 0.043(3) 0.052(4) 0.010(3) 0.023(3) 0.012(2)
C51 0.027(2) 0.033(3) 0.025(2) 0.002(2) -0.0018(19) -0.0014(19)
C52 0.033(3) 0.032(3) 0.029(3) 0.000(2) 0.006(2) -0.004(2)
C53 0.040(3) 0.039(3) 0.030(3) -0.001(2) 0.003(2) -0.011(2)
C54 0.063(4) 0.040(3) 0.029(3) -0.003(2) 0.008(3) -0.016(3)
C61 0.022(2) 0.030(2) 0.031(3) 0.002(2) 0.0026(19) 0.0089(18)
C62 0.026(2) 0.031(2) 0.031(3) 0.002(2) 0.002(2) 0.0046(19)
C63 0.027(2) 0.037(3) 0.035(3) 0.000(2) 0.001(2) 0.010(2)
C64 0.043(3) 0.041(3) 0.036(3) -0.007(2) -0.003(2) 0.010(2)
C71 0.022(2) 0.027(2) 0.025(2) 0.0023(19) 0.0026(18) 0.0030(18)
C72 0.020(2) 0.032(2) 0.023(2) 0.0001(19) 0.0002(18) 0.0005(18)
C73 0.027(2) 0.031(2) 0.029(3) 0.002(2) 0.002(2) 0.0018(19)
C74 0.036(3) 0.039(3) 0.028(3) 0.007(2) 0.001(2) 0.002(2)
loop_
_atom_type_symbol
_atom_type_description
_atom_type_scat_dispersion_real
_atom_type_scat_dispersion_imag
_atom_type_scat_source
C C 0.0033 0.0016 'International Tables Vol C Tables 4.2.6.8 and 6.1.1.4'
H H 0.0000 0.0000 'International Tables Vol C Tables 4.2.6.8 and 6.1.1.4'
Cl Cl 0.1484 0.1585 'International Tables Vol C Tables 4.2.6.8 and 6.1.1.4'
I I -0.4742 1.8119 'International Tables Vol C Tables 4.2.6.8 and 6.1.1.4'
Mo Mo -1.6832 0.6857 'International Tables Vol C Tables 4.2.6.8 and 6.1.1.4'
N N 0.0061 0.0033 'International Tables Vol C Tables 4.2.6.8 and 6.1.1.4'
O O 0.0106 0.0060 'International Tables Vol C Tables 4.2.6.8 and 6.1.1.4'
Zn Zn 0.2839 1.4301 'International Tables Vol C Tables 4.2.6.8 and 6.1.1.4'
loop_
_geom_angle_atom_site_label_1
_geom_angle_atom_site_label_2
_geom_angle_atom_site_label_3
_geom_angle
_geom_angle_site_symmetry_1
_geom_angle_site_symmetry_3
Mo1 I1 Mo2 57.195(11) . .
Mo1 I1 Mo3 57.486(11) . .
Mo2 I1 Mo3 56.940(11) . .
Mo1 I2 Mo2 57.571(11) . 3_766
Mo1 I2 Mo3 57.541(11) . .
Mo2 I2 Mo3 57.116(12) 3_766 .
Mo1 I3 Mo2 56.918(12) 3_766 3_766
Mo3 I3 Mo1 57.237(11) . 3_766
Mo3 I3 Mo2 57.211(11) . 3_766
Mo1 I4 Mo2 57.525(12) . 3_766
Mo1 I4 Mo3 57.461(11) . 3_766
Mo3 I4 Mo2 57.151(11) 3_766 3_766
I1 Mo1 I3 90.359(13) . 3_766
I2 Mo1 I1 90.178(13) . .
I2 Mo1 I3 176.756(16) . 3_766
I2 Mo1 I4 89.607(13) . .
I4 Mo1 I1 176.596(16) . .
I4 Mo1 I3 89.667(13) . 3_766
Mo2 Mo1 I1 121.312(16) 3_766 .
Mo2 Mo1 I1 61.519(12) . .
Mo2 Mo1 I2 121.398(16) . .
Mo2 Mo1 I2 61.460(12) 3_766 .
Mo2 Mo1 I3 61.568(12) . 3_766
Mo2 Mo1 I3 120.779(15) 3_766 3_766
Mo2 Mo1 I4 121.332(15) . .
Mo2 Mo1 I4 61.410(12) 3_766 .
Mo2 Mo1 Mo2 89.556(14) . 3_766
Mo2 Mo1 Mo3 59.761(13) 3_766 .
Mo2 Mo1 Mo3 60.063(13) . 3_766
Mo2 Mo1 Mo3 59.708(13) . .
Mo3 Mo1 I1 121.570(16) 3_766 .
Mo3 Mo1 I1 61.561(12) . .
Mo3 Mo1 I2 121.134(15) 3_766 .
Mo3 Mo1 I2 61.697(12) . .
Mo3 Mo1 I3 121.274(16) . 3_766
Mo3 Mo1 I3 61.092(12) 3_766 3_766
Mo3 Mo1 I4 61.274(12) 3_766 .
Mo3 Mo1 I4 121.160(15) . .
Mo3 Mo1 Mo2 59.695(12) 3_766 3_766
Mo3 Mo1 Mo3 89.776(15) 3_766 .
O11 Mo1 I1 85.07(8) . .
O11 Mo1 I2 92.51(8) . .
O11 Mo1 I3 84.35(8) . 3_766
O11 Mo1 I4 91.54(8) . .
O11 Mo1 Mo2 129.95(8) . .
O11 Mo1 Mo2 140.48(8) . 3_766
O11 Mo1 Mo3 135.72(8) . .
O11 Mo1 Mo3 134.04(8) . 3_766
I1 Mo2 I2 176.483(16) . 3_766
I1 Mo2 I3 90.203(13) . 3_766
I1 Mo2 I4 90.470(13) . 3_766
I2 Mo2 I3 89.963(13) 3_766 3_766
I4 Mo2 I2 89.155(13) 3_766 3_766
I4 Mo2 I3 176.503(16) 3_766 3_766
Mo1 Mo2 I1 61.286(12) . .
Mo1 Mo2 I1 121.733(15) 3_766 .
Mo1 Mo2 I2 121.732(16) . 3_766
Mo1 Mo2 I2 60.969(11) 3_766 3_766
Mo1 Mo2 I3 121.257(16) 3_766 3_766
Mo1 Mo2 I3 61.514(12) . 3_766
Mo1 Mo2 I4 121.716(15) . 3_766
Mo1 Mo2 I4 61.062(12) 3_766 3_766
Mo1 Mo2 Mo1 90.445(14) . 3_766
Mo1 Mo2 Mo3 60.074(13) . 3_766
Mo3 Mo2 I1 61.720(12) . .
Mo3 Mo2 I1 121.348(16) 3_766 .
Mo3 Mo2 I2 61.663(12) 3_766 3_766
Mo3 Mo2 I2 120.968(15) . 3_766
Mo3 Mo2 I3 121.979(16) . 3_766
Mo3 Mo2 I3 61.076(12) 3_766 3_766
Mo3 Mo2 I4 121.256(15) 3_766 3_766
Mo3 Mo2 I4 61.256(12) . 3_766
Mo3 Mo2 Mo1 60.468(13) . .
Mo3 Mo2 Mo1 60.205(13) 3_766 3_766
Mo3 Mo2 Mo1 60.020(12) . 3_766
Mo3 Mo2 Mo3 90.219(14) . 3_766
O21 Mo2 I1 90.77(8) . .
O21 Mo2 I2 85.74(8) . 3_766
O21 Mo2 I3 85.35(8) . 3_766
O21 Mo2 I4 91.21(9) . 3_766
O21 Mo2 Mo1 134.85(8) . 3_766
O21 Mo2 Mo1 134.43(8) . .
O21 Mo2 Mo3 138.73(8) . .
O21 Mo2 Mo3 131.05(8) . 3_766
I1 Mo3 I2 89.335(13) . .
I3 Mo3 I1 176.308(15) . .
I3 Mo3 I2 90.067(13) . .
I4 Mo3 I1 90.447(13) 3_766 .
I4 Mo3 I2 177.230(15) 3_766 .
I4 Mo3 I3 89.975(13) 3_766 .
Mo1 Mo3 I1 121.620(15) 3_766 .
Mo1 Mo3 I1 60.953(12) . .
Mo1 Mo3 I2 121.078(16) 3_766 .
Mo1 Mo3 I2 60.762(12) . .
Mo1 Mo3 I3 61.670(11) 3_766 .
Mo1 Mo3 I3 121.722(16) . .
Mo1 Mo3 I4 61.263(12) 3_766 3_766
Mo1 Mo3 I4 121.410(15) . 3_766
Mo1 Mo3 Mo1 90.227(14) 3_766 .
Mo2 Mo3 I1 61.340(12) . .
Mo2 Mo3 I1 120.979(16) 3_766 .
Mo2 Mo3 I2 120.578(16) . .
Mo2 Mo3 I2 61.218(12) 3_766 .
Mo2 Mo3 I3 121.948(15) . .
Mo2 Mo3 I3 61.711(12) 3_766 .
Mo2 Mo3 I4 121.122(15) 3_766 3_766
Mo2 Mo3 I4 61.594(12) . 3_766
Mo2 Mo3 Mo1 60.287(12) . 3_766
Mo2 Mo3 Mo1 59.865(13) 3_766 3_766
Mo2 Mo3 Mo1 60.035(13) 3_766 .
Mo2 Mo3 Mo1 59.824(13) . .
Mo2 Mo3 Mo2 89.781(14) . 3_766
O31 Mo3 I1 87.88(8) . .
O31 Mo3 I2 85.52(8) . .
O31 Mo3 I3 88.45(8) . .
O31 Mo3 I4 91.71(8) . 3_766
O31 Mo3 Mo1 132.11(8) . .
O31 Mo3 Mo1 137.59(8) . 3_766
O31 Mo3 Mo2 136.93(8) . .
O31 Mo3 Mo2 133.15(8) . 3_766
N12 Zn1 N11 92.54(13) . .
N13 Zn1 N11 101.20(13) . .
N13 Zn1 N12 88.94(13) . .
N13 Zn1 N14 87.31(14) . .
N13 Zn1 N15 158.31(14) . .
N14 Zn1 N11 108.30(13) . .
N14 Zn1 N12 159.16(14) . .
N14 Zn1 N15 89.08(13) . .
N15 Zn1 N11 100.24(13) . .
N15 Zn1 N12 86.87(13) . .
C16 O11 Mo1 133.6(3) . .
C26 O21 Mo2 131.7(3) . .
C36 O31 Mo3 139.5(3) . .
C13 N11 Zn1 119.0(3) . .
C14 N11 Zn1 122.4(3) . .
C14 N11 C13 117.0(4) . .
C101 N12 Zn1 126.6(3) . .
C101 N12 C104 106.7(3) . .
C104 N12 Zn1 123.9(3) . .
C106 N13 Zn1 125.5(3) . .
C109 N13 Zn1 127.3(3) . .
C109 N13 C106 106.3(3) . .
C118 N14 Zn1 126.9(3) . .
C121 N14 Zn1 126.3(3) . .
C121 N14 C118 106.5(3) . .
C123 N15 Zn1 125.6(3) . .
C123 N15 C126 106.4(3) . .
C126 N15 Zn1 127.8(3) . .
C23 N21 C24 116.1(4) . .
C33 N31 C34 116.7(5) . .
C12 C11 C15 117.8(4) . .
C12 C11 C16 119.0(4) . .
C15 C11 C16 123.1(4) . .
C11 C12 H12 120.1 . .
C13 C12 C11 119.8(4) . .
C13 C12 H12 120.1 . .
N11 C13 C12 122.8(4) . .
N11 C13 H13 118.6 . .
C12 C13 H13 118.6 . .
N11 C14 H14 118.1 . .
N11 C14 C15 123.7(4) . .
C15 C14 H14 118.1 . .
C11 C15 H15 120.6 . .
C14 C15 C11 118.8(4) . .
C14 C15 H15 120.6 . .
O11 C16 C11 114.5(4) . .
O12 C16 O11 126.8(4) . .
O12 C16 C11 118.6(4) . .
C22 C21 C25 118.0(4) . .
C22 C21 C26 122.3(4) . .
C25 C21 C26 119.6(4) . .
C21 C22 H22 120.6 . .
C23 C22 C21 118.7(4) . .
C23 C22 H22 120.6 . .
N21 C23 C22 124.4(4) . .
N21 C23 H23 117.8 . .
C22 C23 H23 117.8 . .
N21 C24 H24 117.9 . .
N21 C24 C25 124.2(5) . .
C25 C24 H24 117.9 . .
C21 C25 H25 120.7 . .
C24 C25 C21 118.6(4) . .
C24 C25 H25 120.7 . .
O21 C26 C21 113.7(4) . .
O22 C26 O21 127.1(4) . .
O22 C26 C21 119.2(4) . .
C32 C31 C35 117.4(4) . .
C32 C31 C36 120.4(4) . .
C35 C31 C36 122.3(5) . .
C31 C32 H32 120.5 . .
C31 C32 C33 119.1(5) . .
C33 C32 H32 120.5 . .
N31 C33 C32 123.9(6) . .
N31 C33 H33 118.1 . .
C32 C33 H33 118.1 . .
N31 C34 H34 118.1 . .
N31 C34 C35 123.7(5) . .
C35 C34 H34 118.1 . .
C31 C35 C34 119.2(5) . .
C31 C35 H35 120.4 . .
C34 C35 H35 120.4 . .
O31 C36 C31 112.4(4) . .
O32 C36 O31 128.0(4) . .
O32 C36 C31 119.7(4) . .
N12 C101 C102 109.5(4) . .
N12 C101 C127 125.3(4) . .
C127 C101 C102 125.2(4) . .
C101 C102 H102 126.4 . .
C103 C102 C101 107.3(4) . .
C103 C102 H102 126.4 . .
C102 C103 H103 126.5 . .
C102 C103 C104 106.9(4) . .
C104 C103 H103 126.5 . .
N12 C104 C103 109.6(4) . .
N12 C104 C105 125.3(4) . .
C105 C104 C103 125.1(4) . .
C104 C105 H105 116.4 . .
C104 C105 C106 127.2(4) . .
C106 C105 H105 116.4 . .
N13 C106 C105 124.8(4) . .
N13 C106 C107 110.1(4) . .
C105 C106 C107 125.1(4) . .
C106 C107 H107 126.7 . .
C108 C107 C106 106.6(4) . .
C108 C107 H107 126.7 . .
C107 C108 H108 126.2 . .
C107 C108 C109 107.6(4) . .
C109 C108 H108 126.2 . .
N13 C109 C108 109.4(4) . .
N13 C109 C110 125.6(4) . .
C110 C109 C108 125.0(4) . .
C109 C110 C111 119.2(4) . .
C109 C110 C118 124.4(4) . .
C118 C110 C111 116.4(4) . .
C112 C111 C110 122.2(4) . .
C112 C111 C117 117.5(4) . .
C117 C111 C110 120.2(4) . .
C111 C112 H112 119.4 . .
C113 C112 C111 121.2(4) . .
C113 C112 H112 119.4 . .
C112 C113 H113 119.5 . .
C112 C113 C114 121.0(4) . .
C114 C113 H113 119.5 . .
C113 C114 C115 120.8(4) . .
C116 C114 C113 118.1(4) . .
C116 C114 C115 121.1(5) . .
C114 C115 H11A 109.5 . .
C114 C115 H11B 109.5 . .
C114 C115 H11C 109.5 . .
H11A C115 H11B 109.5 . .
H11A C115 H11C 109.5 . .
H11B C115 H11C 109.5 . .
C114 C116 H116 119.6 . .
C114 C116 C117 120.9(5) . .
C117 C116 H116 119.6 . .
C111 C117 H117 119.4 . .
C116 C117 C111 121.3(5) . .
C116 C117 H117 119.4 . .
N14 C118 C110 125.7(4) . .
N14 C118 C119 109.4(4) . .
C110 C118 C119 124.9(4) . .
C118 C119 H119 126.5 . .
C120 C119 C118 106.9(4) . .
C120 C119 H119 126.5 . .
C119 C120 H120 126.2 . .
C119 C120 C121 107.5(4) . .
C121 C120 H120 126.2 . .
N14 C121 C120 109.7(4) . .
N14 C121 C122 125.0(4) . .
C122 C121 C120 125.3(4) . .
C121 C122 H122 116.6 . .
C121 C122 C123 126.8(4) . .
C123 C122 H122 116.6 . .
N15 C123 C122 125.6(4) . .
N15 C123 C124 109.8(4) . .
C122 C123 C124 124.5(4) . .
C123 C124 H124 126.4 . .
C125 C124 C123 107.2(4) . .
C125 C124 H124 126.4 . .
C124 C125 H125 126.5 . .
C124 C125 C126 107.0(4) . .
C126 C125 H125 126.5 . .
N15 C126 C125 109.5(4) . .
N15 C126 C127 125.4(4) . .
C127 C126 C125 125.1(4) . .
C101 C127 C126 124.6(4) . .
C101 C127 C128 117.0(4) . .
C126 C127 C128 118.2(4) . .
C129 C128 C127 121.2(4) . .
C129 C128 C134 118.3(4) . .
C134 C128 C127 120.4(4) . .
C128 C129 H129 119.6 . .
C128 C129 C130 120.7(4) . .
C130 C129 H129 119.6 . .
C129 C130 H130 119.6 . .
C131 C130 C129 120.8(4) . .
C131 C130 H130 119.6 . .
C130 C131 C132 121.5(4) . .
C133 C131 C130 118.5(4) . .
C133 C131 C132 120.0(4) . .
C131 C132 H13A 109.5 . .
C131 C132 H13B 109.5 . .
C131 C132 H13C 109.5 . .
H13A C132 H13B 109.5 . .
H13A C132 H13C 109.5 . .
H13B C132 H13C 109.5 . .
C131 C133 H133 119.5 . .
C131 C133 C134 120.9(4) . .
C134 C133 H133 119.5 . .
C128 C134 H134 119.7 . .
C133 C134 C128 120.7(4) . .
C133 C134 H134 119.7 . .
Cl1S C1S H1SA 108.9 . .
Cl1S C1S H1SB 108.9 . .
Cl2S C1S Cl1S 113.3(3) . .
Cl2S C1S H1SA 108.9 . .
Cl2S C1S H1SB 108.9 . .
H1SA C1S H1SB 107.7 . .
Cl3S C2S H2SA 108.7 . .
Cl3S C2S H2SB 108.7 . .
Cl4S C2S Cl3S 114.1(4) . .
Cl4S C2S H2SA 108.7 . .
Cl4S C2S H2SB 108.7 . .
H2SA C2S H2SB 107.6 . .
C41 N41 C51 111.2(3) . .
C41 N41 C61 108.8(3) . .
C41 N41 C71 108.6(3) . .
C61 N41 C51 104.6(3) . .
C71 N41 C51 112.6(3) . .
C71 N41 C61 111.0(3) . .
N41 C41 H41A 108.1 . .
N41 C41 H41B 108.1 . .
H41A C41 H41B 107.3 . .
C42 C41 N41 116.6(4) . .
C42 C41 H41A 108.1 . .
C42 C41 H41B 108.1 . .
C41 C42 H42A 109.5 . .
C41 C42 H42B 109.5 . .
C41 C42 C43 110.7(4) . .
H42A C42 H42B 108.1 . .
C43 C42 H42A 109.5 . .
C43 C42 H42B 109.5 . .
C42 C43 H43A 109.2 . .
C42 C43 H43B 109.2 . .
H43A C43 H43B 107.9 . .
C44 C43 C42 112.0(4) . .
C44 C43 H43A 109.2 . .
C44 C43 H43B 109.2 . .
C43 C44 H44A 109.5 . .
C43 C44 H44B 109.5 . .
C43 C44 H44C 109.5 . .
H44A C44 H44B 109.5 . .
H44A C44 H44C 109.5 . .
H44B C44 H44C 109.5 . .
N41 C51 H51A 107.8 . .
N41 C51 H51B 107.8 . .
H51A C51 H51B 107.1 . .
C52 C51 N41 118.1(4) . .
C52 C51 H51A 107.8 . .
C52 C51 H51B 107.8 . .
C51 C52 H52A 110.0 . .
C51 C52 H52B 110.0 . .
C51 C52 C53 108.3(4) . .
H52A C52 H52B 108.4 . .
C53 C52 H52A 110.0 . .
C53 C52 H52B 110.0 . .
C52 C53 H53A 109.1 . .
C52 C53 H53B 109.1 . .
C52 C53 C54 112.5(5) . .
H53A C53 H53B 107.8 . .
C54 C53 H53A 109.1 . .
C54 C53 H53B 109.1 . .
C53 C54 H54A 109.5 . .
C53 C54 H54B 109.5 . .
C53 C54 H54C 109.5 . .
H54A C54 H54B 109.5 . .
H54A C54 H54C 109.5 . .
H54B C54 H54C 109.5 . .
N41 C61 H61A 108.1 . .
N41 C61 H61B 108.1 . .
H61A C61 H61B 107.3 . .
C62 C61 N41 116.9(4) . .
C62 C61 H61A 108.1 . .
C62 C61 H61B 108.1 . .
C61 C62 H62A 109.9 . .
C61 C62 H62B 109.9 . .
C61 C62 C63 109.1(4) . .
H62A C62 H62B 108.3 . .
C63 C62 H62A 109.9 . .
C63 C62 H62B 109.9 . .
C62 C63 H63A 109.0 . .
C62 C63 H63B 109.0 . .
H63A C63 H63B 107.8 . .
C64 C63 C62 112.8(4) . .
C64 C63 H63A 109.0 . .
C64 C63 H63B 109.0 . .
C63 C64 H64A 109.5 . .
C63 C64 H64B 109.5 . .
C63 C64 H64C 109.5 . .
H64A C64 H64B 109.5 . .
H64A C64 H64C 109.5 . .
H64B C64 H64C 109.5 . .
N41 C71 H71A 108.3 . .
N41 C71 H71B 108.3 . .
H71A C71 H71B 107.4 . .
C72 C71 N41 116.1(3) . .
C72 C71 H71A 108.3 . .
C72 C71 H71B 108.3 . .
C71 C72 H72A 109.9 . .
C71 C72 H72B 109.9 . .
C71 C72 C73 108.8(3) . .
H72A C72 H72B 108.3 . .
C73 C72 H72A 109.9 . .
C73 C72 H72B 109.9 . .
C72 C73 H73A 109.2 . .
C72 C73 H73B 109.2 . .
H73A C73 H73B 107.9 . .
C74 C73 C72 112.1(4) . .
C74 C73 H73A 109.2 . .
C74 C73 H73B 109.2 . .
C73 C74 H74A 109.5 . .
C73 C74 H74B 109.5 . .
C73 C74 H74C 109.5 . .
H74A C74 H74B 109.5 . .
H74A C74 H74C 109.5 . .
H74B C74 H74C 109.5 . .
loop_
_geom_bond_atom_site_label_1
_geom_bond_atom_site_label_2
_geom_bond_distance
_geom_bond_site_symmetry_2
I1 Mo1 2.7757(5) .
I1 Mo2 2.7819(4) .
I1 Mo3 2.7919(4) .
I2 Mo1 2.7688(4) .
I2 Mo2 2.7819(4) 3_766
I2 Mo3 2.7937(5) .
I3 Mo1 2.7904(4) 3_766
I3 Mo2 2.7919(5) 3_766
I3 Mo3 2.7752(4) .
I4 Mo1 2.7728(5) .
I4 Mo2 2.7820(5) 3_766
I4 Mo3 2.7730(5) 3_766
Mo1 I3 2.7904(4) 3_766
Mo1 Mo2 2.6729(5) 3_766
Mo1 Mo2 2.6602(5) .
Mo1 Mo3 2.6774(5) .
Mo1 Mo3 2.6658(5) 3_766
Mo1 O11 2.136(3) .
Mo2 I2 2.7820(4) 3_766
Mo2 I3 2.7918(5) 3_766
Mo2 I4 2.7820(5) 3_766
Mo2 Mo1 2.6730(5) 3_766
Mo2 Mo3 2.6570(5) .
Mo2 Mo3 2.6655(5) 3_766
Mo2 O21 2.111(3) .
Mo3 I4 2.7731(5) 3_766
Mo3 Mo1 2.6658(5) 3_766
Mo3 Mo2 2.6654(5) 3_766
Mo3 O31 2.110(3) .
Zn1 N11 2.155(3) .
Zn1 N12 2.086(3) .
Zn1 N13 2.070(3) .
Zn1 N14 2.073(3) .
Zn1 N15 2.074(3) .
O11 C16 1.280(5) .
O12 C16 1.227(5) .
O21 C26 1.271(5) .
O22 C26 1.234(5) .
O31 C36 1.279(5) .
O32 C36 1.225(6) .
N11 C13 1.348(5) .
N11 C14 1.338(5) .
N12 C101 1.372(5) .
N12 C104 1.373(5) .
N13 C106 1.378(5) .
N13 C109 1.375(5) .
N14 C118 1.377(5) .
N14 C121 1.376(6) .
N15 C123 1.377(5) .
N15 C126 1.377(5) .
N21 C23 1.330(6) .
N21 C24 1.346(6) .
N31 C33 1.323(7) .
N31 C34 1.323(8) .
C11 C12 1.381(6) .
C11 C15 1.391(6) .
C11 C16 1.522(6) .
C12 H12 0.9500 .
C12 C13 1.375(6) .
C13 H13 0.9500 .
C14 H14 0.9500 .
C14 C15 1.377(6) .
C15 H15 0.9500 .
C21 C22 1.383(6) .
C21 C25 1.395(6) .
C21 C26 1.516(6) .
C22 H22 0.9500 .
C22 C23 1.374(6) .
C23 H23 0.9500 .
C24 H24 0.9500 .
C24 C25 1.365(7) .
C25 H25 0.9500 .
C31 C32 1.377(7) .
C31 C35 1.384(7) .
C31 C36 1.516(6) .
C32 H32 0.9500 .
C32 C33 1.394(6) .
C33 H33 0.9500 .
C34 H34 0.9500 .
C34 C35 1.392(7) .
C35 H35 0.9500 .
C101 C102 1.451(6) .
C101 C127 1.404(6) .
C102 H102 0.9500 .
C102 C103 1.349(6) .
C103 H103 0.9500 .
C103 C104 1.454(6) .
C104 C105 1.389(6) .
C105 H105 0.9500 .
C105 C106 1.396(6) .
C106 C107 1.438(6) .
C107 H107 0.9500 .
C107 C108 1.356(6) .
C108 H108 0.9500 .
C108 C109 1.440(6) .
C109 C110 1.402(6) .
C110 C111 1.498(6) .
C110 C118 1.404(6) .
C111 C112 1.384(6) .
C111 C117 1.388(6) .
C112 H112 0.9500 .
C112 C113 1.384(6) .
C113 H113 0.9500 .
C113 C114 1.387(7) .
C114 C115 1.515(6) .
C114 C116 1.378(7) .
C115 H11A 0.9800 .
C115 H11B 0.9800 .
C115 H11C 0.9800 .
C116 H116 0.9500 .
C116 C117 1.388(7) .
C117 H117 0.9500 .
C118 C119 1.451(6) .
C119 H119 0.9500 .
C119 C120 1.349(7) .
C120 H120 0.9500 .
C120 C121 1.439(6) .
C121 C122 1.392(6) .
C122 H122 0.9500 .
C122 C123 1.394(6) .
C123 C124 1.435(6) .
C124 H124 0.9500 .
C124 C125 1.358(6) .
C125 H125 0.9500 .
C125 C126 1.444(6) .
C126 C127 1.406(6) .
C127 C128 1.496(6) .
C128 C129 1.392(6) .
C128 C134 1.396(6) .
C129 H129 0.9500 .
C129 C130 1.395(6) .
C130 H130 0.9500 .
C130 C131 1.390(6) .
C131 C132 1.502(6) .
C131 C133 1.389(6) .
C132 H13A 0.9800 .
C132 H13B 0.9800 .
C132 H13C 0.9800 .
C133 H133 0.9500 .
C133 C134 1.391(6) .
C134 H134 0.9500 .
Cl1S C1S 1.740(6) .
Cl2S C1S 1.740(7) .
C1S H1SA 0.9900 .
C1S H1SB 0.9900 .
Cl3S C2S 1.751(6) .
Cl4S C2S 1.705(6) .
C2S H2SA 0.9900 .
C2S H2SB 0.9900 .
N41 C41 1.521(5) .
N41 C51 1.532(6) .
N41 C61 1.525(5) .
N41 C71 1.522(6) .
C41 H41A 0.9900 .
C41 H41B 0.9900 .
C41 C42 1.516(6) .
C42 H42A 0.9900 .
C42 H42B 0.9900 .
C42 C43 1.525(6) .
C43 H43A 0.9900 .
C43 H43B 0.9900 .
C43 C44 1.522(7) .
C44 H44A 0.9800 .
C44 H44B 0.9800 .
C44 H44C 0.9800 .
C51 H51A 0.9900 .
C51 H51B 0.9900 .
C51 C52 1.511(6) .
C52 H52A 0.9900 .
C52 H52B 0.9900 .
C52 C53 1.523(7) .
C53 H53A 0.9900 .
C53 H53B 0.9900 .
C53 C54 1.526(7) .
C54 H54A 0.9800 .
C54 H54B 0.9800 .
C54 H54C 0.9800 .
C61 H61A 0.9900 .
C61 H61B 0.9900 .
C61 C62 1.510(7) .
C62 H62A 0.9900 .
C62 H62B 0.9900 .
C62 C63 1.527(6) .
C63 H63A 0.9900 .
C63 H63B 0.9900 .
C63 C64 1.515(7) .
C64 H64A 0.9800 .
C64 H64B 0.9800 .
C64 H64C 0.9800 .
C71 H71A 0.9900 .
C71 H71B 0.9900 .
C71 C72 1.517(6) .
C72 H72A 0.9900 .
C72 H72B 0.9900 .
C72 C73 1.531(6) .
C73 H73A 0.9900 .
C73 H73B 0.9900 .
C73 C74 1.521(6) .
C74 H74A 0.9800 .
C74 H74B 0.9800 .
C74 H74C 0.9800 .
