#------------------------------------------------------------------------------
#$Date: 2019-11-07 23:24:38 +0200 (Thu, 07 Nov 2019) $
#$Revision: 224008 $
#$URL: file:///home/coder/svn-repositories/cod/cif/7/04/84/7048471.cif $
#------------------------------------------------------------------------------
#
# This file is available in the Crystallography Open Database (COD),
# http://www.crystallography.net/
#
# All data on this site have been placed in the public domain by the
# contributors.
#
data_7048471
loop_
_publ_author_name
'Sun, Nana'
'Wang, Hailong'
'Liu, Tao'
'Qi, Dongdong'
'Jiang, Jianzhuang'
_publ_section_title
;
 Magnetic investigations over reversibly switched chiral
 (phthalocyaninato)(porphyrinato) dysprosium double-decker compounds.
;
_journal_issue                   5
_journal_name_full
'Dalton transactions (Cambridge, England : 2003)'
_journal_page_first              1586
_journal_page_last               1590
_journal_paper_doi               10.1039/c8dt04008g
_journal_volume                  48
_journal_year                    2019
_chemical_formula_sum            'C94 H34 Cl4 Dy0.5 N6 O2'
_chemical_formula_weight         1502.32
_space_group_crystal_system      orthorhombic
_space_group_IT_number           18
_space_group_name_Hall           'P 2 2ab'
_space_group_name_H-M_alt        'P 21 21 2'
_symmetry_space_group_name_Hall  'P 2 2ab'
_symmetry_space_group_name_H-M   'P 21 21 2'
_atom_sites_solution_hydrogens   geom
_audit_creation_method           SHELXL-2014/7
_audit_update_record
;
2018-08-15 deposited with the CCDC.
2019-01-03 downloaded from the CCDC.
;
_cell_angle_alpha                90
_cell_angle_beta                 90
_cell_angle_gamma                90
_cell_formula_units_Z            4
_cell_length_a                   21.7576(4)
_cell_length_b                   21.4063(5)
_cell_length_c                   15.2756(3)
_cell_measurement_reflns_used    9168
_cell_measurement_temperature    150
_cell_measurement_theta_max      24.9711
_cell_measurement_theta_min      2.9595
_cell_volume                     7114.6(3)
_computing_structure_refinement  'SHELXL-2014/7 (Sheldrick, 2014)'
_diffrn_ambient_temperature      150
_diffrn_measured_fraction_theta_full 0.997
_diffrn_measured_fraction_theta_max 0.997
_diffrn_measurement_device_type  'Xcalibur, Eos, Gemini'
_diffrn_radiation_type           MoK\a
_diffrn_radiation_wavelength     0.71073
_diffrn_reflns_av_R_equivalents  0.0387
_diffrn_reflns_av_unetI/netI     0.0672
_diffrn_reflns_Laue_measured_fraction_full 0.997
_diffrn_reflns_Laue_measured_fraction_max 0.997
_diffrn_reflns_limit_h_max       25
_diffrn_reflns_limit_h_min       -23
_diffrn_reflns_limit_k_max       25
_diffrn_reflns_limit_k_min       -17
_diffrn_reflns_limit_l_max       18
_diffrn_reflns_limit_l_min       -18
_diffrn_reflns_number            26608
_diffrn_reflns_point_group_measured_fraction_full 0.997
_diffrn_reflns_point_group_measured_fraction_max 0.997
_diffrn_reflns_theta_full        25.025
_diffrn_reflns_theta_max         25.025
_diffrn_reflns_theta_min         2.965
_exptl_absorpt_coefficient_mu    0.742
_exptl_crystal_colour            green
_exptl_crystal_density_diffrn    1.403
_exptl_crystal_description       block
_exptl_crystal_F_000             3028
_refine_diff_density_max         2.001
_refine_diff_density_min         -0.853
_refine_diff_density_rms         0.188
_refine_ls_abs_structure_details
;
 Flack x determined using 4057 quotients [(I+)-(I-)]/[(I+)+(I-)]
 (Parsons, Flack and Wagner, Acta Cryst. B69 (2013) 249-259).
;
_refine_ls_abs_structure_Flack   -0.001(5)
_refine_ls_extinction_method     none
_refine_ls_goodness_of_fit_ref   1.076
_refine_ls_hydrogen_treatment    constr
_refine_ls_matrix_type           full
_refine_ls_number_parameters     948
_refine_ls_number_reflns         12552
_refine_ls_number_restraints     342
_refine_ls_restrained_S_all      1.108
_refine_ls_R_factor_all          0.1000
_refine_ls_R_factor_gt           0.0853
_refine_ls_shift/su_max          0.000
_refine_ls_shift/su_mean         0.000
_refine_ls_structure_factor_coef Fsqd
_refine_ls_weighting_details
'w=1/[\s^2^(Fo^2^)+(0.1686P)^2^+18.6442P] where P=(Fo^2^+2Fc^2^)/3'
_refine_ls_weighting_scheme      calc
_refine_ls_wR_factor_gt          0.2307
_refine_ls_wR_factor_ref         0.2444
_reflns_Friedel_coverage         0.822
_reflns_Friedel_fraction_full    0.997
_reflns_Friedel_fraction_max     0.997
_reflns_number_gt                10669
_reflns_number_total             12552
_reflns_threshold_expression     'I > 2\s(I)'
_cod_data_source_file            c8dt04008g2.cif
_cod_data_source_block           shelx_CCDC2
_cod_depositor_comments
'Adding full bibliography for 7048469--7048471.cif.'
_cod_original_formula_sum        'C94 H34 Cl4 Dy0.50 N6 O2'
_cod_database_code               7048471
_shelx_shelxl_version_number     2014/7
_shelx_space_group_comment
;
The symmetry employed for this shelxl refinement is uniquely defined
by the following loop, which should always be used as a source of
symmetry information in preference to the above space-group names.
They are only intended as comments.
;
_shelx_res_file
;

    shelx.res created by SHELXL-2014/7

TITL aa in P21212 #18
CELL  0.71073  21.7576  21.4063  15.2756   90.000   90.000   90.000
ZERR     4.00   0.0004   0.0005   0.0003    0.000    0.000    0.000
LATT  -1
SYMM  - X, - Y,   Z
SYMM  1/2 + X, 1/2 - Y, - Z
SYMM  1/2 - X, 1/2 + Y, - Z
SFAC  C    H    O    DY   CL   N
UNIT  376 136 8 2 16 24
MERG   2
dfix 2.34 0.02 c61 c84 c62 c87 c84 c88 c87 c61 c88 c62
dfix 1.40 0.01 c61 c62 c62 c84 c87 c88 c88 c61
dfix 2.34 0.02 c77 c79 c78 c76_$1 c79 c77_$1 C76_$1 C77 C77_$1 C78
dfix 1.44 0.01 c77 C77_$1 C77_$1 C76_$1 C76_$1 C79
dfix 2.44 0.02 c63 c84 c64 c87 c84 c83_$1 C87 C85_$1 C83_$1 C63 C85_$1 C64
dfix 1.44 0.01 c63 c64 c64 c84 c84 c87 c87 c83_$1 C83_$1 C85_$1 C85_$1  c63
dfix 2.34 0.02 c68 c67 c69 c59 c67 c86 c59 c68 c86 c69
dfix 1.44 0.01 c68 c69 c69 c67  c67 c59 c59 c86 c86 c68
dfix 2.34 0.02 c84 c65 c64 c66 c65 c62 c66 c84 c62 c64
dfix 1.44 0.01 c62 c66 c66 c65 C65 c64 c64 c84 c84 c62
dfix 2.44 0.02 c59 c61 c60 c62 c61 c66 c62 c67 c66 c59 c67 c60
dfix 1.44 0.01 c60 c61 c61 c62 c62 c66 c66 c67 c67 c59 c59 c60
dfix 1.44 0.01 c65 c66 c66 c67 c67 c69 c69 c70 c70 c74 c74 c65
dfix 2.44 0.02 c65 c67 c66 c69 c67 c70 c69 c74 c70 c65 c74 c66
dfix 1.44 0.01 c63 c64 c64 c65 c65 c74 c74 c73 c73 c75 c75 c63
dfix 2.44 0.02 c63 c65 c64 c74 c65 c73 c74 c75 c73 c63 c75 c64
dfix 1.44 0.01 c80 c81 c81 c82 c82 c83 c83 c85 c85 c80
dfix 2.34 0.02 c80 c82 c81 c83 c82 c85 c83 c80 c85 c81
dfix 2.44 0.02 c72 c79 c78 c80 c79 c81 c80 c71 c81 c72 c71 c78
dfix 1.44 0.01 c78 c79 c79 c80 c80 c81 c81 c71
dfix 2.44 0.02 c72 c75 c73 c76 c75 c77 c76 c78 c77 c72 c78 c73
dfix 1.44 0.01 c73 c75 c77 c76 c75 c76 c77 c78 c78 c72
dfix 1.44 0.01 c70 c71 c71 c72 c72 c73 c73 c74 c74 c70
dfix 2.34 0.02 c70 c72 c71 c73 c72 c74 c73 c70 c74 c71
eqiv  $1   -x, 1-y, z
isor 0.005  c79 c80 c81 c88 c86  c62  C60 C61
isor 0.005  C63 C64 C65 C68 C71 C72 C73 C76
isor 0.005 C75  C83 C77 C66 C59 C82 C81
isor 0.005  C74 C80 C88 C85 C87 C44  C78 C84
isor 0.002 Cl4 C99 c94 c95 c96 C97 c98 Cl5
FMAP   2
PLAN   25
ACTA
BOND   $H
L.S.  40
WGHT    0.168600   18.644201
FVAR       1.61244
C1    1   -0.077090    0.620031    0.622603    11.00000    0.02135    0.02750 =
         0.02646   -0.00681   -0.00230    0.01451
C2    1   -0.136572    0.638169    0.653743    11.00000    0.02430    0.02511 =
         0.03064   -0.00123    0.00761    0.00049
AFIX  43
H2    2   -0.148081    0.678139    0.671082    11.00000   -1.20000
AFIX   0
C3    1   -0.172450    0.587907    0.653536    11.00000    0.01787    0.03147 =
         0.02617   -0.00568    0.00862    0.00227
AFIX  43
H3    2   -0.213543    0.586126    0.670106    11.00000   -1.20000
AFIX   0
C4    1   -0.135247    0.536629    0.622599    11.00000    0.00728    0.02391 =
         0.02621    0.00466    0.00496   -0.00329
C5    1   -0.156363    0.473973    0.619505    11.00000    0.01438    0.01838 =
         0.02102    0.00605   -0.00300    0.00304
C6    1   -0.118017    0.420369    0.609335    11.00000    0.01858    0.02456 =
         0.02098   -0.00381    0.00267    0.00374
C7    1   -0.139428    0.356619    0.611225    11.00000    0.01769    0.02769 =
         0.02747    0.00031    0.00511   -0.00390
AFIX  43
H7    2   -0.180095    0.343264    0.612258    11.00000   -1.20000
AFIX   0
C8    1   -0.088588    0.319999    0.611198    11.00000    0.02852    0.01939 =
         0.02635    0.00485    0.00022   -0.00119
AFIX  43
H8    2   -0.087810    0.276562    0.610647    11.00000   -1.20000
AFIX   0
C9    1   -0.036885    0.360187    0.612163    11.00000    0.01313    0.02893 =
         0.01083    0.00213    0.00239   -0.00418
C10   1   -0.025169    0.659795    0.620545    11.00000    0.02496    0.01688 =
         0.03184   -0.00631   -0.00026   -0.00209
C11   1   -0.265764    0.492341    0.578430    11.00000    0.02680    0.03077 =
         0.03067   -0.00275   -0.00020    0.00088
AFIX  43
H11   2   -0.252299    0.513611    0.528930    11.00000   -1.20000
AFIX   0
C12   1   -0.328686    0.489162    0.596308    11.00000    0.02280    0.03851 =
         0.06235   -0.00726   -0.01108   -0.00022
AFIX  43
H12   2   -0.357151    0.507883    0.559235    11.00000   -1.20000
AFIX   0
C13   1   -0.347368    0.457827    0.669699    11.00000    0.02940    0.02165 =
         0.08777    0.00107    0.00744   -0.01082
C14   1   -0.307206    0.427704    0.721615    11.00000    0.02849    0.02271 =
         0.06592    0.00913    0.01262   -0.00791
AFIX  43
H14   2   -0.321504    0.404496    0.768881    11.00000   -1.20000
AFIX   0
C15   1   -0.245369    0.430975    0.705345    11.00000    0.03670    0.02381 =
         0.03292    0.00452    0.00316    0.00470
AFIX  43
H15   2   -0.217903    0.410868    0.742523    11.00000   -1.20000
AFIX   0
C16   1   -0.223213    0.464431    0.633019    11.00000    0.01925    0.01757 =
         0.04119   -0.00465    0.00986   -0.00014
C17   1   -0.034657    0.726841    0.640259    11.00000    0.00794    0.02628 =
         0.03497    0.00100    0.00254   -0.00362
C18   1   -0.006338    0.753927    0.712493    11.00000    0.03098    0.02490 =
         0.04336   -0.01220   -0.00418    0.00640
AFIX  43
H18   2    0.016948    0.728930    0.749633    11.00000   -1.20000
AFIX   0
C19   1   -0.011891    0.818027    0.731004    11.00000    0.04396    0.02379 =
         0.05965   -0.00902   -0.00456   -0.00472
AFIX  43
H19   2    0.006865    0.835951    0.779604    11.00000   -1.20000
AFIX   0
C20   1   -0.046815    0.853213    0.673016    11.00000    0.02330    0.01656 =
         0.07274   -0.00733    0.00643   -0.00282
C21   1   -0.074722    0.828454    0.602752    11.00000    0.02444    0.02367 =
         0.05292    0.00276    0.00910    0.00273
AFIX  43
H21   2   -0.097328    0.853869    0.565317    11.00000   -1.20000
AFIX   0
C22   1   -0.069861    0.765088    0.585998    11.00000    0.02259    0.02817 =
         0.03504    0.00078   -0.00001    0.00522
AFIX  43
H22   2   -0.090228    0.747904    0.538194    11.00000   -1.20000
AFIX   0
C23   1    0.002765    0.361873    0.408544    11.00000    0.02612    0.01453 =
         0.02292   -0.00199   -0.00303   -0.00496
C24   1    0.044998    0.310347    0.384191    11.00000    0.01959    0.02212 =
         0.02663   -0.00499   -0.00580   -0.00193
C25   1    0.031170    0.249172    0.363564    11.00000    0.02580    0.02930 =
         0.05145   -0.01340   -0.00129   -0.00590
AFIX  43
H25   2   -0.008785    0.233871    0.366412    11.00000   -1.20000
AFIX   0
C26   1    0.080120    0.211750    0.338352    11.00000    0.03686    0.02434 =
         0.09484   -0.02502   -0.00474   -0.00129
AFIX  43
H26   2    0.073229    0.170158    0.323754    11.00000   -1.20000
AFIX   0
C27   1    0.140490    0.236326    0.334647    11.00000    0.02137    0.03684 =
         0.08779   -0.02577    0.00225    0.00902
AFIX  43
H27   2    0.172890    0.210466    0.318412    11.00000   -1.20000
AFIX   0
C28   1    0.152131    0.299038    0.355084    11.00000    0.01569    0.03254 =
         0.02957    0.00010   -0.00028   -0.00038
C29   1    0.104028    0.335943    0.381439    11.00000    0.03402    0.01963 =
         0.02132   -0.00267   -0.00850    0.00084
C30   1    0.097703    0.401336    0.407147    11.00000    0.02166    0.02128 =
         0.01949   -0.00047   -0.00319    0.00569
C31   1    0.136550    0.502355    0.405696    11.00000    0.01685    0.02621 =
         0.01845    0.00553   -0.00142   -0.01146
C32   1    0.187378    0.547969    0.383421    11.00000    0.01915    0.02894 =
         0.02533   -0.00136    0.00101   -0.00084
C33   1    0.247564    0.541402    0.360302    11.00000    0.02450    0.02219 =
         0.03293   -0.00306    0.00566   -0.00387
C34   1    0.282083    0.594783    0.339961    11.00000    0.02118    0.03870 =
         0.05724    0.00431    0.01625    0.00403
AFIX  43
H34   2    0.322568    0.590525    0.321367    11.00000   -1.20000
AFIX   0
C35   1    0.256402    0.653947    0.347309    11.00000    0.02946    0.02792 =
         0.08335    0.00238    0.01500   -0.01313
AFIX  43
H35   2    0.280919    0.689185    0.340336    11.00000   -1.20000
AFIX   0
C36   1    0.192729    0.660673    0.365465    11.00000    0.02631    0.02605 =
         0.04882    0.00176    0.00461    0.00206
AFIX  43
H36   2    0.173332    0.699366    0.363667    11.00000   -1.20000
AFIX   0
C37   1    0.161053    0.606411    0.386018    11.00000    0.01941    0.02038 =
         0.03758   -0.01061    0.00455   -0.01148
C38   1    0.095643    0.597037    0.407423    11.00000    0.01032    0.01688 =
         0.03054   -0.00349    0.00118   -0.00248
C39   1    0.292435    0.453219    0.284102    11.00000    0.01892    0.03060 =
         0.03603   -0.00755   -0.00050    0.00067
C40   1    0.291864    0.482331    0.204382    11.00000    0.04656    0.04922 =
         0.04111    0.00004    0.00768    0.01312
AFIX  43
H40   2    0.280795    0.524175    0.199960    11.00000   -1.20000
AFIX   0
C41   1    0.307903    0.448890    0.130599    11.00000    0.06558    0.05625 =
         0.02607    0.00600    0.01190    0.02370
AFIX  43
H41   2    0.305203    0.468295    0.076264    11.00000   -1.20000
AFIX   0
C42   1    0.328501    0.385573    0.134551    11.00000    0.08725    0.05711 =
         0.03251   -0.00031   -0.00737    0.00276
C43   1    0.342416    0.351094    0.060098    11.00000    0.14130    0.06815 =
         0.04802   -0.00702    0.01903    0.04802
AFIX  43
H43   2    0.338718    0.367499    0.003971    11.00000   -1.20000
AFIX   0
C44   1    0.361600    0.292347    0.074906    11.00000    0.10797    0.10461 =
         0.10139    0.00146    0.00448    0.01180
AFIX  43
H44   2    0.379337    0.271299    0.028020    11.00000   -1.20000
AFIX   0
C45   1    0.357396    0.259690    0.154565    11.00000    0.13381    0.05642 =
         0.02843   -0.01620    0.00006    0.04817
AFIX  43
H45   2    0.365077    0.217013    0.157759    11.00000   -1.20000
AFIX   0
C46   1    0.341783    0.292883    0.225907    11.00000    0.05928    0.05359 =
         0.04147   -0.01779   -0.00350    0.02903
AFIX  43
H46   2    0.340622    0.273001    0.280014    11.00000   -1.20000
AFIX   0
C47   1    0.326997    0.357474    0.221052    11.00000    0.03760    0.05489 =
         0.03816   -0.00592   -0.00528    0.02052
C48   1    0.308433    0.391055    0.295181    11.00000    0.01745    0.03845 =
         0.02314   -0.00296    0.00372    0.00652
C49   1    0.303799    0.361742    0.384236    11.00000    0.01799    0.02199 =
         0.02238   -0.00685    0.00057    0.00802
C50   1    0.251511    0.330568    0.405304    11.00000    0.02344    0.02298 =
         0.03596   -0.00761    0.00162    0.01645
C51   1    0.241318    0.306124    0.490008    11.00000    0.02656    0.03095 =
         0.04480   -0.00352    0.00424   -0.00071
AFIX  43
H51   2    0.205471    0.284138    0.502267    11.00000   -1.20000
AFIX   0
C52   1    0.284480    0.315009    0.553767    11.00000    0.03101    0.03076 =
         0.04366    0.00696    0.00012    0.00788
AFIX  43
H52   2    0.276988    0.300410    0.610106    11.00000   -1.20000
AFIX   0
C53   1    0.340201    0.345972    0.535450    11.00000    0.03141    0.03048 =
         0.03681   -0.00868   -0.00205    0.01447
C54   1    0.385264    0.355336    0.599412    11.00000    0.03663    0.04966 =
         0.03582    0.00149   -0.00099    0.02114
AFIX  43
H54   2    0.378469    0.340747    0.655935    11.00000   -1.20000
AFIX   0
C55   1    0.440007    0.385982    0.580345    11.00000    0.03727    0.04783 =
         0.06074   -0.02463   -0.02321    0.01194
AFIX  43
H55   2    0.469987    0.391011    0.623164    11.00000   -1.20000
AFIX   0
C56   1    0.449450    0.409607    0.493947    11.00000    0.02046    0.04302 =
         0.06975   -0.01620   -0.00141    0.00679
AFIX  43
H56   2    0.485881    0.430152    0.480342    11.00000   -1.20000
AFIX   0
C57   1    0.406055    0.402356    0.432178    11.00000    0.01827    0.03830 =
         0.04827   -0.01070   -0.00226    0.00815
AFIX  43
H57   2    0.412808    0.418963    0.376749    11.00000   -1.20000
AFIX   0
C58   1    0.350774    0.370462    0.448684    11.00000    0.02436    0.03004 =
         0.03101    0.00103   -0.00155    0.00538
C59   1    0.080498    0.519965    0.207604    11.00000    0.09684    0.09739 =
         0.08340   -0.00199   -0.01396   -0.00401
C60   1    0.028841    0.484475    0.236721    11.00000    0.14213    0.14804 =
         0.12799    0.00152   -0.00063    0.00372
C61   1    0.019729    0.421312    0.208102    11.00000    0.11033    0.10494 =
         0.09233    0.01874   -0.00528   -0.00520
C62   1    0.068643    0.391174    0.164122    11.00000    0.10508    0.09345 =
         0.09671    0.02101   -0.01530   -0.00228
C63   1    0.049504    0.356382   -0.062267    11.00000    0.09473    0.08628 =
         0.09899   -0.00335    0.01051    0.00715
C64   1    0.081001    0.357317    0.020178    11.00000    0.12831    0.12084 =
         0.13401   -0.00226   -0.00249    0.00356
C65   1    0.129411    0.399861    0.045072    11.00000    0.17520    0.17877 =
         0.17926    0.00226   -0.00188    0.00457
C66   1    0.119186    0.426264    0.130179    11.00000    0.11432    0.12012 =
         0.11971    0.00241   -0.01141    0.00775
C67   1    0.127051    0.489890    0.155619    11.00000    0.06969    0.14755 =
         0.07500    0.05516   -0.04225   -0.00284
C68   1    0.116391    0.591400    0.101050    11.00000    0.10639    0.10929 =
         0.10402   -0.00210   -0.01444   -0.01316
C69   1    0.148731    0.533180    0.089700    11.00000    0.04202    0.13753 =
         0.09174    0.02013   -0.04187   -0.02984
C70   1    0.161495    0.506728    0.006482    11.00000    0.04867    0.11294 =
         0.10795    0.00108   -0.00105   -0.02991
C71   1    0.144996    0.542329   -0.070428    11.00000    0.08864    0.10707 =
         0.09449   -0.00224    0.00161   -0.01209
C72   1    0.124095    0.501142   -0.137998    11.00000    0.09523    0.10333 =
         0.09651   -0.00309    0.01263   -0.00148
C73   1    0.122623    0.438272   -0.105090    11.00000    0.09432    0.10732 =
         0.09769   -0.00566    0.00676    0.00285
C74   1    0.149108    0.443346   -0.018998    11.00000    0.16344    0.16872 =
         0.17087    0.00087    0.00574   -0.00017
C75   1    0.073112    0.398299   -0.130028    11.00000    0.08812    0.08433 =
         0.07986   -0.01083    0.01314    0.01342
C76   1    0.022952    0.421078   -0.182868    11.00000    0.08317    0.08909 =
         0.07923   -0.01706    0.00857   -0.00549
C77   1    0.028456    0.483392   -0.215705    11.00000    0.08579    0.09014 =
         0.06381   -0.00237    0.00406   -0.00337
C78   1    0.075239    0.524414   -0.189114    11.00000    0.08240    0.08634 =
         0.06430    0.00437    0.01107   -0.01112
C79   1    0.043929    0.582406   -0.174626    11.00000    0.12776    0.12988 =
         0.12011    0.01662    0.00914   -0.00617
C80   1    0.067906    0.624751   -0.114911    11.00000    0.17253    0.16988 =
         0.17137    0.00476    0.00339   -0.00442
C81   1    0.117651    0.601843   -0.061538    11.00000    0.07044    0.07074 =
         0.08425    0.02132    0.00292   -0.02039
C82   1    0.104346    0.626201    0.022880    11.00000    0.10516    0.09580 =
         0.11156    0.00082   -0.00228   -0.00895
C83   1    0.047200    0.658968    0.018342    11.00000    0.09042    0.08162 =
         0.09870    0.00091   -0.00562   -0.00857
C84   1    0.046770    0.348526    0.099612    11.00000    0.14057    0.13150 =
         0.13968    0.00781   -0.00108    0.00622
C85   1    0.016863    0.651191   -0.064227    11.00000    0.08157    0.06516 =
         0.08339    0.00905    0.00452   -0.00776
C86   1    0.075323    0.583469    0.175952    11.00000    0.13298    0.13491 =
         0.13241   -0.01401   -0.01205   -0.00202
C87   1   -0.019024    0.353150    0.100543    11.00000    0.10686    0.09745 =
         0.10530    0.01440    0.00468   -0.00954
C88   1   -0.033905    0.390182    0.175700    11.00000    0.18642    0.18343 =
         0.18117    0.00689    0.00211   -0.00423
AFIX  66
C94   1    0.640817    0.732771    0.819176    11.00000    0.13760    0.13578 =
         0.13595   -0.00032    0.00082    0.00102
AFIX  43
H94   2    0.656765    0.772959    0.814832    11.00000   -1.20000
AFIX  65
C95   1    0.577597    0.723498    0.817501    11.00000    0.16788    0.16803 =
         0.16723   -0.00002   -0.00025    0.00137
AFIX  43
H95   2    0.551247    0.757483    0.812035    11.00000   -1.20000
AFIX  65
C96   1    0.553760    0.663432    0.823994    11.00000    0.11789    0.11922 =
         0.11675   -0.00029   -0.00076   -0.00041
AFIX  43
H96   2    0.511462    0.657229    0.822873    11.00000   -1.20000
AFIX  65
C97   1    0.593143    0.612638    0.832162    11.00000    0.11370    0.11465 =
         0.11307   -0.00009    0.00004    0.00033
AFIX  43
H97   2    0.577195    0.572449    0.836506    11.00000   -1.20000
AFIX  65
C98   1    0.656363    0.621909    0.833838    11.00000    0.10728    0.10741 =
         0.10606   -0.00049   -0.00014    0.00075
C99   1    0.680200    0.681975    0.827345    11.00000    0.09623    0.09714 =
         0.09594   -0.00021   -0.00047    0.00160
AFIX   0
O1    3    0.275574    0.483681    0.361344    11.00000    0.03107    0.02603 =
         0.02991   -0.00534    0.01299    0.00503
O2    3    0.210066    0.321787    0.336874    11.00000    0.02016    0.04005 =
         0.03742   -0.01548   -0.00311    0.00348
DY1   4    0.000000    0.500000    0.520472    10.50000    0.01466    0.01735 =
         0.02041    0.00000    0.00000   -0.00042
CL1   5   -0.426304    0.458576    0.695674    11.00000    0.01974    0.04335 =
         0.15243   -0.00431    0.02333   -0.00089
CL2   5   -0.051690    0.933994    0.695256    11.00000    0.03919    0.02076 =
         0.10826   -0.01871    0.00464   -0.00016
CL4   5    0.752225    0.700895    0.828535    11.00000    0.16982    0.16901 =
         0.15551    0.00043    0.00458   -0.01504
CL5   5    0.707845    0.562781    0.846530    11.00000    0.12451    0.11615 =
         0.10909   -0.00805    0.00017    0.01173
N1    6   -0.054980    0.421661    0.605867    11.00000    0.02288    0.02591 =
         0.02079   -0.00509   -0.00567   -0.00212
N2    6   -0.077650    0.556818    0.603252    11.00000    0.01732    0.02434 =
         0.02341    0.00353    0.00265    0.00452
N3    6    0.084308    0.535369    0.423986    11.00000    0.01433    0.02183 =
         0.02585   -0.00062    0.00065   -0.00079
N4    6    0.145295    0.441344    0.400360    11.00000    0.01782    0.02017 =
         0.02753   -0.00238   -0.00216   -0.00270
N5    6    0.037138    0.415273    0.424857    11.00000    0.00729    0.02123 =
         0.02359    0.00639    0.00483   -0.00398
N6    6   -0.056448    0.355841    0.405591    11.00000    0.01472    0.02258 =
         0.03300    0.00022   -0.00678   -0.01170
HKLF    4

REM  aa in P21212 #18
REM R1 =  0.0853 for   10669 Fo > 4sig(Fo)  and  0.1000 for all   12552 data
REM    948 parameters refined using    342 restraints

END

WGHT      0.1721     17.7603

REM Highest difference peak  2.001,  deepest hole -0.853,  1-sigma level  0.188
Q1    1   0.4630  0.6909  0.9970  11.00000  0.05    2.00
Q2    1  -0.3631  0.2919  0.8987  11.00000  0.05    1.88
Q3    1   0.0332  0.9500  0.9149  11.00000  0.05    1.86
Q4    1   0.5599  0.4924  0.9670  11.00000  0.05    1.78
Q5    1   0.2782  0.6374 -0.0025  11.00000  0.05    1.72
Q6    1   0.6808  0.7474  0.8271  11.00000  0.05    1.41
Q7    1  -0.1215  0.8019  0.9161  11.00000  0.05    1.41
Q8    1   0.0000  0.5000  0.4769  10.50000  0.05    1.39
Q9    1   0.1574  0.4394  0.0275  11.00000  0.05    1.35
Q10   1   0.0862  0.4987 -0.1824  11.00000  0.05    1.27
Q11   1   0.7156  0.6237  0.8375  11.00000  0.05    1.25
Q12   1   0.0584  0.6506 -0.0181  11.00000  0.05    1.21
Q13   1   0.0478  0.4112  0.1977  11.00000  0.05    1.20
Q14   1   0.0780  0.6180  0.1283  11.00000  0.05    1.19
Q15   1   0.0296  0.6122 -0.1466  11.00000  0.05    1.17
Q16   1   0.5457  0.6954  0.8262  11.00000  0.05    1.17
Q17   1  -0.0401  0.9560  0.9122  11.00000  0.05    1.17
Q18   1   0.4606  0.3094 -0.0028  11.00000  0.05    1.16
Q19   1   0.0431  0.5449  0.2325  11.00000  0.05    1.12
Q20   1   0.0356  0.4520  0.2316  11.00000  0.05    1.10
Q21   1   0.1062  0.6221 -0.0169  11.00000  0.05    1.08
Q22   1   0.3832  0.3030  0.0703  11.00000  0.05    1.05
Q23   1   0.0821  0.5805 -0.1503  11.00000  0.05    1.02
Q24   1   0.0335  0.3875 -0.1509  11.00000  0.05    1.00
Q25   1   0.0018  0.3724  0.1662  11.00000  0.05    0.98
;
_shelx_res_checksum              67573
loop_
_space_group_symop_operation_xyz
'x, y, z'
'-x, -y, z'
'x+1/2, -y+1/2, -z'
'-x+1/2, y+1/2, -z'
loop_
_atom_site_label
_atom_site_type_symbol
_atom_site_fract_x
_atom_site_fract_y
_atom_site_fract_z
_atom_site_U_iso_or_equiv
_atom_site_adp_type
_atom_site_occupancy
_atom_site_site_symmetry_order
_atom_site_calc_flag
_atom_site_refinement_flags_posn
_atom_site_refinement_flags_adp
_atom_site_refinement_flags_occupancy
C1 C -0.0771(6) 0.6200(7) 0.6226(9) 0.025(3) Uani 1 1 d . . .
C2 C -0.1366(6) 0.6382(7) 0.6537(10) 0.027(3) Uani 1 1 d . . .
H2 H -0.1481 0.6781 0.6711 0.032 Uiso 1 1 calc R U .
C3 C -0.1724(6) 0.5879(6) 0.6535(9) 0.025(3) Uani 1 1 d . . .
H3 H -0.2135 0.5861 0.6701 0.030 Uiso 1 1 calc R U .
C4 C -0.1352(6) 0.5366(7) 0.6226(9) 0.019(3) Uani 1 1 d . . .
C5 C -0.1564(6) 0.4740(6) 0.6195(9) 0.018(3) Uani 1 1 d . . .
C6 C -0.1180(6) 0.4204(6) 0.6093(8) 0.021(3) Uani 1 1 d . . .
C7 C -0.1394(6) 0.3566(7) 0.6112(9) 0.024(3) Uani 1 1 d . . .
H7 H -0.1801 0.3433 0.6123 0.029 Uiso 1 1 calc R U .
C8 C -0.0886(6) 0.3200(6) 0.6112(9) 0.025(3) Uani 1 1 d . . .
H8 H -0.0878 0.2766 0.6106 0.030 Uiso 1 1 calc R U .
C9 C -0.0369(6) 0.3602(7) 0.6122(8) 0.018(3) Uani 1 1 d . . .
C10 C -0.0252(7) 0.6598(6) 0.6205(10) 0.025(3) Uani 1 1 d . . .
C11 C -0.2658(6) 0.4923(8) 0.5784(9) 0.029(3) Uani 1 1 d . . .
H11 H -0.2523 0.5136 0.5289 0.035 Uiso 1 1 calc R U .
C12 C -0.3287(6) 0.4892(8) 0.5963(11) 0.041(4) Uani 1 1 d . . .
H12 H -0.3572 0.5079 0.5592 0.049 Uiso 1 1 calc R U .
C13 C -0.3474(7) 0.4578(7) 0.6697(14) 0.046(4) Uani 1 1 d . . .
C14 C -0.3072(7) 0.4277(7) 0.7216(12) 0.039(4) Uani 1 1 d . . .
H14 H -0.3215 0.4045 0.7689 0.047 Uiso 1 1 calc R U .
C15 C -0.2454(7) 0.4310(6) 0.7053(10) 0.031(3) Uani 1 1 d . . .
H15 H -0.2179 0.4109 0.7425 0.037 Uiso 1 1 calc R U .
C16 C -0.2232(6) 0.4644(6) 0.6330(10) 0.026(3) Uani 1 1 d . . .
C17 C -0.0347(5) 0.7268(6) 0.6403(9) 0.023(3) Uani 1 1 d . . .
C18 C -0.0063(8) 0.7539(6) 0.7125(9) 0.033(3) Uani 1 1 d . . .
H18 H 0.0169 0.7289 0.7496 0.040 Uiso 1 1 calc R U .
C19 C -0.0119(7) 0.8180(7) 0.7310(12) 0.042(4) Uani 1 1 d . . .
H19 H 0.0069 0.8360 0.7796 0.051 Uiso 1 1 calc R U .
C20 C -0.0468(6) 0.8532(6) 0.6730(12) 0.038(4) Uani 1 1 d . . .
C21 C -0.0747(6) 0.8285(7) 0.6028(11) 0.034(3) Uani 1 1 d . . .
H21 H -0.0973 0.8539 0.5653 0.040 Uiso 1 1 calc R U .
C22 C -0.0699(6) 0.7651(7) 0.5860(10) 0.029(3) Uani 1 1 d . . .
H22 H -0.0902 0.7479 0.5382 0.034 Uiso 1 1 calc R U .
C23 C 0.0028(9) 0.3619(5) 0.4085(7) 0.021(2) Uani 1 1 d . . .
C24 C 0.0450(6) 0.3103(6) 0.3842(9) 0.023(3) Uani 1 1 d . . .
C25 C 0.0312(7) 0.2492(7) 0.3636(11) 0.036(3) Uani 1 1 d . . .
H25 H -0.0088 0.2339 0.3664 0.043 Uiso 1 1 calc R U .
C26 C 0.0801(7) 0.2117(7) 0.3384(14) 0.052(5) Uani 1 1 d . . .
H26 H 0.0732 0.1702 0.3238 0.062 Uiso 1 1 calc R U .
C27 C 0.1405(7) 0.2363(8) 0.3346(14) 0.049(5) Uani 1 1 d . . .
H27 H 0.1729 0.2105 0.3184 0.058 Uiso 1 1 calc R U .
C28 C 0.1521(6) 0.2990(7) 0.3551(9) 0.026(3) Uani 1 1 d . . .
C29 C 0.1040(6) 0.3359(6) 0.3814(8) 0.025(3) Uani 1 1 d . . .
C30 C 0.0977(7) 0.4013(7) 0.4071(10) 0.021(3) Uani 1 1 d . . .
C31 C 0.1365(5) 0.5024(9) 0.4057(7) 0.021(2) Uani 1 1 d . . .
C32 C 0.1874(6) 0.5480(6) 0.3834(9) 0.024(3) Uani 1 1 d . . .
C33 C 0.2476(6) 0.5414(6) 0.3603(10) 0.027(3) Uani 1 1 d . . .
C34 C 0.2821(7) 0.5948(7) 0.3400(12) 0.039(4) Uani 1 1 d . . .
H34 H 0.3226 0.5905 0.3214 0.047 Uiso 1 1 calc R U .
C35 C 0.2564(7) 0.6539(7) 0.3473(14) 0.047(4) Uani 1 1 d . . .
H35 H 0.2809 0.6892 0.3403 0.056 Uiso 1 1 calc R U .
C36 C 0.1927(7) 0.6607(7) 0.3655(11) 0.034(3) Uani 1 1 d . . .
H36 H 0.1733 0.6994 0.3637 0.040 Uiso 1 1 calc R U .
C37 C 0.1611(6) 0.6064(6) 0.3860(9) 0.026(3) Uani 1 1 d . . .
C38 C 0.0956(6) 0.5970(7) 0.4074(10) 0.019(3) Uani 1 1 d . . .
C39 C 0.2924(6) 0.4532(7) 0.2841(10) 0.029(3) Uani 1 1 d . . .
C40 C 0.2919(8) 0.4823(8) 0.2044(11) 0.046(4) Uani 1 1 d . . .
H40 H 0.2808 0.5242 0.2000 0.055 Uiso 1 1 calc R U .
C41 C 0.3079(8) 0.4489(9) 0.1306(11) 0.049(4) Uani 1 1 d . . .
H41 H 0.3052 0.4683 0.0763 0.059 Uiso 1 1 calc R U .
C42 C 0.3285(11) 0.3856(9) 0.1346(12) 0.059(5) Uani 1 1 d . . .
C43 C 0.3424(13) 0.3511(11) 0.0601(15) 0.086(8) Uani 1 1 d . . .
H43 H 0.3387 0.3675 0.0040 0.103 Uiso 1 1 calc R U .
C44 C 0.3616(14) 0.2923(15) 0.075(2) 0.105(9) Uani 1 1 d . U .
H44 H 0.3793 0.2713 0.0280 0.126 Uiso 1 1 calc R U .
C45 C 0.3574(12) 0.2597(10) 0.1546(11) 0.073(7) Uani 1 1 d . . .
H45 H 0.3651 0.2170 0.1578 0.087 Uiso 1 1 calc R U .
C46 C 0.3418(9) 0.2929(9) 0.2259(12) 0.051(5) Uani 1 1 d . . .
H46 H 0.3406 0.2730 0.2800 0.062 Uiso 1 1 calc R U .
C47 C 0.3270(8) 0.3575(8) 0.2211(11) 0.044(4) Uani 1 1 d . . .
C48 C 0.3084(6) 0.3911(7) 0.2952(9) 0.026(3) Uani 1 1 d . . .
C49 C 0.3038(6) 0.3617(6) 0.3842(8) 0.021(3) Uani 1 1 d . . .
C50 C 0.2515(6) 0.3306(6) 0.4053(10) 0.027(3) Uani 1 1 d . . .
C51 C 0.2413(6) 0.3061(7) 0.4900(11) 0.034(3) Uani 1 1 d . . .
H51 H 0.2055 0.2841 0.5023 0.041 Uiso 1 1 calc R U .
C52 C 0.2845(7) 0.3150(7) 0.5538(11) 0.035(3) Uani 1 1 d . . .
H52 H 0.2770 0.3004 0.6101 0.042 Uiso 1 1 calc R U .
C53 C 0.3402(7) 0.3460(7) 0.5354(10) 0.033(3) Uani 1 1 d . . .
C54 C 0.3853(7) 0.3553(8) 0.5994(11) 0.041(4) Uani 1 1 d . . .
H54 H 0.3785 0.3407 0.6559 0.049 Uiso 1 1 calc R U .
C55 C 0.4400(8) 0.3860(8) 0.5803(13) 0.049(5) Uani 1 1 d . . .
H55 H 0.4700 0.3910 0.6232 0.058 Uiso 1 1 calc R U .
C56 C 0.4494(7) 0.4096(8) 0.4939(12) 0.044(4) Uani 1 1 d . . .
H56 H 0.4859 0.4302 0.4803 0.053 Uiso 1 1 calc R U .
C57 C 0.4061(6) 0.4024(7) 0.4322(11) 0.035(3) Uani 1 1 d . . .
H57 H 0.4128 0.4190 0.3767 0.042 Uiso 1 1 calc R U .
C58 C 0.3508(6) 0.3705(7) 0.4487(9) 0.028(3) Uani 1 1 d . . .
C59 C 0.0805(10) 0.5200(8) 0.2076(14) 0.093(8) Uani 1 1 d D U .
C60 C 0.0288(11) 0.4845(10) 0.237(2) 0.139(14) Uani 1 1 d D U .
C61 C 0.0197(9) 0.4213(10) 0.2081(15) 0.103(9) Uani 1 1 d D U .
C62 C 0.0686(8) 0.3912(9) 0.1641(12) 0.098(9) Uani 1 1 d D U .
C63 C 0.0495(7) 0.3564(11) -0.0623(11) 0.093(8) Uani 1 1 d D U .
C64 C 0.0810(9) 0.3573(11) 0.0202(10) 0.128(12) Uani 1 1 d D U .
C65 C 0.1294(10) 0.3999(10) 0.0451(11) 0.18(2) Uani 1 1 d D U .
C66 C 0.1192(10) 0.4263(8) 0.1302(13) 0.118(11) Uani 1 1 d D U .
C67 C 0.1271(7) 0.4899(7) 0.1556(10) 0.097(10) Uani 1 1 d D . .
C68 C 0.1164(13) 0.5914(9) 0.1011(18) 0.107(10) Uani 1 1 d D U .
C69 C 0.1487(8) 0.5332(8) 0.0897(11) 0.090(9) Uani 1 1 d D . .
C70 C 0.1615(9) 0.5067(9) 0.0065(10) 0.090(7) Uani 1 1 d D . .
C71 C 0.1450(10) 0.5423(7) -0.0704(13) 0.097(8) Uani 1 1 d D U .
C72 C 0.1241(8) 0.5011(8) -0.1380(11) 0.098(7) Uani 1 1 d D U .
C73 C 0.1226(9) 0.4383(8) -0.1051(12) 0.100(9) Uani 1 1 d D U .
C74 C 0.1491(12) 0.4433(9) -0.0190(11) 0.168(17) Uani 1 1 d D U .
C75 C 0.0731(8) 0.3983(8) -0.1300(11) 0.084(7) Uani 1 1 d D U .
C76 C 0.0230(7) 0.4211(6) -0.1829(16) 0.084(7) Uani 1 1 d D U .
C77 C 0.0285(4) 0.4834(5) -0.2157(12) 0.080(7) Uani 1 1 d D U .
C78 C 0.0752(6) 0.5244(7) -0.1891(12) 0.078(6) Uani 1 1 d D U .
C79 C 0.0439(9) 0.5824(8) -0.175(2) 0.126(12) Uani 1 1 d D U .
C80 C 0.0679(10) 0.6248(11) -0.1149(13) 0.171(19) Uani 1 1 d D U .
C81 C 0.1177(8) 0.6018(8) -0.0615(13) 0.075(6) Uani 1 1 d D U .
C82 C 0.1043(10) 0.6262(13) 0.0229(13) 0.104(9) Uani 1 1 d D U .
C83 C 0.0472(7) 0.6590(11) 0.0183(11) 0.090(7) Uani 1 1 d D U .
C84 C 0.0468(8) 0.3485(10) 0.0996(12) 0.137(13) Uani 1 1 d D U .
C85 C 0.0169(6) 0.6512(10) -0.0642(11) 0.077(6) Uani 1 1 d D U .
C86 C 0.0753(16) 0.5835(11) 0.176(2) 0.133(13) Uani 1 1 d D U .
C87 C -0.0190(8) 0.3532(13) 0.1005(12) 0.103(9) Uani 1 1 d D U .
C88 C -0.0339(10) 0.390(2) 0.176(3) 0.18(2) Uani 1 1 d D U .
C94 C 0.6408(11) 0.7328(8) 0.8192(17) 0.136(13) Uani 1 1 d G U .
H94 H 0.6568 0.7730 0.8148 0.164 Uiso 1 1 calc R U .
C95 C 0.5776(10) 0.7235(10) 0.8175(18) 0.168(17) Uani 1 1 d G U .
H95 H 0.5512 0.7575 0.8120 0.201 Uiso 1 1 calc R U .
C96 C 0.5538(7) 0.6634(12) 0.8240(16) 0.118(11) Uani 1 1 d G U .
H96 H 0.5115 0.6572 0.8229 0.142 Uiso 1 1 calc R U .
C97 C 0.5931(10) 0.6126(9) 0.8322(15) 0.114(10) Uani 1 1 d G U .
H97 H 0.5772 0.5724 0.8365 0.137 Uiso 1 1 calc R U .
C98 C 0.6564(9) 0.6219(9) 0.8338(15) 0.107(9) Uani 1 1 d G U .
C99 C 0.6802(8) 0.6820(11) 0.8273(15) 0.096(8) Uani 1 1 d G U .
O1 O 0.2756(4) 0.4837(4) 0.3613(6) 0.029(2) Uani 1 1 d . . .
O2 O 0.2101(4) 0.3218(5) 0.3369(7) 0.033(2) Uani 1 1 d . . .
Dy1 Dy 0.0000 0.5000 0.52047(4) 0.0175(2) Uani 1 2 d S T P
Cl1 Cl -0.42630(18) 0.4586(2) 0.6957(5) 0.0718(18) Uani 1 1 d . . .
Cl2 Cl -0.0517(2) 0.93399(18) 0.6953(4) 0.0561(13) Uani 1 1 d . . .
Cl4 Cl 0.7522(6) 0.7009(6) 0.8285(9) 0.165(4) Uani 1 1 d . U .
Cl5 Cl 0.7078(4) 0.5628(4) 0.8465(6) 0.117(3) Uani 1 1 d . U .
N1 N -0.0550(5) 0.4217(5) 0.6059(7) 0.023(2) Uani 1 1 d . . .
N2 N -0.0777(5) 0.5568(5) 0.6033(7) 0.022(2) Uani 1 1 d . . .
N3 N 0.0843(5) 0.5354(5) 0.4240(7) 0.021(2) Uani 1 1 d . . .
N4 N 0.1453(5) 0.4413(5) 0.4004(7) 0.022(2) Uani 1 1 d . . .
N5 N 0.0371(4) 0.4153(5) 0.4249(7) 0.017(2) Uani 1 1 d . . .
N6 N -0.0564(5) 0.3558(5) 0.4056(7) 0.023(2) Uani 1 1 d . . .
loop_
_atom_site_aniso_label
_atom_site_aniso_U_11
_atom_site_aniso_U_22
_atom_site_aniso_U_33
_atom_site_aniso_U_23
_atom_site_aniso_U_13
_atom_site_aniso_U_12
C1 0.021(7) 0.028(7) 0.026(7) -0.007(6) -0.002(5) 0.015(6)
C2 0.024(7) 0.025(7) 0.031(8) -0.001(6) 0.008(6) 0.000(6)
C3 0.018(6) 0.031(7) 0.026(7) -0.006(6) 0.009(5) 0.002(6)
C4 0.007(6) 0.024(7) 0.026(7) 0.005(6) 0.005(5) -0.003(5)
C5 0.014(6) 0.018(6) 0.021(6) 0.006(5) -0.003(5) 0.003(5)
C6 0.019(7) 0.025(7) 0.021(6) -0.004(5) 0.003(5) 0.004(6)
C7 0.018(7) 0.028(7) 0.027(7) 0.000(6) 0.005(6) -0.004(5)
C8 0.029(7) 0.019(6) 0.026(7) 0.005(5) 0.000(6) -0.001(6)
C9 0.013(7) 0.029(8) 0.011(6) 0.002(5) 0.002(5) -0.004(6)
C10 0.025(7) 0.017(7) 0.032(8) -0.006(6) 0.000(6) -0.002(5)
C11 0.027(6) 0.031(9) 0.031(6) -0.003(7) 0.000(5) 0.001(7)
C12 0.023(7) 0.039(11) 0.062(9) -0.007(8) -0.011(6) 0.000(7)
C13 0.029(8) 0.022(7) 0.088(14) 0.001(8) 0.007(8) -0.011(6)
C14 0.028(8) 0.023(7) 0.066(11) 0.009(7) 0.013(7) -0.008(6)
C15 0.037(8) 0.024(7) 0.033(7) 0.005(6) 0.003(6) 0.005(6)
C16 0.019(6) 0.018(7) 0.041(8) -0.005(6) 0.010(6) 0.000(5)
C17 0.008(6) 0.026(7) 0.035(7) 0.001(6) 0.003(5) -0.004(5)
C18 0.031(8) 0.025(6) 0.043(7) -0.012(5) -0.004(8) 0.006(7)
C19 0.044(11) 0.024(7) 0.060(9) -0.009(6) -0.005(8) -0.005(7)
C20 0.023(7) 0.017(7) 0.073(11) -0.007(7) 0.006(7) -0.003(6)
C21 0.024(7) 0.024(7) 0.053(9) 0.003(7) 0.009(7) 0.003(6)
C22 0.023(7) 0.028(7) 0.035(8) 0.001(6) 0.000(6) 0.005(6)
C23 0.026(6) 0.015(5) 0.023(5) -0.002(4) -0.003(8) -0.005(8)
C24 0.020(6) 0.022(7) 0.027(7) -0.005(6) -0.006(5) -0.002(5)
C25 0.026(7) 0.029(8) 0.051(10) -0.013(7) -0.001(7) -0.006(6)
C26 0.037(9) 0.024(8) 0.095(15) -0.025(9) -0.005(9) -0.001(7)
C27 0.021(7) 0.037(9) 0.088(14) -0.026(9) 0.002(8) 0.009(6)
C28 0.016(6) 0.033(7) 0.030(7) 0.000(6) 0.000(5) 0.000(5)
C29 0.034(8) 0.020(6) 0.021(6) -0.003(5) -0.009(6) 0.001(6)
C30 0.022(8) 0.021(8) 0.019(8) 0.000(6) -0.003(6) 0.006(6)
C31 0.017(5) 0.026(6) 0.018(5) 0.006(8) -0.001(4) -0.011(8)
C32 0.019(7) 0.029(7) 0.025(7) -0.001(6) 0.001(5) -0.001(6)
C33 0.025(7) 0.022(7) 0.033(8) -0.003(6) 0.006(6) -0.004(6)
C34 0.021(7) 0.039(9) 0.057(10) 0.004(8) 0.016(7) 0.004(6)
C35 0.029(8) 0.028(8) 0.083(13) 0.002(9) 0.015(9) -0.013(7)
C36 0.026(8) 0.026(8) 0.049(10) 0.002(7) 0.005(7) 0.002(6)
C37 0.019(7) 0.020(7) 0.038(8) -0.011(6) 0.005(6) -0.011(5)
C38 0.010(7) 0.017(8) 0.031(9) -0.003(7) 0.001(6) -0.002(6)
C39 0.019(6) 0.031(7) 0.036(8) -0.008(6) 0.000(6) 0.001(6)
C40 0.047(9) 0.049(11) 0.041(8) 0.000(7) 0.008(7) 0.013(7)
C41 0.066(11) 0.056(11) 0.026(8) 0.006(8) 0.012(8) 0.024(9)
C42 0.087(14) 0.057(12) 0.033(9) 0.000(8) -0.007(9) 0.003(11)
C43 0.14(2) 0.068(14) 0.048(11) -0.007(11) 0.019(14) 0.048(15)
C44 0.108(11) 0.105(11) 0.101(11) 0.001(7) 0.004(7) 0.012(7)
C45 0.13(2) 0.056(12) 0.028(9) -0.016(9) 0.000(11) 0.048(13)
C46 0.059(11) 0.054(11) 0.041(9) -0.018(8) -0.003(8) 0.029(9)
C47 0.038(9) 0.055(10) 0.038(9) -0.006(8) -0.005(7) 0.021(8)
C48 0.017(6) 0.038(8) 0.023(7) -0.003(6) 0.004(5) 0.007(6)
C49 0.018(6) 0.022(6) 0.022(6) -0.007(5) 0.001(5) 0.008(5)
C50 0.023(7) 0.023(7) 0.036(8) -0.008(6) 0.002(6) 0.016(6)
C51 0.027(7) 0.031(8) 0.045(9) -0.004(7) 0.004(7) -0.001(6)
C52 0.031(8) 0.031(8) 0.044(9) 0.007(7) 0.000(7) 0.008(6)
C53 0.031(7) 0.030(7) 0.037(8) -0.009(6) -0.002(6) 0.014(6)
C54 0.037(9) 0.050(10) 0.036(8) 0.001(7) -0.001(7) 0.021(7)
C55 0.037(9) 0.048(10) 0.061(12) -0.025(9) -0.023(8) 0.012(8)
C56 0.020(7) 0.043(9) 0.070(13) -0.016(8) -0.001(7) 0.007(6)
C57 0.018(7) 0.038(8) 0.048(9) -0.011(7) -0.002(6) 0.008(6)
C58 0.024(7) 0.030(7) 0.031(7) 0.001(6) -0.002(6) 0.005(6)
C59 0.097(10) 0.097(10) 0.083(9) -0.002(6) -0.014(7) -0.004(7)
C60 0.142(15) 0.148(15) 0.128(15) 0.002(7) -0.001(7) 0.004(7)
C61 0.110(11) 0.105(11) 0.092(10) 0.019(7) -0.005(7) -0.005(7)
C62 0.105(10) 0.093(10) 0.097(10) 0.021(7) -0.015(7) -0.002(7)
C63 0.095(10) 0.086(10) 0.099(10) -0.003(7) 0.011(7) 0.007(7)
C64 0.128(13) 0.121(13) 0.134(13) -0.002(7) -0.002(7) 0.004(7)
C65 0.18(2) 0.18(2) 0.18(2) 0.002(7) -0.002(7) 0.005(7)
C66 0.114(12) 0.120(12) 0.120(13) 0.002(7) -0.011(7) 0.008(7)
C67 0.070(13) 0.15(3) 0.075(14) 0.06(2) -0.042(12) -0.003(17)
C68 0.106(11) 0.109(11) 0.104(11) -0.002(7) -0.014(7) -0.013(7)
C69 0.042(12) 0.14(2) 0.092(18) 0.020(17) -0.042(12) -0.030(13)
C70 0.049(11) 0.11(2) 0.108(18) 0.00(2) -0.001(11) -0.030(14)
C71 0.089(10) 0.107(10) 0.094(10) -0.002(7) 0.002(7) -0.012(7)
C72 0.095(9) 0.103(9) 0.097(9) -0.003(7) 0.013(6) -0.001(7)
C73 0.094(10) 0.107(11) 0.098(11) -0.006(7) 0.007(7) 0.003(7)
C74 0.163(18) 0.169(18) 0.171(18) 0.001(7) 0.006(7) 0.000(7)
C75 0.088(9) 0.084(9) 0.080(9) -0.011(6) 0.013(6) 0.013(6)
C76 0.083(9) 0.089(9) 0.079(9) -0.017(6) 0.009(6) -0.005(6)
C77 0.086(9) 0.090(9) 0.064(8) -0.002(6) 0.004(6) -0.003(6)
C78 0.082(8) 0.086(9) 0.064(8) 0.004(6) 0.011(6) -0.011(6)
C79 0.128(13) 0.130(13) 0.120(13) 0.017(7) 0.009(7) -0.006(7)
C80 0.17(2) 0.17(2) 0.17(2) 0.005(7) 0.003(7) -0.004(7)
C81 0.070(8) 0.071(8) 0.084(8) 0.021(6) 0.003(6) -0.020(6)
C82 0.105(11) 0.096(10) 0.112(11) 0.001(7) -0.002(7) -0.009(7)
C83 0.090(9) 0.082(9) 0.099(9) 0.001(7) -0.006(7) -0.009(6)
C84 0.141(15) 0.131(15) 0.140(15) 0.008(7) -0.001(7) 0.006(7)
C85 0.082(9) 0.065(8) 0.083(8) 0.009(6) 0.005(6) -0.008(6)
C86 0.133(14) 0.135(14) 0.132(14) -0.014(7) -0.012(7) -0.002(7)
C87 0.107(11) 0.097(11) 0.105(11) 0.014(7) 0.005(7) -0.010(7)
C88 0.19(2) 0.18(2) 0.18(2) 0.007(7) 0.002(7) -0.004(7)
C94 0.138(13) 0.136(13) 0.136(13) 0.000(3) 0.001(3) 0.001(3)
C95 0.168(17) 0.168(17) 0.167(17) 0.000(3) 0.000(3) 0.001(3)
C96 0.118(11) 0.119(11) 0.117(11) 0.000(3) -0.001(3) 0.000(3)
C97 0.114(10) 0.115(10) 0.113(10) 0.000(3) 0.000(3) 0.000(3)
C98 0.107(10) 0.107(10) 0.106(10) 0.000(3) 0.000(3) 0.001(3)
C99 0.096(9) 0.097(9) 0.096(9) 0.000(3) 0.000(3) 0.002(3)
O1 0.031(5) 0.026(6) 0.030(5) -0.005(4) 0.013(4) 0.005(4)
O2 0.020(5) 0.040(6) 0.037(6) -0.015(5) -0.003(4) 0.003(4)
Dy1 0.0147(4) 0.0174(4) 0.0204(4) 0.000 0.000 -0.0004(4)
Cl1 0.0197(19) 0.043(2) 0.152(6) -0.004(3) 0.023(3) -0.0009(17)
Cl2 0.039(2) 0.0208(17) 0.108(4) -0.019(2) 0.005(2) -0.0002(16)
Cl4 0.170(6) 0.169(6) 0.156(6) 0.000(5) 0.005(5) -0.015(5)
Cl5 0.125(5) 0.116(5) 0.109(4) -0.008(4) 0.000(4) 0.012(4)
N1 0.023(6) 0.026(6) 0.021(5) -0.005(5) -0.006(5) -0.002(5)
N2 0.017(6) 0.024(6) 0.023(6) 0.004(5) 0.003(5) 0.005(5)
N3 0.014(5) 0.022(6) 0.026(6) -0.001(4) 0.001(4) -0.001(4)
N4 0.018(6) 0.020(6) 0.028(6) -0.002(5) -0.002(4) -0.003(5)
N5 0.007(5) 0.021(5) 0.024(5) 0.006(4) 0.005(4) -0.004(4)
N6 0.015(6) 0.023(6) 0.033(6) 0.000(5) -0.007(5) -0.012(5)
loop_
_atom_type_symbol
_atom_type_description
_atom_type_scat_dispersion_real
_atom_type_scat_dispersion_imag
_atom_type_scat_source
C C 0.0033 0.0016 'International Tables Vol C Tables 4.2.6.8 and 6.1.1.4'
H H 0.0000 0.0000 'International Tables Vol C Tables 4.2.6.8 and 6.1.1.4'
O O 0.0106 0.0060 'International Tables Vol C Tables 4.2.6.8 and 6.1.1.4'
Dy Dy -0.1892 4.4098 'International Tables Vol C Tables 4.2.6.8 and 6.1.1.4'
Cl Cl 0.1484 0.1585 'International Tables Vol C Tables 4.2.6.8 and 6.1.1.4'
N N 0.0061 0.0033 'International Tables Vol C Tables 4.2.6.8 and 6.1.1.4'
loop_
_geom_angle_atom_site_label_1
_geom_angle_atom_site_label_2
_geom_angle_atom_site_label_3
_geom_angle
_geom_angle_site_symmetry_1
_geom_angle_site_symmetry_3
N2 C1 C10 126.2(12) . .
N2 C1 C2 109.1(12) . .
C10 C1 C2 124.4(13) . .
C3 C2 C1 108.1(13) . .
C3 C2 H2 126.0 . .
C1 C2 H2 126.0 . .
C2 C3 C4 106.7(12) . .
C2 C3 H3 126.7 . .
C4 C3 H3 126.7 . .
N2 C4 C5 126.3(12) . .
N2 C4 C3 110.3(12) . .
C5 C4 C3 123.3(11) . .
C4 C5 C6 125.1(12) . .
C4 C5 C16 116.3(10) . .
C6 C5 C16 118.5(12) . .
N1 C6 C5 124.9(12) . .
N1 C6 C7 110.0(11) . .
C5 C6 C7 124.7(12) . .
C8 C7 C6 106.5(11) . .
C8 C7 H7 126.8 . .
C6 C7 H7 126.8 . .
C7 C8 C9 107.3(12) . .
C7 C8 H8 126.4 . .
C9 C8 H8 126.4 . .
N1 C9 C8 110.7(11) . .
N1 C9 C10 124.4(12) . 2_565
C8 C9 C10 124.9(12) . 2_565
C1 C10 C9 125.4(12) . 2_565
C1 C10 C17 117.9(12) . .
C9 C10 C17 116.2(11) 2_565 .
C16 C11 C12 121.2(14) . .
C16 C11 H11 119.4 . .
C12 C11 H11 119.4 . .
C13 C12 C11 118.4(15) . .
C13 C12 H12 120.8 . .
C11 C12 H12 120.8 . .
C14 C13 C12 121.7(14) . .
C14 C13 Cl1 120.3(14) . .
C12 C13 Cl1 118.0(13) . .
C13 C14 C15 120.4(15) . .
C13 C14 H14 119.8 . .
C15 C14 H14 119.8 . .
C14 C15 C16 120.4(14) . .
C14 C15 H15 119.8 . .
C16 C15 H15 119.8 . .
C11 C16 C15 117.8(12) . .
C11 C16 C5 120.9(12) . .
C15 C16 C5 121.1(13) . .
C18 C17 C22 118.1(13) . .
C18 C17 C10 120.2(12) . .
C22 C17 C10 121.7(13) . .
C17 C18 C19 121.9(14) . .
C17 C18 H18 119.1 . .
C19 C18 H18 119.1 . .
C20 C19 C18 116.6(14) . .
C20 C19 H19 121.7 . .
C18 C19 H19 121.7 . .
C21 C20 C19 122.9(13) . .
C21 C20 Cl2 120.9(13) . .
C19 C20 Cl2 116.2(12) . .
C20 C21 C22 120.0(15) . .
C20 C21 H21 120.0 . .
C22 C21 H21 120.0 . .
C21 C22 C17 120.5(14) . .
C21 C22 H22 119.8 . .
C17 C22 H22 119.8 . .
N6 C23 N5 128.6(12) . .
N6 C23 C24 122.2(11) . .
N5 C23 C24 108.9(14) . .
C25 C24 C29 124.5(13) . .
C25 C24 C23 128.9(12) . .
C29 C24 C23 106.6(12) . .
C24 C25 C26 116.4(13) . .
C24 C25 H25 121.8 . .
C26 C25 H25 121.8 . .
C25 C26 C27 120.6(14) . .
C25 C26 H26 119.7 . .
C27 C26 H26 119.7 . .
C28 C27 C26 121.0(13) . .
C28 C27 H27 119.5 . .
C26 C27 H27 119.5 . .
C29 C28 O2 123.6(12) . .
C29 C28 C27 118.6(12) . .
O2 C28 C27 117.3(12) . .
C28 C29 C24 119.0(12) . .
C28 C29 C30 134.7(13) . .
C24 C29 C30 106.3(12) . .
N4 C30 N5 127.8(13) . .
N4 C30 C29 121.1(13) . .
N5 C30 C29 110.5(12) . .
N4 C31 N3 130.0(12) . .
N4 C31 C32 121.2(11) . .
N3 C31 C32 108.7(14) . .
C33 C32 C37 120.1(13) . .
C33 C32 C31 133.9(14) . .
C37 C32 C31 106.0(12) . .
C32 C33 O1 120.9(12) . .
C32 C33 C34 119.2(13) . .
O1 C33 C34 119.8(11) . .
C35 C34 C33 120.6(13) . .
C35 C34 H34 119.7 . .
C33 C34 H34 119.7 . .
C34 C35 C36 120.0(14) . .
C34 C35 H35 120.0 . .
C36 C35 H35 120.0 . .
C37 C36 C35 116.4(14) . .
C37 C36 H36 121.8 . .
C35 C36 H36 121.8 . .
C32 C37 C36 123.2(12) . .
C32 C37 C38 106.5(11) . .
C36 C37 C38 130.1(13) . .
N6 C38 N3 128.7(12) 2_565 .
N6 C38 C37 121.0(12) 2_565 .
N3 C38 C37 110.3(12) . .
C40 C39 C48 123.3(14) . .
C40 C39 O1 122.5(13) . .
C48 C39 O1 114.3(13) . .
C39 C40 C41 119.2(15) . .
C39 C40 H40 120.4 . .
C41 C40 H40 120.4 . .
C40 C41 C42 122.5(16) . .
C40 C41 H41 118.8 . .
C42 C41 H41 118.8 . .
C43 C42 C41 122.5(18) . .
C43 C42 C47 122.0(18) . .
C41 C42 C47 115.1(16) . .
C44 C43 C42 115(2) . .
C44 C43 H43 122.4 . .
C42 C43 H43 122.4 . .
C43 C44 C45 126(3) . .
C43 C44 H44 116.9 . .
C45 C44 H44 116.9 . .
C46 C45 C44 117(2) . .
C46 C45 H45 121.5 . .
C44 C45 H45 121.5 . .
C45 C46 C47 121.9(19) . .
C45 C46 H46 119.0 . .
C47 C46 H46 119.0 . .
C48 C47 C46 121.5(16) . .
C48 C47 C42 122.0(16) . .
C46 C47 C42 116.4(16) . .
C39 C48 C47 117.8(14) . .
C39 C48 C49 119.7(12) . .
C47 C48 C49 122.5(13) . .
C50 C49 C58 120.0(12) . .
C50 C49 C48 118.5(12) . .
C58 C49 C48 121.4(12) . .
C49 C50 O2 115.5(13) . .
C49 C50 C51 122.0(13) . .
O2 C50 C51 122.4(13) . .
C52 C51 C50 119.6(13) . .
C52 C51 H51 120.2 . .
C50 C51 H51 120.2 . .
C51 C52 C53 121.0(15) . .
C51 C52 H52 119.5 . .
C53 C52 H52 119.5 . .
C54 C53 C52 122.1(15) . .
C54 C53 C58 118.5(14) . .
C52 C53 C58 119.3(13) . .
C55 C54 C53 121.4(16) . .
C55 C54 H54 119.3 . .
C53 C54 H54 119.3 . .
C54 C55 C56 118.9(15) . .
C54 C55 H55 120.5 . .
C56 C55 H55 120.5 . .
C57 C56 C55 120.5(15) . .
C57 C56 H56 119.8 . .
C55 C56 H56 119.8 . .
C56 C57 C58 122.1(16) . .
C56 C57 H57 119.0 . .
C58 C57 H57 119.0 . .
C57 C58 C49 123.4(13) . .
C57 C58 C53 118.5(13) . .
C49 C58 C53 118.1(13) . .
C60 C59 C67 119.2(13) . .
C60 C59 C86 123(2) . .
C67 C59 C86 106.9(11) . .
C60 C60 C59 117(2) 2_565 .
C60 C60 C61 109(2) 2_565 .
C59 C60 C61 121.0(15) . .
C62 C61 C88 103.7(12) . .
C62 C61 C60 118.1(14) . .
C88 C61 C60 131(3) . .
C61 C62 C84 111.7(12) . .
C61 C62 C66 120.8(14) . .
C84 C62 C66 110.0(11) . .
C64 C63 C85 119.6(13) . 2_565
C64 C63 C75 116.4(12) . .
C85 C63 C75 113.7(16) 2_565 .
C63 C64 C84 119.5(13) . .
C63 C64 C65 126.1(15) . .
C84 C64 C65 103.8(11) . .
C74 C65 C66 114.4(14) . .
C74 C65 C64 116.9(14) . .
C66 C65 C64 112.0(12) . .
C67 C66 C62 119.7(13) . .
C67 C66 C65 127.2(14) . .
C62 C66 C65 103.9(11) . .
C66 C67 C59 119.5(13) . .
C66 C67 C69 117.4(12) . .
C59 C67 C69 109.1(10) . .
C82 C68 C69 116(2) . .
C82 C68 C86 127(2) . .
C69 C68 C86 107.0(12) . .
C70 C69 C68 123.2(18) . .
C70 C69 C67 115.6(12) . .
C68 C69 C67 108.1(11) . .
C69 C70 C74 125.6(14) . .
C69 C70 C71 118.0(17) . .
C74 C70 C71 103.4(11) . .
C81 C71 C72 119.4(13) . .
C81 C71 C70 120.1(19) . .
C72 C71 C70 109.9(11) . .
C78 C72 C71 114.9(13) . .
C78 C72 C73 120.5(13) . .
C71 C72 C73 109.4(11) . .
C75 C73 C72 119.0(13) . .
C75 C73 C74 126.2(14) . .
C72 C73 C74 103.9(11) . .
C65 C74 C70 119.3(13) . .
C65 C74 C73 117.4(14) . .
C70 C74 C73 113.2(12) . .
C73 C75 C76 121.2(13) . .
C73 C75 C63 116.3(12) . .
C76 C75 C63 109.7(16) . .
C77 C76 C75 116.6(11) . .
C77 C76 C79 99.3(10) . 2_565
C75 C76 C79 133(2) . 2_565
C78 C77 C77 108.5(11) . 2_565
C78 C77 C76 122.9(12) . .
C77 C77 C76 113.1(11) 2_565 .
C77 C78 C72 119.1(12) . .
C77 C78 C79 104.0(11) . .
C72 C78 C79 125.4(13) . .
C80 C79 C78 119.2(13) . .
C80 C79 C76 118(2) . 2_565
C78 C79 C76 114.5(12) . 2_565
C79 C80 C81 115.6(15) . .
C79 C80 C85 108(2) . .
C81 C80 C85 113.7(12) . .
C71 C81 C82 120.3(19) . .
C71 C81 C80 124.7(14) . .
C82 C81 C80 103.6(11) . .
C68 C82 C83 117(2) . .
C68 C82 C81 122(2) . .
C83 C82 C81 108.3(12) . .
C87 C83 C82 104.1(18) 2_565 .
C87 C83 C85 123.9(14) 2_565 .
C82 C83 C85 112.7(12) . .
C62 C84 C87 106.4(12) . .
C62 C84 C64 109.1(12) . .
C87 C84 C64 121.1(16) . .
C83 C85 C63 116.9(13) . 2_565
C83 C85 C80 99.2(10) . .
C63 C85 C80 136.0(19) 2_565 .
C88 C86 C59 124(3) 2_565 .
C88 C86 C68 117(3) 2_565 .
C59 C86 C68 108.8(12) . .
C83 C87 C88 135(2) 2_565 .
C83 C87 C84 114.1(13) 2_565 .
C88 C87 C84 105.8(12) . .
C86 C88 C87 119(4) 2_565 .
C86 C88 C61 116(3) 2_565 .
C87 C88 C61 110.5(13) . .
C95 C94 C99 120.0 . .
C95 C94 H94 120.0 . .
C99 C94 H94 120.0 . .
C96 C95 C94 120.0 . .
C96 C95 H95 120.0 . .
C94 C95 H95 120.0 . .
C95 C96 C97 120.0 . .
C95 C96 H96 120.0 . .
C97 C96 H96 120.0 . .
C98 C97 C96 120.0 . .
C98 C97 H97 120.0 . .
C96 C97 H97 120.0 . .
C97 C98 C99 120.0 . .
C97 C98 Cl5 123.2(14) . .
C99 C98 Cl5 116.8(14) . .
C98 C99 C94 120.0 . .
C98 C99 Cl4 126.3(16) . .
C94 C99 Cl4 113.7(16) . .
C33 O1 C39 121.7(11) . .
C28 O2 C50 119.2(11) . .
N2 Dy1 N2 117.4(5) 2_565 .
N2 Dy1 N1 73.7(4) 2_565 .
N2 Dy1 N1 74.1(4) . .
N2 Dy1 N1 74.1(4) 2_565 2_565
N2 Dy1 N1 73.7(4) . 2_565
N1 Dy1 N1 115.3(5) . 2_565
N2 Dy1 N5 73.3(3) 2_565 .
N2 Dy1 N5 154.5(4) . .
N1 Dy1 N5 88.4(4) . .
N1 Dy1 N5 131.5(3) 2_565 .
N2 Dy1 N5 154.5(4) 2_565 2_565
N2 Dy1 N5 73.3(3) . 2_565
N1 Dy1 N5 131.5(3) . 2_565
N1 Dy1 N5 88.4(4) 2_565 2_565
N5 Dy1 N5 107.3(5) . 2_565
N2 Dy1 N3 132.2(4) 2_565 2_565
N2 Dy1 N3 87.0(4) . 2_565
N1 Dy1 N3 75.2(4) . 2_565
N1 Dy1 N3 153.3(4) 2_565 2_565
N5 Dy1 N3 70.4(3) . 2_565
N5 Dy1 N3 68.2(3) 2_565 2_565
N2 Dy1 N3 87.0(4) 2_565 .
N2 Dy1 N3 132.2(4) . .
N1 Dy1 N3 153.3(4) . .
N1 Dy1 N3 75.2(4) 2_565 .
N5 Dy1 N3 68.2(3) . .
N5 Dy1 N3 70.4(3) 2_565 .
N3 Dy1 N3 106.8(5) 2_565 .
C6 N1 C9 105.3(11) . .
C6 N1 Dy1 121.6(9) . .
C9 N1 Dy1 123.7(9) . .
C4 N2 C1 105.8(11) . .
C4 N2 Dy1 126.4(9) . .
C1 N2 Dy1 126.3(9) . .
C31 N3 C38 108.1(11) . .
C31 N3 Dy1 125.5(9) . .
C38 N3 Dy1 122.7(9) . .
C31 N4 C30 120.8(11) . .
C30 N5 C23 107.6(12) . .
C30 N5 Dy1 126.1(9) . .
C23 N5 Dy1 122.4(9) . .
C23 N6 C38 124.4(11) . 2_565
loop_
_geom_bond_atom_site_label_1
_geom_bond_atom_site_label_2
_geom_bond_distance
_geom_bond_site_symmetry_2
C1 N2 1.385(18) .
C1 C10 1.41(2) .
C1 C2 1.432(19) .
C2 C3 1.33(2) .
C2 H2 0.9300 .
C3 C4 1.443(19) .
C3 H3 0.9300 .
C4 N2 1.358(17) .
C4 C5 1.419(17) .
C5 C6 1.427(18) .
C5 C16 1.483(18) .
C6 N1 1.373(17) .
C6 C7 1.442(19) .
C7 C8 1.356(19) .
C7 H7 0.9300 .
C8 C9 1.416(18) .
C8 H8 0.9300 .
C9 N1 1.377(19) .
C9 C10 1.422(18) 2_565
C10 C9 1.422(18) 2_565
C10 C17 1.481(19) .
C11 C16 1.38(2) .
C11 C12 1.398(19) .
C11 H11 0.9300 .
C12 C13 1.37(2) .
C12 H12 0.9300 .
C13 C14 1.34(2) .
C13 Cl1 1.763(16) .
C14 C15 1.37(2) .
C14 H14 0.9300 .
C15 C16 1.40(2) .
C15 H15 0.9300 .
C17 C18 1.390(19) .
C17 C22 1.394(19) .
C18 C19 1.406(19) .
C18 H18 0.9300 .
C19 C20 1.39(2) .
C19 H19 0.9300 .
C20 C21 1.34(2) .
C20 Cl2 1.765(14) .
C21 C22 1.38(2) .
C21 H21 0.9300 .
C22 H22 0.9300 .
C23 N6 1.30(2) .
C23 N5 1.389(16) .
C23 C24 1.48(2) .
C24 C25 1.380(19) .
C24 C29 1.397(19) .
C25 C26 1.39(2) .
C25 H25 0.9300 .
C26 C27 1.42(2) .
C26 H26 0.9300 .
C27 C28 1.40(2) .
C27 H27 0.9300 .
C28 C29 1.372(19) .
C28 O2 1.380(16) .
C29 C30 1.460(19) .
C30 N4 1.348(19) .
C30 N5 1.378(18) .
C31 N4 1.32(2) .
C31 N3 1.367(18) .
C31 C32 1.514(19) .
C32 C33 1.364(19) .
C32 C37 1.376(19) .
C33 O1 1.378(17) .
C33 C34 1.40(2) .
C34 C35 1.39(2) .
C34 H34 0.9300 .
C35 C36 1.42(2) .
C35 H35 0.9300 .
C36 C37 1.39(2) .
C36 H36 0.9300 .
C37 C38 1.474(19) .
C38 N6 1.321(18) 2_565
C38 N3 1.367(18) .
C39 C40 1.37(2) .
C39 C48 1.39(2) .
C39 O1 1.397(17) .
C40 C41 1.38(2) .
C40 H40 0.9300 .
C41 C42 1.43(3) .
C41 H41 0.9300 .
C42 C43 1.39(3) .
C42 C47 1.45(2) .
C43 C44 1.34(4) .
C43 H43 0.9300 .
C44 C45 1.41(4) .
C44 H44 0.9300 .
C45 C46 1.34(2) .
C45 H45 0.9300 .
C46 C47 1.42(2) .
C46 H46 0.9300 .
C47 C48 1.40(2) .
C48 C49 1.502(19) .
C49 C50 1.358(19) .
C49 C58 1.431(18) .
C50 O2 1.393(17) .
C50 C51 1.41(2) .
C51 C52 1.37(2) .
C51 H51 0.9300 .
C52 C53 1.41(2) .
C52 H52 0.9300 .
C53 C54 1.40(2) .
C53 C58 1.44(2) .
C54 C55 1.39(3) .
C54 H54 0.9300 .
C55 C56 1.43(3) .
C55 H55 0.9300 .
C56 C57 1.34(2) .
C56 H56 0.9300 .
C57 C58 1.41(2) .
C57 H57 0.9300 .
C59 C60 1.428(13) .
C59 C67 1.439(9) .
C59 C86 1.447(13) .
C60 C60 1.42(5) 2_565
C60 C61 1.435(13) .
C61 C62 1.414(9) .
C61 C88 1.432(13) .
C62 C84 1.425(9) .
C62 C66 1.429(9) .
C63 C64 1.434(9) .
C63 C85 1.453(12) 2_565
C63 C75 1.463(12) .
C64 C84 1.436(9) .
C64 C65 1.443(9) .
C65 C74 1.417(9) .
C65 C66 1.435(9) .
C66 C67 1.427(9) .
C67 C69 1.447(9) .
C68 C82 1.43(3) .
C68 C69 1.442(13) .
C68 C86 1.462(13) .
C69 C70 1.419(12) .
C70 C74 1.437(9) .
C70 C71 1.446(12) .
C71 C81 1.413(12) .
C71 C72 1.432(12) .
C72 C78 1.410(11) .
C72 C73 1.437(12) .
C73 C75 1.427(9) .
C73 C74 1.440(9) .
C75 C76 1.442(12) .
C76 C77 1.430(9) .
C76 C79 1.462(13) 2_565
C77 C78 1.404(12) .
C77 C77 1.428(13) 2_565
C78 C79 1.433(12) .
C79 C80 1.388(13) .
C79 C76 1.463(13) 2_565
C80 C81 1.441(9) .
C80 C85 1.467(13) .
C81 C82 1.421(13) .
C82 C83 1.429(13) .
C83 C87 1.421(12) 2_565
C83 C85 1.433(9) .
C84 C87 1.435(12) .
C85 C63 1.453(12) 2_565
C86 C88 1.06(4) 2_565
C87 C83 1.421(12) 2_565
C87 C88 1.432(13) .
C88 C86 1.06(4) 2_565
C94 C95 1.3900 .
C94 C99 1.3900 .
C94 H94 0.9300 .
C95 C96 1.3900 .
C95 H95 0.9300 .
C96 C97 1.3900 .
C96 H96 0.9300 .
C97 C98 1.3900 .
C97 H97 0.9300 .
C98 C99 1.3900 .
C98 Cl5 1.701(18) .
C99 Cl4 1.62(2) .
Dy1 N2 2.436(11) 2_565
Dy1 N2 2.436(11) .
Dy1 N1 2.438(12) .
Dy1 N1 2.438(12) 2_565
Dy1 N5 2.465(11) .
Dy1 N5 2.465(11) 2_565
Dy1 N3 2.472(10) 2_565
Dy1 N3 2.472(10) .
N6 C38 1.321(18) 2_565
