#------------------------------------------------------------------------------
#$Date: 2019-11-08 00:08:20 +0200 (Fri, 08 Nov 2019) $
#$Revision: 224192 $
#$URL: file:///home/coder/svn-repositories/cod/cif/7/04/94/7049441.cif $
#------------------------------------------------------------------------------
#
# This file is available in the Crystallography Open Database (COD),
# http://www.crystallography.net/
#
# All data on this site have been placed in the public domain by the
# contributors.
#
data_7049441
loop_
_publ_author_name
'Nefedov, Sergey E.'
'Birin, Kirill P.'
'Bessmertnykh-Lemeune, Alla'
'Enakieva, Yulia Y.'
'Sinelshchikova, Anna A.'
'Gorbunova, Yulia G.'
'Tsivadze, Aslan Y.'
'Stern, Christine'
'Fang, Yuanyuan'
'Kadish, Karl M.'
_publ_section_title
;
 Coordination self-assembly through weak interactions in
 meso-dialkoxyphosphoryl-substituted zinc porphyrinates.
;
_journal_issue                   16
_journal_name_full
'Dalton transactions (Cambridge, England : 2003)'
_journal_page_first              5372
_journal_page_last               5383
_journal_paper_doi               10.1039/c9dt00706g
_journal_volume                  48
_journal_year                    2019
_chemical_formula_sum            'C36 H29 N4 O3 P Zn'
_chemical_formula_weight         661.97
_chemical_properties_physical    Air-sensitive
_space_group_crystal_system      monoclinic
_space_group_IT_number           4
_space_group_name_Hall           'P 2yb'
_space_group_name_H-M_alt        'P 1 21 1'
_symmetry_space_group_name_Hall  'P 2yb'
_symmetry_space_group_name_H-M   'P 1 21 1'
_atom_sites_solution_hydrogens   mixed
_audit_creation_method           SHELXL-2014/7
_audit_update_record
;
2018-05-23 deposited with the CCDC.    2019-03-25 downloaded from the CCDC.
;
_cell_angle_alpha                90
_cell_angle_beta                 109.961(2)
_cell_angle_gamma                90
_cell_formula_units_Z            2
_cell_length_a                   11.2709(17)
_cell_length_b                   10.9305(16)
_cell_length_c                   13.289(2)
_cell_measurement_reflns_used    4537
_cell_measurement_temperature    150(2)
_cell_measurement_theta_max      24.19
_cell_measurement_theta_min      2.48
_cell_volume                     1538.8(4)
_computing_structure_refinement  'SHELXL-2014/7 (Sheldrick, 2014)'
_diffrn_ambient_temperature      150(2)
_diffrn_measured_fraction_theta_full 0.999
_diffrn_measured_fraction_theta_max 0.999
_diffrn_measurement_device_type  'Bruker APEX-II CCD'
_diffrn_measurement_method       '\f and \w scans'
_diffrn_radiation_type           MoK\a
_diffrn_radiation_wavelength     0.71073
_diffrn_reflns_av_R_equivalents  0.0384
_diffrn_reflns_av_unetI/netI     0.0738
_diffrn_reflns_Laue_measured_fraction_full 0.999
_diffrn_reflns_Laue_measured_fraction_max 0.999
_diffrn_reflns_limit_h_max       15
_diffrn_reflns_limit_h_min       -15
_diffrn_reflns_limit_k_max       15
_diffrn_reflns_limit_k_min       -15
_diffrn_reflns_limit_l_max       18
_diffrn_reflns_limit_l_min       -18
_diffrn_reflns_number            18125
_diffrn_reflns_point_group_measured_fraction_full 0.999
_diffrn_reflns_point_group_measured_fraction_max 0.999
_diffrn_reflns_theta_full        25.242
_diffrn_reflns_theta_max         29.997
_diffrn_reflns_theta_min         2.476
_exptl_absorpt_coefficient_mu    0.894
_exptl_absorpt_correction_T_max  0.725
_exptl_absorpt_correction_T_min  0.658
_exptl_absorpt_correction_type   multi-scan
_exptl_absorpt_process_details   sadabs
_exptl_crystal_colour            purple
_exptl_crystal_density_diffrn    1.429
_exptl_crystal_description       prizm
_exptl_crystal_F_000             684
_exptl_crystal_recrystallization_method 'Re-crystallisation from solvent'
_exptl_crystal_size_max          0.240
_exptl_crystal_size_mid          0.220
_exptl_crystal_size_min          0.200
_refine_diff_density_max         0.837
_refine_diff_density_min         -0.380
_refine_diff_density_rms         0.074
_refine_ls_abs_structure_details
;
 Refined as an inversion twin.
;
_refine_ls_abs_structure_Flack   0.988(14)
_refine_ls_extinction_method     none
_refine_ls_goodness_of_fit_ref   1.006
_refine_ls_hydrogen_treatment    constr
_refine_ls_matrix_type           full
_refine_ls_number_parameters     397
_refine_ls_number_reflns         8851
_refine_ls_number_restraints     3
_refine_ls_restrained_S_all      1.006
_refine_ls_R_factor_all          0.0654
_refine_ls_R_factor_gt           0.0493
_refine_ls_shift/su_max          0.001
_refine_ls_shift/su_mean         0.000
_refine_ls_structure_factor_coef Fsqd
_refine_ls_weighting_details
'w=1/[\s^2^(Fo^2^)+(0.0491P)^2^] where P=(Fo^2^+2Fc^2^)/3'
_refine_ls_weighting_scheme      calc
_refine_ls_wR_factor_gt          0.1043
_refine_ls_wR_factor_ref         0.1110
_reflns_Friedel_coverage         0.909
_reflns_Friedel_fraction_full    1.000
_reflns_Friedel_fraction_max     1.000
_reflns_number_gt                7021
_reflns_number_total             8851
_reflns_threshold_expression     'I > 2\s(I)'
_cod_data_source_file            c9dt00706g2.cif
_cod_data_source_block           mZnH
_cod_depositor_comments
'Adding full bibliography for 7049441--7049445.cif.'
_cod_database_code               7049441
_shelx_shelxl_version_number     2014/7
_shelx_space_group_comment
;
The symmetry employed for this shelxl refinement is uniquely defined
by the following loop, which should always be used as a source of
symmetry information in preference to the above space-group names.
They are only intended as comments.
;
_shelx_estimated_absorpt_t_min   0.814
_shelx_estimated_absorpt_t_max   0.841
_shelx_res_file
;

    1.res created by SHELXL-2014/7


TITL 1 in P2(1)
CELL 0.71073  11.2709  10.9305  13.2889  90.000 109.961  90.000
ZERR    2.00   0.0017   0.0016   0.0020   0.000   0.002   0.000
LATT -1
SYMM -X, 0.5+Y, -Z
SFAC C H N O P ZN
UNIT 72 58 8 6 2 2

TEMP -123.000
omit -2 60
omit   0   0   1
omit  -1   0   1
omit  -2   0   1
omit   0  -2   1

size 0.24 0.22 0.2

twin
acta
L.S. 14
BOND
FMAP 2
PLAN 20
dfix 1.45 0.001 c28a c29a c29a c30a
eadp c12 > c15a
eadp c28 > c32a
WGHT    0.049100
BASF   0.98755
FVAR       0.12962
ZN1   6    0.744945    0.201521    0.351268    11.00000    0.02823    0.02487 =
         0.03188   -0.00520    0.00843    0.00089
P1    5    0.979088    0.002818    0.354081    11.00000    0.03426    0.02475 =
         0.02580    0.00054    0.01079    0.00583
N1    3    0.690460    0.192764    0.185741    11.00000    0.03602    0.03285 =
         0.03620   -0.01123    0.00481    0.00659
N2    3    0.599755    0.082815    0.343794    11.00000    0.03051    0.03371 =
         0.05451   -0.00983    0.01303   -0.00523
N3    3    0.763484    0.240842    0.507553    11.00000    0.03027    0.02495 =
         0.03663   -0.00711    0.01510   -0.00433
N4    3    0.850301    0.354431    0.350444    11.00000    0.03342    0.02432 =
         0.02630   -0.00079    0.00973    0.00192
O1    4    0.889268    0.073773    0.388774    11.00000    0.04109    0.03952 =
         0.03283    0.00236    0.01336    0.01351
O2    4    0.910410   -0.078503    0.253613    11.00000    0.04013    0.04017 =
         0.02853   -0.00365    0.00989    0.00470
O3    4    1.062357    0.081178    0.305469    11.00000    0.04612    0.03435 =
         0.03221    0.00578    0.01533    0.00138
C1    1    0.745844    0.255449    0.122999    11.00000    0.05751    0.03670 =
         0.02800   -0.00380    0.00942    0.01364
C2    1    0.695318    0.206864    0.014709    11.00000    0.08490    0.05161 =
         0.03221   -0.00183    0.01280    0.00078
AFIX  43
H2A   2    0.717685    0.232364   -0.044790    11.00000   -1.20000
AFIX   0
C3    1    0.612117    0.120258    0.014116    11.00000    0.07381    0.05737 =
         0.03967   -0.01350    0.00030   -0.00150
AFIX  43
H3A   2    0.564026    0.072854   -0.045858    11.00000   -1.20000
AFIX   0
C4    1    0.608425    0.111680    0.120402    11.00000    0.04202    0.04324 =
         0.04382   -0.01187    0.00422    0.00307
C5    1    0.534932    0.031184    0.153433    11.00000    0.03742    0.05292 =
         0.05045   -0.02165    0.00003    0.00001
AFIX  43
H5A   2    0.481667   -0.021095    0.099822    11.00000   -1.20000
AFIX   0
C6    1    0.529361    0.017276    0.255799    11.00000    0.02394    0.05504 =
         0.06079   -0.01359    0.00750   -0.00751
C7    1    0.451210   -0.068002    0.286634    11.00000    0.05165    0.06316 =
         0.09086   -0.04032    0.03196   -0.03170
AFIX  43
H7A   2    0.392973   -0.123761    0.240587    11.00000   -1.20000
AFIX   0
C8    1    0.474789   -0.055084    0.390829    11.00000    0.04975    0.05306 =
         0.08033   -0.02197    0.03374   -0.02480
AFIX  43
H8A   2    0.436718   -0.099789    0.433073    11.00000   -1.20000
AFIX   0
C9    1    0.569457    0.039921    0.428399    11.00000    0.03455    0.03412 =
         0.06357   -0.01347    0.02244   -0.00681
C10   1    0.621636    0.081191    0.533887    11.00000    0.04153    0.02931 =
         0.06265   -0.00811    0.03300   -0.00516
C11   1    0.575103    0.024031    0.614897    11.00000    0.07363    0.04168 =
         0.07068   -0.02557    0.05185   -0.03155
PART   1
C12   1    0.608851   -0.080700    0.655388    10.50000    0.08740    0.04093 =
         0.08075   -0.00896    0.05178   -0.02266
AFIX  43
H12A  2    0.667325   -0.127763    0.634382    10.50000   -1.20000
AFIX   0
C13   1    0.558011   -0.128221    0.733641    10.50000    0.08740    0.04093 =
         0.08075   -0.00896    0.05178   -0.02266
AFIX  43
H13A  2    0.589707   -0.202046    0.770832    10.50000   -1.20000
AFIX   0
C14   1    0.465706   -0.066570    0.752773    10.50000    0.08740    0.04093 =
         0.08075   -0.00896    0.05178   -0.02266
AFIX  43
H14A  2    0.428932   -0.099579    0.801405    10.50000   -1.20000
AFIX   0
C15   1    0.423884    0.039946    0.705467    10.50000    0.08740    0.04093 =
         0.08075   -0.00896    0.05178   -0.02266
AFIX  43
H15A  2    0.358597    0.082081    0.721214    10.50000   -1.20000
AFIX   0
C16   1    0.474511    0.089554    0.633871    10.50000    0.08740    0.04093 =
         0.08075   -0.00896    0.05178   -0.02266
AFIX  43
H16A  2    0.443905    0.164518    0.598301    10.50000   -1.20000
AFIX   0
PART   2
C12A  1    0.670907   -0.062564    0.699326    10.50000    0.08740    0.04093 =
         0.08075   -0.00896    0.05178   -0.02266
AFIX  43
H12B  2    0.753461   -0.073338    0.696754    10.50000   -1.20000
AFIX   0
C13A  1    0.637359   -0.122775    0.776571    10.50000    0.08740    0.04093 =
         0.08075   -0.00896    0.05178   -0.02266
AFIX  43
H13B  2    0.693431   -0.176634    0.826717    10.50000   -1.20000
AFIX   0
C14A  1    0.516839   -0.099716    0.776350    10.50000    0.08740    0.04093 =
         0.08075   -0.00896    0.05178   -0.02266
AFIX  43
H14B  2    0.487002   -0.149440    0.821303    10.50000   -1.20000
AFIX   0
C15A  1    0.441626   -0.017650    0.721267    10.50000    0.08740    0.04093 =
         0.08075   -0.00896    0.05178   -0.02266
AFIX  43
H15B  2    0.366885    0.003412    0.735128    10.50000   -1.20000
AFIX   0
C16A  1    0.473742    0.040944    0.638595    10.50000    0.03343    0.12179 =
         0.06979   -0.02544    0.03392   -0.03960
AFIX  43
H16C  2    0.414710    0.098652    0.596148    10.50000   -1.20000
AFIX   0
PART   0
C17   1    0.711706    0.174123    0.570761    11.00000    0.03578    0.02492 =
         0.04862   -0.00735    0.02461   -0.00153
C18   1    0.762608    0.214062    0.678754    11.00000    0.04055    0.02993 =
         0.04109   -0.00204    0.02583   -0.00624
AFIX  43
H18A  2    0.742915    0.181899    0.737583    11.00000   -1.20000
AFIX   0
C19   1    0.844462    0.306477    0.682694    11.00000    0.03971    0.03247 =
         0.03019   -0.00133    0.01544   -0.00558
AFIX  43
H19A  2    0.891851    0.351916    0.744232    11.00000   -1.20000
AFIX   0
C20   1    0.845505    0.322420    0.574238    11.00000    0.03096    0.02066 =
         0.03039   -0.00076    0.01540    0.00158
C21   1    1.081079   -0.090891    0.458354    11.00000    0.03307    0.02229 =
         0.02627    0.00331    0.01337    0.00132
C22   1    0.915157    0.426514    0.435472    11.00000    0.03663    0.02436 =
         0.02677    0.00323    0.01473    0.00360
C23   1    0.980113    0.521747    0.398047    11.00000    0.04852    0.03252 =
         0.03106    0.00038    0.01794   -0.00999
AFIX  43
H23A  2    1.030784    0.585214    0.440171    11.00000   -1.20000
AFIX   0
C24   1    0.955114    0.503283    0.292622    11.00000    0.05729    0.03471 =
         0.02958    0.00389    0.02006   -0.00177
AFIX  43
H24A  2    0.985191    0.551171    0.246703    11.00000   -1.20000
AFIX   0
C25   1    0.875575    0.399131    0.262716    11.00000    0.04465    0.02728 =
         0.03119   -0.00090    0.01569    0.00416
C26   1    0.832097    0.351195    0.158871    11.00000    0.05310    0.03099 =
         0.02707   -0.00040    0.01332    0.00948
C27   1    0.885760    0.407652    0.081584    11.00000    0.09004    0.03507 =
         0.03413   -0.00496    0.03121    0.00069
PART   1
C28   1    0.832818    0.480755   -0.002287    10.50000    0.06815    0.07941 =
         0.03491    0.00986    0.01846    0.00755
AFIX  43
H28A  2    0.746010    0.500368   -0.019592    10.50000   -1.20000
AFIX   0
C29   1    0.897751    0.531166   -0.067386    10.50000    0.06815    0.07941 =
         0.03491    0.00986    0.01846    0.00755
AFIX  43
H29A  2    0.854020    0.577070   -0.129744    10.50000   -1.20000
AFIX   0
C30   1    1.023515    0.511955   -0.038071    10.50000    0.06815    0.07941 =
         0.03491    0.00986    0.01846    0.00755
AFIX  43
H30A  2    1.066728    0.547135   -0.081116    10.50000   -1.20000
AFIX   0
C31   1    1.090037    0.447886    0.045968    10.50000    0.06815    0.07941 =
         0.03491    0.00986    0.01846    0.00755
AFIX  43
H31A  2    1.178577    0.439674    0.062502    10.50000   -1.20000
AFIX   0
C32   1    1.033013    0.393234    0.109465    10.50000    0.06815    0.07941 =
         0.03491    0.00986    0.01846    0.00755
AFIX  43
H32A  2    1.081325    0.346814    0.170030    10.50000   -1.20000
AFIX   0
PART   2
C28A  1    0.804027    0.500042    0.015111    10.50000    0.06815    0.07941 =
         0.03491    0.00986    0.01846    0.00755
AFIX  43
H28B  2    0.722693    0.516396    0.018498    10.50000   -1.20000
AFIX   0
C29A  1    0.852691    0.566356   -0.056924    10.50000    0.06815    0.07941 =
         0.03491    0.00986    0.01846    0.00755
AFIX   3
H29B  2    0.804391    0.606066   -0.121514    10.50000   -1.20000
AFIX   0
C30A  1    0.973980    0.530246   -0.062595    10.50000    0.06815    0.07941 =
         0.03491    0.00986    0.01846    0.00755
AFIX  43
H30B  2    1.004460    0.563964   -0.115014    10.50000   -1.20000
AFIX   0
C31A  1    1.041300    0.448307    0.008016    10.50000    0.06815    0.07941 =
         0.03491    0.00986    0.01846    0.00755
AFIX  43
H31B  2    1.128041    0.436607    0.017757    10.50000   -1.20000
AFIX   0
C32A  1    0.983589    0.378216    0.068926    10.50000    0.06815    0.07941 =
         0.03491    0.00986    0.01846    0.00755
AFIX  43
H32B  2    1.023624    0.304675    0.101325    10.50000   -1.20000
AFIX   0
PART   0
C33   1    0.813340   -0.163113    0.256823    11.00000    0.05169    0.03970 =
         0.05356   -0.00938    0.01746   -0.00300
AFIX  23
H33A  2    0.749871   -0.120188    0.280200    11.00000   -1.20000
H33B  2    0.850914   -0.229643    0.308424    11.00000   -1.20000
AFIX   0
C34   1    0.751938   -0.215081    0.147406    11.00000    0.07519    0.07587 =
         0.06982   -0.03135    0.01381   -0.02480
AFIX 137
H34A  2    0.687558   -0.274632    0.148892    11.00000   -1.50000
H34B  2    0.815699   -0.255674    0.124155    11.00000   -1.50000
H34C  2    0.712249   -0.149051    0.097345    11.00000   -1.50000
AFIX   0
C35   1    1.183946    0.135339    0.371352    11.00000    0.07673    0.04440 =
         0.05721    0.00635    0.03373   -0.00507
AFIX  23
H35A  2    1.238295    0.070436    0.415774    11.00000   -1.20000
H35B  2    1.227028    0.168598    0.323642    11.00000   -1.20000
AFIX   0
C36   1    1.168952    0.233195    0.441345    11.00000    0.07092    0.06611 =
         0.07327   -0.00702    0.03144   -0.01336
AFIX 137
H36A  2    1.251147    0.271026    0.478433    11.00000   -1.50000
H36B  2    1.135094    0.198969    0.494131    11.00000   -1.50000
H36C  2    1.110582    0.295066    0.398305    11.00000   -1.50000

AFIX   0
HKLF 4

REM  1 in P2(1)
REM R1 =  0.0493 for    7021 Fo > 4sig(Fo)  and  0.0654 for all    8851 data
REM    397 parameters refined using      3 restraints

END

WGHT      0.0540      0.0000

REM Highest difference peak  0.837,  deepest hole -0.380,  1-sigma level  0.074
Q1    1   1.1159  0.1962  0.3649  11.00000  0.05    0.67
Q2    1   0.7071  0.1605  0.3776  11.00000  0.05    0.52
Q3    1   0.7214  0.2452  0.3951  11.00000  0.05    0.52
Q4    1   0.8017  0.2222  0.4101  11.00000  0.05    0.50
Q5    1   0.6659  0.2046  0.2934  11.00000  0.05    0.47
Q6    1   0.5753 -0.1334  0.8122  11.00000  0.05    0.45
Q7    1   0.8222  0.1576  0.3507  11.00000  0.05    0.43
Q8    1   1.0336 -0.0315  0.4129  11.00000  0.05    0.39
Q9    1   0.9852  0.4355 -0.0391  11.00000  0.05    0.38
Q10   1   1.0234  0.0446  0.3221  11.00000  0.05    0.38
Q11   1   0.7783  0.1638  0.3099  11.00000  0.05    0.38
Q12   1   0.7610  0.2407  0.2941  11.00000  0.05    0.37
Q13   1   0.8223  0.2458  0.3597  11.00000  0.05    0.37
Q14   1   0.6208 -0.0038  0.6578  11.00000  0.05    0.36
Q15   1   0.7557  0.2008  0.6314  11.00000  0.05    0.35
Q16   1   0.9529  0.0455  0.4021  11.00000  0.05    0.34
Q17   1   1.2826  0.1593  0.3929  11.00000  0.05    0.34
Q18   1   0.9393  0.0630  0.3615  11.00000  0.05    0.34
Q19   1   0.9392  0.3572  0.0323  11.00000  0.05    0.34
Q20   1   0.5971  0.0623  0.3875  11.00000  0.05    0.33
;
_shelx_res_checksum              26017
loop_
_space_group_symop_operation_xyz
'x, y, z'
'-x, y+1/2, -z'
loop_
_atom_site_label
_atom_site_type_symbol
_atom_site_fract_x
_atom_site_fract_y
_atom_site_fract_z
_atom_site_U_iso_or_equiv
_atom_site_adp_type
_atom_site_occupancy
_atom_site_site_symmetry_order
_atom_site_calc_flag
_atom_site_refinement_flags_posn
_atom_site_refinement_flags_adp
_atom_site_refinement_flags_occupancy
_atom_site_disorder_assembly
_atom_site_disorder_group
Zn1 Zn 0.74494(4) 0.20152(6) 0.35127(3) 0.02880(12) Uani 1 1 d . . . . .
P1 P 0.97909(10) 0.00282(10) 0.35408(8) 0.0281(2) Uani 1 1 d . . . . .
N1 N 0.6905(3) 0.1928(4) 0.1857(3) 0.0370(8) Uani 1 1 d . . . . .
N2 N 0.5998(3) 0.0828(4) 0.3438(3) 0.0400(9) Uani 1 1 d . . . . .
N3 N 0.7635(3) 0.2408(3) 0.5076(3) 0.0297(8) Uani 1 1 d . . . . .
N4 N 0.8503(3) 0.3544(3) 0.3504(3) 0.0281(7) Uani 1 1 d . . . . .
O1 O 0.8893(3) 0.0738(3) 0.3888(2) 0.0376(7) Uani 1 1 d . . . . .
O2 O 0.9104(3) -0.0785(3) 0.2536(2) 0.0367(7) Uani 1 1 d . . . . .
O3 O 1.0624(3) 0.0812(3) 0.3055(2) 0.0371(7) Uani 1 1 d . . . . .
C1 C 0.7458(5) 0.2554(5) 0.1230(4) 0.0421(11) Uani 1 1 d . . . . .
C2 C 0.6953(5) 0.2069(8) 0.0147(4) 0.0581(13) Uani 1 1 d . . . . .
H2A H 0.7177 0.2324 -0.0448 0.070 Uiso 1 1 calc R U . . .
C3 C 0.6121(6) 0.1203(6) 0.0141(4) 0.0619(16) Uani 1 1 d . . . . .
H3A H 0.5640 0.0729 -0.0459 0.074 Uiso 1 1 calc R U . . .
C4 C 0.6084(4) 0.1117(5) 0.1204(4) 0.0457(12) Uani 1 1 d . . . . .
C5 C 0.5349(4) 0.0312(5) 0.1534(4) 0.0508(14) Uani 1 1 d . . . . .
H5A H 0.4817 -0.0211 0.0998 0.061 Uiso 1 1 calc R U . . .
C6 C 0.5294(4) 0.0173(6) 0.2558(5) 0.0484(13) Uani 1 1 d . . . . .
C7 C 0.4512(6) -0.0680(6) 0.2866(6) 0.0666(18) Uani 1 1 d . . . . .
H7A H 0.3930 -0.1238 0.2406 0.080 Uiso 1 1 calc R U . . .
C8 C 0.4748(5) -0.0551(6) 0.3908(5) 0.0581(15) Uani 1 1 d . . . . .
H8A H 0.4367 -0.0998 0.4331 0.070 Uiso 1 1 calc R U . . .
C9 C 0.5695(4) 0.0399(4) 0.4284(4) 0.0426(11) Uani 1 1 d . . . . .
C10 C 0.6216(4) 0.0812(4) 0.5339(4) 0.0406(11) Uani 1 1 d . . . . .
C11 C 0.5751(6) 0.0240(5) 0.6149(5) 0.0550(15) Uani 1 1 d . . . . .
C12 C 0.6089(14) -0.0807(11) 0.6554(12) 0.0637(15) Uani 0.5 1 d . . P A 1
H12A H 0.6673 -0.1278 0.6344 0.076 Uiso 0.5 1 calc R U P A 1
C13 C 0.5580(14) -0.1282(12) 0.7336(12) 0.0637(15) Uani 0.5 1 d . . P A 1
H13A H 0.5897 -0.2020 0.7708 0.076 Uiso 0.5 1 calc R U P A 1
C14 C 0.4657(16) -0.0666(14) 0.7528(14) 0.0637(15) Uani 0.5 1 d . . P A 1
H14A H 0.4289 -0.0996 0.8014 0.076 Uiso 0.5 1 calc R U P A 1
C15 C 0.4239(14) 0.0399(13) 0.7055(12) 0.0637(15) Uani 0.5 1 d . . P A 1
H15A H 0.3586 0.0821 0.7212 0.076 Uiso 0.5 1 calc R U P A 1
C16 C 0.475(2) 0.0896(14) 0.6339(19) 0.0637(15) Uani 0.5 1 d . . P A 1
H16A H 0.4439 0.1645 0.5983 0.076 Uiso 0.5 1 calc R U P A 1
C12A C 0.6709(14) -0.0626(11) 0.6993(11) 0.0637(15) Uani 0.5 1 d . . P A 2
H12B H 0.7535 -0.0733 0.6968 0.076 Uiso 0.5 1 calc R U P A 2
C13A C 0.6374(14) -0.1228(11) 0.7766(11) 0.0637(15) Uani 0.5 1 d . . P A 2
H13B H 0.6934 -0.1766 0.8267 0.076 Uiso 0.5 1 calc R U P A 2
C14A C 0.5168(16) -0.0997(12) 0.7764(13) 0.0637(15) Uani 0.5 1 d . . P A 2
H14B H 0.4870 -0.1494 0.8213 0.076 Uiso 0.5 1 calc R U P A 2
C15A C 0.4416(16) -0.0177(14) 0.7213(13) 0.0637(15) Uani 0.5 1 d . . P A 2
H15B H 0.3669 0.0034 0.7351 0.076 Uiso 0.5 1 calc R U P A 2
C16A C 0.4737(14) 0.0409(17) 0.6386(15) 0.071(6) Uani 0.5 1 d . . P A 2
H16C H 0.4147 0.0987 0.5961 0.085 Uiso 0.5 1 calc R U P A 2
C17 C 0.7117(4) 0.1741(4) 0.5708(4) 0.0338(10) Uani 1 1 d . . . . .
C18 C 0.7626(4) 0.2141(5) 0.6788(3) 0.0341(10) Uani 1 1 d . . . . .
H18A H 0.7429 0.1819 0.7376 0.041 Uiso 1 1 calc R U . . .
C19 C 0.8445(4) 0.3065(4) 0.6827(3) 0.0332(9) Uani 1 1 d . . . . .
H19A H 0.8919 0.3519 0.7442 0.040 Uiso 1 1 calc R U . . .
C20 C 0.8455(4) 0.3224(3) 0.5742(3) 0.0261(8) Uani 1 1 d . . . . .
C21 C 1.0811(4) -0.0909(4) 0.4584(3) 0.0264(8) Uani 1 1 d . . . . .
C22 C 0.9152(4) 0.4265(4) 0.4355(3) 0.0282(8) Uani 1 1 d . . . . .
C23 C 0.9801(4) 0.5217(4) 0.3980(3) 0.0362(10) Uani 1 1 d . . . . .
H23A H 1.0308 0.5852 0.4402 0.043 Uiso 1 1 calc R U . . .
C24 C 0.9551(5) 0.5033(5) 0.2926(3) 0.0392(10) Uani 1 1 d . . . . .
H24A H 0.9852 0.5512 0.2467 0.047 Uiso 1 1 calc R U . . .
C25 C 0.8756(4) 0.3991(4) 0.2627(3) 0.0337(9) Uani 1 1 d . . . . .
C26 C 0.8321(4) 0.3512(4) 0.1589(3) 0.0371(10) Uani 1 1 d . . . . .
C27 C 0.8858(6) 0.4077(5) 0.0816(4) 0.0505(13) Uani 1 1 d . . . . .
C28 C 0.8328(15) 0.4808(14) -0.0023(10) 0.0606(12) Uani 0.5 1 d . . P B 1
H28A H 0.7460 0.5004 -0.0196 0.073 Uiso 0.5 1 calc R U P B 1
C29 C 0.8978(14) 0.5312(14) -0.0674(9) 0.0606(12) Uani 0.5 1 d . . P B 1
H29A H 0.8540 0.5771 -0.1297 0.073 Uiso 0.5 1 calc R U P B 1
C30 C 1.0235(14) 0.5120(16) -0.0381(10) 0.0606(12) Uani 0.5 1 d . . P B 1
H30A H 1.0667 0.5471 -0.0811 0.073 Uiso 0.5 1 calc R U P B 1
C31 C 1.0900(14) 0.4479(15) 0.0460(9) 0.0606(12) Uani 0.5 1 d . . P B 1
H31A H 1.1786 0.4397 0.0625 0.073 Uiso 0.5 1 calc R U P B 1
C32 C 1.0330(13) 0.3932(14) 0.1095(9) 0.0606(12) Uani 0.5 1 d . . P B 1
H32A H 1.0813 0.3468 0.1700 0.073 Uiso 0.5 1 calc R U P B 1
C28A C 0.8040(14) 0.5000(13) 0.0151(10) 0.0606(12) Uani 0.5 1 d D . P B 2
H28B H 0.7227 0.5164 0.0185 0.073 Uiso 0.5 1 calc R U P B 2
C29A C 0.8527(11) 0.5664(13) -0.0569(9) 0.0606(12) Uani 0.5 1 d D . P B 2
H29B H 0.8044 0.6061 -0.1215 0.073 Uiso 0.5 1 d R U P B 2
C30A C 0.9740(11) 0.5302(15) -0.0626(10) 0.0606(12) Uani 0.5 1 d D . P B 2
H30B H 1.0045 0.5640 -0.1150 0.073 Uiso 0.5 1 calc R U P B 2
C31A C 1.0413(13) 0.4483(15) 0.0080(10) 0.0606(12) Uani 0.5 1 d . . P B 2
H31B H 1.1280 0.4366 0.0178 0.073 Uiso 0.5 1 calc R U P B 2
C32A C 0.9836(14) 0.3782(15) 0.0689(9) 0.0606(12) Uani 0.5 1 d . . P B 2
H32B H 1.0236 0.3047 0.1013 0.073 Uiso 0.5 1 calc R U P B 2
C33 C 0.8133(5) -0.1631(5) 0.2568(4) 0.0485(12) Uani 1 1 d . . . . .
H33A H 0.7499 -0.1202 0.2802 0.058 Uiso 1 1 calc R U . . .
H33B H 0.8509 -0.2296 0.3084 0.058 Uiso 1 1 calc R U . . .
C34 C 0.7519(6) -0.2151(7) 0.1474(5) 0.076(2) Uani 1 1 d . . . . .
H34A H 0.6876 -0.2746 0.1489 0.115 Uiso 1 1 calc R U . . .
H34B H 0.8157 -0.2557 0.1242 0.115 Uiso 1 1 calc R U . . .
H34C H 0.7122 -0.1491 0.0973 0.115 Uiso 1 1 calc R U . . .
C35 C 1.1839(6) 0.1353(5) 0.3714(5) 0.0566(14) Uani 1 1 d . . . . .
H35A H 1.2383 0.0704 0.4158 0.068 Uiso 1 1 calc R U . . .
H35B H 1.2270 0.1686 0.3236 0.068 Uiso 1 1 calc R U . . .
C36 C 1.1690(6) 0.2332(6) 0.4413(5) 0.0683(18) Uani 1 1 d . . . . .
H36A H 1.2511 0.2710 0.4784 0.103 Uiso 1 1 calc R U . . .
H36B H 1.1351 0.1990 0.4941 0.103 Uiso 1 1 calc R U . . .
H36C H 1.1106 0.2951 0.3983 0.103 Uiso 1 1 calc R U . . .
loop_
_atom_site_aniso_label
_atom_site_aniso_U_11
_atom_site_aniso_U_22
_atom_site_aniso_U_33
_atom_site_aniso_U_23
_atom_site_aniso_U_13
_atom_site_aniso_U_12
Zn1 0.0282(2) 0.0249(2) 0.0319(2) -0.0052(2) 0.00843(16) 0.0009(2)
P1 0.0343(5) 0.0248(5) 0.0258(5) 0.0005(4) 0.0108(4) 0.0058(4)
N1 0.0360(17) 0.0329(18) 0.0362(17) -0.011(2) 0.0048(13) 0.007(2)
N2 0.0305(18) 0.0337(19) 0.055(2) -0.0098(18) 0.0130(17) -0.0052(16)
N3 0.0303(17) 0.0250(17) 0.0366(18) -0.0071(13) 0.0151(15) -0.0043(13)
N4 0.0334(19) 0.0243(17) 0.0263(17) -0.0008(14) 0.0097(15) 0.0019(14)
O1 0.0411(18) 0.0395(18) 0.0328(17) 0.0024(14) 0.0134(14) 0.0135(14)
O2 0.0401(17) 0.0402(19) 0.0285(15) -0.0037(13) 0.0099(13) 0.0047(14)
O3 0.0461(18) 0.0344(16) 0.0322(15) 0.0058(13) 0.0153(13) 0.0014(14)
C1 0.058(3) 0.037(2) 0.028(2) -0.0038(18) 0.009(2) 0.014(2)
C2 0.085(4) 0.052(3) 0.032(2) -0.002(3) 0.013(2) 0.001(4)
C3 0.074(4) 0.057(3) 0.040(3) -0.014(3) 0.000(3) -0.002(3)
C4 0.042(3) 0.043(3) 0.044(3) -0.012(2) 0.004(2) 0.003(2)
C5 0.037(3) 0.053(3) 0.050(3) -0.022(2) 0.000(2) 0.000(2)
C6 0.024(2) 0.055(3) 0.061(3) -0.014(3) 0.007(2) -0.008(2)
C7 0.052(3) 0.063(4) 0.091(5) -0.040(4) 0.032(3) -0.032(3)
C8 0.050(3) 0.053(3) 0.080(4) -0.022(3) 0.034(3) -0.025(3)
C9 0.035(2) 0.034(2) 0.064(3) -0.013(2) 0.022(2) -0.0068(19)
C10 0.042(2) 0.029(2) 0.063(3) -0.008(2) 0.033(2) -0.0052(19)
C11 0.074(4) 0.042(3) 0.071(4) -0.026(3) 0.052(3) -0.032(3)
C12 0.087(4) 0.041(3) 0.081(4) -0.009(3) 0.052(3) -0.023(3)
C13 0.087(4) 0.041(3) 0.081(4) -0.009(3) 0.052(3) -0.023(3)
C14 0.087(4) 0.041(3) 0.081(4) -0.009(3) 0.052(3) -0.023(3)
C15 0.087(4) 0.041(3) 0.081(4) -0.009(3) 0.052(3) -0.023(3)
C16 0.087(4) 0.041(3) 0.081(4) -0.009(3) 0.052(3) -0.023(3)
C12A 0.087(4) 0.041(3) 0.081(4) -0.009(3) 0.052(3) -0.023(3)
C13A 0.087(4) 0.041(3) 0.081(4) -0.009(3) 0.052(3) -0.023(3)
C14A 0.087(4) 0.041(3) 0.081(4) -0.009(3) 0.052(3) -0.023(3)
C15A 0.087(4) 0.041(3) 0.081(4) -0.009(3) 0.052(3) -0.023(3)
C16A 0.033(5) 0.122(16) 0.070(8) -0.025(11) 0.034(6) -0.040(9)
C17 0.036(2) 0.025(2) 0.049(2) -0.0074(17) 0.0246(19) -0.0015(15)
C18 0.041(2) 0.030(3) 0.041(2) -0.002(2) 0.0258(17) -0.006(2)
C19 0.040(2) 0.032(2) 0.030(2) -0.0013(17) 0.0154(18) -0.0056(18)
C20 0.031(2) 0.0207(18) 0.0304(19) -0.0008(15) 0.0154(16) 0.0016(15)
C21 0.033(2) 0.0223(18) 0.0263(19) 0.0033(15) 0.0134(16) 0.0013(15)
C22 0.037(2) 0.0244(19) 0.0268(19) 0.0032(15) 0.0147(16) 0.0036(16)
C23 0.049(3) 0.033(2) 0.031(2) 0.0004(18) 0.0179(19) -0.010(2)
C24 0.057(3) 0.035(2) 0.030(2) 0.004(2) 0.020(2) -0.002(2)
C25 0.045(2) 0.027(2) 0.031(2) -0.0009(17) 0.0157(18) 0.0042(18)
C26 0.053(3) 0.031(2) 0.027(2) -0.0004(17) 0.0133(19) 0.009(2)
C27 0.090(4) 0.035(3) 0.034(2) -0.005(2) 0.031(3) 0.001(3)
C28 0.068(4) 0.079(3) 0.035(2) 0.010(2) 0.0185(19) 0.008(3)
C29 0.068(4) 0.079(3) 0.035(2) 0.010(2) 0.0185(19) 0.008(3)
C30 0.068(4) 0.079(3) 0.035(2) 0.010(2) 0.0185(19) 0.008(3)
C31 0.068(4) 0.079(3) 0.035(2) 0.010(2) 0.0185(19) 0.008(3)
C32 0.068(4) 0.079(3) 0.035(2) 0.010(2) 0.0185(19) 0.008(3)
C28A 0.068(4) 0.079(3) 0.035(2) 0.010(2) 0.0185(19) 0.008(3)
C29A 0.068(4) 0.079(3) 0.035(2) 0.010(2) 0.0185(19) 0.008(3)
C30A 0.068(4) 0.079(3) 0.035(2) 0.010(2) 0.0185(19) 0.008(3)
C31A 0.068(4) 0.079(3) 0.035(2) 0.010(2) 0.0185(19) 0.008(3)
C32A 0.068(4) 0.079(3) 0.035(2) 0.010(2) 0.0185(19) 0.008(3)
C33 0.052(3) 0.040(3) 0.054(3) -0.009(2) 0.017(2) -0.003(2)
C34 0.075(4) 0.076(5) 0.070(4) -0.031(4) 0.014(3) -0.025(4)
C35 0.077(4) 0.044(3) 0.057(3) 0.006(3) 0.034(3) -0.005(3)
C36 0.071(4) 0.066(5) 0.073(4) -0.007(3) 0.031(3) -0.013(3)
loop_
_atom_type_symbol
_atom_type_description
_atom_type_scat_dispersion_real
_atom_type_scat_dispersion_imag
_atom_type_scat_source
C C 0.0033 0.0016 'International Tables Vol C Tables 4.2.6.8 and 6.1.1.4'
H H 0.0000 0.0000 'International Tables Vol C Tables 4.2.6.8 and 6.1.1.4'
N N 0.0061 0.0033 'International Tables Vol C Tables 4.2.6.8 and 6.1.1.4'
O O 0.0106 0.0060 'International Tables Vol C Tables 4.2.6.8 and 6.1.1.4'
P P 0.1023 0.0942 'International Tables Vol C Tables 4.2.6.8 and 6.1.1.4'
Zn Zn 0.2839 1.4301 'International Tables Vol C Tables 4.2.6.8 and 6.1.1.4'
loop_
_geom_angle_atom_site_label_1
_geom_angle_atom_site_label_2
_geom_angle_atom_site_label_3
_geom_angle
_geom_angle_site_symmetry_1
_geom_angle_site_symmetry_3
N4 Zn1 N3 88.61(13) . .
N4 Zn1 N2 164.21(14) . .
N3 Zn1 N2 89.17(14) . .
N4 Zn1 O1 98.16(14) . .
N3 Zn1 O1 95.57(13) . .
N2 Zn1 O1 97.61(15) . .
N4 Zn1 N1 89.67(16) . .
N3 Zn1 N1 165.92(14) . .
N2 Zn1 N1 88.69(16) . .
O1 Zn1 N1 98.51(13) . .
O1 P1 O3 114.56(19) . .
O1 P1 O2 111.91(18) . .
O3 P1 O2 98.62(17) . .
O1 P1 C21 112.86(18) . .
O3 P1 C21 108.41(18) . .
O2 P1 C21 109.52(18) . .
C4 N1 C1 106.7(4) . .
C4 N1 Zn1 126.7(4) . .
C1 N1 Zn1 125.9(3) . .
C9 N2 C6 106.8(4) . .
C9 N2 Zn1 126.4(3) . .
C6 N2 Zn1 126.0(4) . .
C20 N3 C17 106.4(3) . .
C20 N3 Zn1 127.0(3) . .
C17 N3 Zn1 125.7(3) . .
C22 N4 C25 106.7(3) . .
C22 N4 Zn1 127.7(3) . .
C25 N4 Zn1 125.4(3) . .
P1 O1 Zn1 148.1(2) . .
C33 O2 P1 119.7(3) . .
C35 O3 P1 122.8(3) . .
N1 C1 C26 124.8(4) . .
N1 C1 C2 108.1(5) . .
C26 C1 C2 127.1(5) . .
C3 C2 C1 107.6(5) . .
C2 C3 C4 107.4(5) . .
N1 C4 C5 124.4(5) . .
N1 C4 C3 110.2(5) . .
C5 C4 C3 125.4(5) . .
C4 C5 C6 127.8(5) . .
N2 C6 C5 124.8(5) . .
N2 C6 C7 109.2(5) . .
C5 C6 C7 126.0(5) . .
C8 C7 C6 107.8(5) . .
C7 C8 C9 107.3(5) . .
N2 C9 C10 125.3(4) . .
N2 C9 C8 108.9(5) . .
C10 C9 C8 125.8(5) . .
C9 C10 C17 126.3(4) . .
C9 C10 C11 117.3(4) . .
C17 C10 C11 116.4(4) . .
C12 C11 C16 121.2(10) . .
C12 C11 C10 123.9(8) . .
C16A C11 C10 132.3(10) . .
C16 C11 C10 114.4(9) . .
C16A C11 C12A 111.0(11) . .
C10 C11 C12A 116.2(6) . .
C11 C12 C13 119.7(12) . .
C14 C13 C12 118.8(13) . .
C15 C14 C13 121.7(14) . .
C14 C15 C16 120.5(15) . .
C15 C16 C11 117.6(16) . .
C13A C12A C11 121.4(11) . .
C12A C13A C14A 115.6(14) . .
C15A C14A C13A 126.1(14) . .
C14A C15A C16A 117.7(15) . .
C11 C16A C15A 126.9(18) . .
N3 C17 C10 125.1(4) . .
N3 C17 C18 110.1(4) . .
C10 C17 C18 124.8(4) . .
C19 C18 C17 107.6(4) . .
C18 C19 C20 106.6(4) . .
N3 C20 C21 124.9(3) . 2_756
N3 C20 C19 109.3(3) . .
C21 C20 C19 125.8(4) 2_756 .
C22 C21 C20 125.0(4) 2_746 2_746
C22 C21 P1 119.3(3) 2_746 .
C20 C21 P1 115.7(3) 2_746 .
N4 C22 C21 125.1(4) . 2_756
N4 C22 C23 108.6(3) . .
C21 C22 C23 126.3(4) 2_756 .
C24 C23 C22 107.3(4) . .
C23 C24 C25 107.4(4) . .
N4 C25 C26 126.6(4) . .
N4 C25 C24 109.9(4) . .
C26 C25 C24 123.5(4) . .
C1 C26 C25 125.9(4) . .
C1 C26 C27 118.3(4) . .
C25 C26 C27 115.9(4) . .
C32A C27 C28A 121.3(8) . .
C32A C27 C26 125.9(8) . .
C28 C27 C26 130.7(8) . .
C28A C27 C26 112.7(6) . .
C28 C27 C32 112.9(9) . .
C26 C27 C32 115.9(6) . .
C27 C28 C29 124.3(12) . .
C30 C29 C28 118.1(12) . .
C31 C30 C29 124.4(13) . .
C30 C31 C32 120.5(14) . .
C31 C32 C27 119.4(10) . .
C27 C28A C29A 116.5(10) . .
C30A C29A C28A 118.3(11) . .
C31A C30A C29A 117.9(12) . .
C30A C31A C32A 120.1(12) . .
C27 C32A C31A 123.3(13) . .
O2 C33 C34 108.6(5) . .
C36 C35 O3 112.6(5) . .
loop_
_geom_bond_atom_site_label_1
_geom_bond_atom_site_label_2
_geom_bond_distance
_geom_bond_site_symmetry_2
Zn1 N4 2.052(4) .
Zn1 N3 2.060(3) .
Zn1 N2 2.064(4) .
Zn1 O1 2.071(3) .
Zn1 N1 2.074(3) .
P1 O1 1.469(3) .
P1 O3 1.564(3) .
P1 O2 1.570(3) .
P1 C21 1.790(4) .
N1 C4 1.359(6) .
N1 C1 1.382(6) .
N2 C9 1.365(6) .
N2 C6 1.370(6) .
N3 C20 1.370(5) .
N3 C17 1.383(5) .
N4 C22 1.367(5) .
N4 C25 1.380(5) .
O2 C33 1.444(6) .
O3 C35 1.475(7) .
C1 C26 1.397(7) .
C1 C2 1.455(7) .
C2 C3 1.331(9) .
C3 C4 1.430(8) .
C4 C5 1.379(8) .
C5 C6 1.391(8) .
C6 C7 1.435(8) .
C7 C8 1.325(9) .
C8 C9 1.450(7) .
C9 C10 1.397(7) .
C10 C17 1.401(6) .
C10 C11 1.487(7) .
C11 C12 1.267(15) .
C11 C16A 1.298(16) .
C11 C16 1.43(2) .
C11 C12A 1.579(17) .
C12 C13 1.444(17) .
C13 C14 1.33(2) .
C14 C15 1.331(19) .
C15 C16 1.38(2) .
C12A C13A 1.377(16) .
C13A C14A 1.38(2) .
C14A C15A 1.28(2) .
C15A C16A 1.42(2) .
C17 C18 1.420(6) .
C18 C19 1.357(7) .
C19 C20 1.456(6) .
C20 C21 1.419(5) 2_756
C21 C22 1.410(5) 2_746
C21 C20 1.419(5) 2_746
C22 C21 1.410(5) 2_756
C22 C23 1.454(6) .
C23 C24 1.347(6) .
C24 C25 1.419(7) .
C25 C26 1.399(6) .
C26 C27 1.492(7) .
C27 C32A 1.214(15) .
C27 C28 1.335(15) .
C27 C28A 1.447(15) .
C27 C32 1.580(15) .
C28 C29 1.421(17) .
C29 C30 1.352(19) .
C30 C31 1.315(17) .
C31 C32 1.361(17) .
C28A C29A 1.4495(14) .
C29A C30A 1.4493(14) .
C30A C31A 1.331(19) .
C31A C32A 1.423(19) .
C33 C34 1.493(7) .
C35 C36 1.465(8) .
