#------------------------------------------------------------------------------
#$Date: 2019-11-08 00:06:49 +0200 (Fri, 08 Nov 2019) $
#$Revision: 224186 $
#$URL: file:///home/coder/svn-repositories/cod/cif/7/04/96/7049603.cif $
#------------------------------------------------------------------------------
#
# This file is available in the Crystallography Open Database (COD),
# http://www.crystallography.net/
#
# All data on this site have been placed in the public domain by the
# contributors.
#
data_7049603
loop_
_publ_author_name
'Khan, Firoz Shah Tuglak'
'Shah, Syed Jehanger'
'Bhowmik, Susovan'
'Reinhard, Fabi\'an G Cant\'u'
'Sainna, Mala A.'
'de Visser, Sam P.'
'Rath, Sankar Prasad'
_publ_section_title
;
 Equatorial ligand plane perturbations lead to a spin-state change in an
 iron(iii) porphyrin dimer.
;
_journal_issue                   19
_journal_name_full
'Dalton transactions (Cambridge, England : 2003)'
_journal_page_first              6353
_journal_page_last               6357
_journal_paper_doi               10.1039/c9dt01182j
_journal_volume                  48
_journal_year                    2019
_chemical_formula_sum            'C86 H100 Cl2 Fe2 N8 O8'
_chemical_formula_weight         1556.33
_space_group_crystal_system      triclinic
_space_group_IT_number           2
_space_group_name_Hall           '-P 1'
_space_group_name_H-M_alt        'P -1'
_symmetry_space_group_name_Hall  '-P 1'
_symmetry_space_group_name_H-M   'P -1'
_atom_sites_solution_hydrogens   geom
_audit_creation_method           SHELXL-2018/3
_audit_update_record
;
2019-03-31 deposited with the CCDC.    2019-04-04 downloaded from the CCDC.
;
_cell_angle_alpha                64.626(2)
_cell_angle_beta                 78.507(2)
_cell_angle_gamma                71.060(2)
_cell_formula_units_Z            1
_cell_length_a                   10.8619(12)
_cell_length_b                   13.5788(15)
_cell_length_c                   15.2373(18)
_cell_measurement_reflns_used    999
_cell_measurement_temperature    100(2)
_cell_measurement_theta_max      27.0
_cell_measurement_theta_min      2.7
_cell_volume                     1915.9(4)
_computing_cell_refinement       'Bruker SAINT'
_computing_data_collection       'Bruker APEX'
_computing_data_reduction        'Bruker SAINT'
_computing_molecular_graphics    'SHELXL 5.1, XP (Sheldrick, 1994)'
_computing_publication_material  SHELXL-97
_computing_structure_refinement  'SHELXL-2018/3 (Sheldrick, 2018)'
_computing_structure_solution    'SHELXS-97 (Sheldrick, 2008)'
_diffrn_ambient_temperature      100(2)
_diffrn_measured_fraction_theta_full 0.984
_diffrn_measured_fraction_theta_max 0.980
_diffrn_measurement_device_type  'Bruker SMART APEX'
_diffrn_measurement_method       \w
_diffrn_radiation_type           MoK\a
_diffrn_radiation_wavelength     0.71073
_diffrn_reflns_av_R_equivalents  0.0384
_diffrn_reflns_av_unetI/netI     0.0829
_diffrn_reflns_Laue_measured_fraction_full 0.984
_diffrn_reflns_Laue_measured_fraction_max 0.980
_diffrn_reflns_limit_h_max       13
_diffrn_reflns_limit_h_min       -12
_diffrn_reflns_limit_k_max       16
_diffrn_reflns_limit_k_min       -16
_diffrn_reflns_limit_l_max       18
_diffrn_reflns_limit_l_min       -12
_diffrn_reflns_number            10445
_diffrn_reflns_point_group_measured_fraction_full 0.984
_diffrn_reflns_point_group_measured_fraction_max 0.980
_diffrn_reflns_theta_full        25.000
_diffrn_reflns_theta_max         25.497
_diffrn_reflns_theta_min         1.724
_diffrn_source                   'fine-focus sealed tube'
_exptl_absorpt_coefficient_mu    0.512
_exptl_absorpt_correction_T_max  0.920
_exptl_absorpt_correction_T_min  0.880
_exptl_absorpt_correction_type   multi-scan
_exptl_absorpt_process_details   'SADABS 2.05 (Sheldrick, 2002)'
_exptl_crystal_colour            'dark red'
_exptl_crystal_density_diffrn    1.349
_exptl_crystal_description       block
_exptl_crystal_F_000             822
_exptl_crystal_size_max          0.260
_exptl_crystal_size_mid          0.200
_exptl_crystal_size_min          0.160
_refine_diff_density_max         1.118
_refine_diff_density_min         -0.738
_refine_diff_density_rms         0.111
_refine_ls_extinction_method     none
_refine_ls_goodness_of_fit_ref   1.027
_refine_ls_hydrogen_treatment    constr
_refine_ls_matrix_type           full
_refine_ls_number_parameters     486
_refine_ls_number_reflns         7006
_refine_ls_number_restraints     0
_refine_ls_restrained_S_all      1.027
_refine_ls_R_factor_all          0.1106
_refine_ls_R_factor_gt           0.0691
_refine_ls_shift/su_max          0.000
_refine_ls_shift/su_mean         0.000
_refine_ls_structure_factor_coef Fsqd
_refine_ls_weighting_details
'w=1/[\s^2^(Fo^2^)+(0.0753P)^2^+6.3187P] where P=(Fo^2^+2Fc^2^)/3'
_refine_ls_weighting_scheme      calc
_refine_ls_wR_factor_gt          0.1562
_refine_ls_wR_factor_ref         0.1998
_reflns_Friedel_coverage         0.000
_reflns_number_gt                4747
_reflns_number_total             7006
_reflns_threshold_expression     'I > 2\s(I)'
_cod_data_source_file            c9dt01182j2.cif
_cod_data_source_block           shelx_CCDC1
_cod_depositor_comments
'Adding full bibliography for 7049602--7049603.cif.'
_cod_database_code               7049603
_shelx_shelxl_version_number     2018/3
_shelx_space_group_comment
;
The symmetry employed for this shelxl refinement is uniquely defined
by the following loop, which should always be used as a source of
symmetry information in preference to the above space-group names.
They are only intended as comments.
;
_shelx_estimated_absorpt_t_min   0.878
_shelx_estimated_absorpt_t_max   0.923
_shelx_res_file
;
TITL 3mayam in P -1
    shelx.res
    created by SHELXL-2018/3 at 20:42:33 on 29-Mar-2019
CELL  0.71073  10.8619  13.5788  15.2373   64.626   78.507   71.060
ZERR     1.00   0.0012   0.0015   0.0018    0.002    0.002    0.002
LATT   1
SFAC  C    H    N    O    CL   FE
UNIT  86  100   8    8    2    2
MERG   2
FMAP   2
PLAN   15
TEMP -173.0
OMIT -3 51.0
omit 0 -1 1
omit 6 16 6
omit 13 6 5
omit 7 -9 2
L.S.   12
size 0.26 0.20 0.16 ! red block
acta 50
WGHT    0.075300    6.318700
FVAR       0.27789
FE1   6    0.859192    0.413425    0.855975    11.00000    0.02815    0.01891 =
         0.01890   -0.00973    0.00451   -0.01033
CL1   5    0.646877    0.550000    0.694621    11.00000    0.02866    0.03700 =
         0.02765   -0.01333   -0.00031   -0.00573
O1    4    0.683440    0.502668    0.794499    11.00000    0.02627    0.03193 =
         0.02958   -0.01909    0.00986   -0.01117
O2    4    0.510135    0.603512    0.696851    11.00000    0.02468    0.04609 =
         0.03391   -0.01454   -0.00159   -0.00263
O3    4    0.676240    0.460660    0.661084    11.00000    0.04959    0.06662 =
         0.05187   -0.04483   -0.00811    0.00318
O4    4    0.718589    0.630473    0.634740    11.00000    0.03986    0.05897 =
         0.04016    0.00260    0.00728   -0.02002
N1    3    0.977724    0.504545    0.765483    11.00000    0.02518    0.01841 =
         0.01601   -0.00764   -0.00032   -0.00829
N2    3    0.834408    0.494570    0.943725    11.00000    0.02574    0.01975 =
         0.01950   -0.00715    0.00114   -0.00783
N3    3    0.781123    0.298021    0.965219    11.00000    0.02656    0.01977 =
         0.02448   -0.01216    0.00418   -0.00937
N4    3    0.925797    0.309157    0.785388    11.00000    0.02920    0.01646 =
         0.02524   -0.01194    0.00209   -0.00760
C1    1    1.035023    0.503777    0.675868    11.00000    0.01997    0.01829 =
         0.01304   -0.00529    0.00185   -0.00542
C2    1    1.108051    0.588341    0.629399    11.00000    0.02585    0.01324 =
         0.02240   -0.00264   -0.00630   -0.00549
C3    1    1.092035    0.640878    0.691359    11.00000    0.02415    0.02091 =
         0.02506   -0.01435    0.00046   -0.00837
C4    1    1.009814    0.590987    0.772784    11.00000    0.02431    0.01573 =
         0.02001   -0.00850    0.00194   -0.00693
C5    1    0.963545    0.628690    0.848038    11.00000    0.02574    0.01901 =
         0.02006   -0.00578   -0.00359   -0.00662
AFIX  43
H5A   2    0.991714    0.689363    0.845238    11.00000   -1.20000
AFIX   0
C6    1    0.880528    0.585557    0.926079    11.00000    0.02633    0.01406 =
         0.01854   -0.00900   -0.00180   -0.00690
C7    1    0.831586    0.627724    1.001872    11.00000    0.02667    0.02205 =
         0.02026   -0.00873   -0.00182   -0.00832
C8    1    0.751891    0.565118    1.064671    11.00000    0.02639    0.02176 =
         0.01584   -0.00476   -0.00239   -0.00921
C9    1    0.754640    0.482338    1.028490    11.00000    0.02164    0.02122 =
         0.01706   -0.00998    0.00184   -0.00574
C10   1    0.693065    0.396757    1.076556    11.00000    0.03062    0.02344 =
         0.01436   -0.00632    0.00505   -0.01318
AFIX  43
H10A  2    0.637646    0.397526    1.133134    11.00000   -1.20000
AFIX   0
C11   1    0.707451    0.309657    1.046993    11.00000    0.02784    0.02566 =
         0.02061   -0.01229    0.00736   -0.01405
C12   1    0.650626    0.216668    1.099604    11.00000    0.03708    0.02861 =
         0.02639   -0.01380    0.00525   -0.01428
C13   1    0.686406    0.149369    1.049233    11.00000    0.03607    0.02546 =
         0.02568   -0.01281    0.00591   -0.01437
C14   1    0.767719    0.199164    0.967302    11.00000    0.02420    0.01858 =
         0.02615   -0.00909    0.00158   -0.00871
C15   1    0.824202    0.157836    0.895459    11.00000    0.02843    0.01777 =
         0.02443   -0.01033    0.00301   -0.00976
AFIX  43
H15A  2    0.812360    0.087585    0.904828    11.00000   -1.20000
AFIX   0
C16   1    0.895829    0.208429    0.811783    11.00000    0.02752    0.01357 =
         0.01733   -0.00832    0.00021   -0.00351
C17   1    0.945974    0.163275    0.738127    11.00000    0.02175    0.02063 =
         0.02462   -0.00867   -0.00213   -0.00609
C18   1    1.001428    0.240582    0.663408    11.00000    0.01982    0.01653 =
         0.02243   -0.00566   -0.00506   -0.00615
C19   1    0.985410    0.332672    0.692224    11.00000    0.01492    0.02112 =
         0.01508   -0.01046    0.00105   -0.00295
C20   1    1.025372    0.431598    0.635785    11.00000    0.01986    0.01751 =
         0.01998   -0.00876    0.00139   -0.00536
C21   1    1.204082    0.601366    0.541744    11.00000    0.02648    0.02719 =
         0.02010   -0.01236    0.00861   -0.01545
AFIX  23
H21A  2    1.225211    0.674425    0.519438    11.00000   -1.20000
H21B  2    1.163920    0.602613    0.488248    11.00000   -1.20000
AFIX   0
C22   1    1.328684    0.505705    0.564415    11.00000    0.02520    0.04425 =
         0.03136   -0.02471    0.00593   -0.01013
AFIX 137
H22A  2    1.388376    0.516176    0.505713    11.00000   -1.50000
H22B  2    1.308077    0.433288    0.586286    11.00000   -1.50000
H22C  2    1.370137    0.505819    0.615899    11.00000   -1.50000
AFIX   0
C23   1    1.152678    0.732143    0.677522    11.00000    0.02786    0.02874 =
         0.02389   -0.01265    0.00414   -0.01394
AFIX  23
H23A  2    1.243440    0.714706    0.649259    11.00000   -1.20000
H23B  2    1.155942    0.732636    0.741797    11.00000   -1.20000
AFIX   0
C24   1    1.076806    0.850331    0.610559    11.00000    0.04554    0.02846 =
         0.03746   -0.01310   -0.00406   -0.01652
AFIX 137
H24A  2    1.116978    0.907198    0.606763    11.00000   -1.50000
H24B  2    0.986035    0.866973    0.636980    11.00000   -1.50000
H24C  2    1.079096    0.852076    0.545296    11.00000   -1.50000
AFIX   0
C25   1    0.863926    0.725709    1.005160    11.00000    0.04128    0.02012 =
         0.02761   -0.01575    0.00224   -0.01469
AFIX  23
H25A  2    0.956691    0.722034    0.982575    11.00000   -1.20000
H25B  2    0.852121    0.719335    1.073335    11.00000   -1.20000
AFIX   0
C26   1    0.777950    0.840684    0.941487    11.00000    0.03428    0.02019 =
         0.04323   -0.01488   -0.00116   -0.00891
AFIX 137
H26A  2    0.803788    0.901841    0.944557    11.00000   -1.50000
H26B  2    0.686281    0.846145    0.965411    11.00000   -1.50000
H26C  2    0.789018    0.847299    0.873937    11.00000   -1.50000
AFIX   0
C27   1    0.673419    0.578244    1.154858    11.00000    0.03400    0.02499 =
         0.02211   -0.01596    0.00489   -0.00953
AFIX  23
H27A  2    0.721987    0.604645    1.185087    11.00000   -1.20000
H27B  2    0.662833    0.503539    1.202447    11.00000   -1.20000
AFIX   0
C28   1    0.539521    0.661510    1.132491    11.00000    0.02998    0.03338 =
         0.03415   -0.01324    0.01040   -0.00913
AFIX 137
H28A  2    0.490691    0.664227    1.193240    11.00000   -1.50000
H28B  2    0.492050    0.637064    1.100645    11.00000   -1.50000
H28C  2    0.549476    0.736934    1.089167    11.00000   -1.50000
AFIX   0
C29   1    0.563370    0.200727    1.194130    11.00000    0.04918    0.03210 =
         0.04106   -0.02245    0.02255   -0.02565
AFIX  23
H29A  2    0.570753    0.119144    1.232157    11.00000   -1.20000
H29B  2    0.592269    0.229641    1.233919    11.00000   -1.20000
AFIX   0
C30   1    0.427785    0.261456    1.172137    11.00000    0.05477    0.04094 =
         0.04370   -0.01912    0.00299   -0.01946
AFIX 137
H30A  2    0.372617    0.250666    1.233032    11.00000   -1.50000
H30B  2    0.399183    0.232132    1.133316    11.00000   -1.50000
H30C  2    0.420569    0.342325    1.135306    11.00000   -1.50000
AFIX   0
C31   1    0.646562    0.043946    1.072177    11.00000    0.04244    0.02427 =
         0.03297   -0.01501    0.01110   -0.01512
AFIX  23
H31A  2    0.634166    0.042124    1.010311    11.00000   -1.20000
H31B  2    0.561409    0.048298    1.110598    11.00000   -1.20000
AFIX   0
C32   1    0.742832   -0.065208    1.127896    11.00000    0.06802    0.03422 =
         0.02902   -0.00979   -0.00632   -0.02084
AFIX 137
H32A  2    0.710514   -0.129421    1.139037    11.00000   -1.50000
H32B  2    0.753140   -0.065920    1.190630    11.00000   -1.50000
H32C  2    0.827319   -0.071121    1.090182    11.00000   -1.50000
AFIX   0
C33   1    0.935651    0.052781    0.745246    11.00000    0.03752    0.01985 =
         0.03397   -0.01775    0.00416   -0.01425
AFIX  23
H33A  2    0.939949    0.055556    0.678739    11.00000   -1.20000
H33B  2    0.849671    0.042065    0.777661    11.00000   -1.20000
AFIX   0
C34   1    1.042597   -0.048269    0.801514    11.00000    0.03698    0.01934 =
         0.04359   -0.01506    0.00172   -0.00936
AFIX 137
H34A  2    1.027740   -0.118298    0.807276    11.00000   -1.50000
H34B  2    1.041175   -0.049951    0.866646    11.00000   -1.50000
H34C  2    1.127668   -0.041556    0.766812    11.00000   -1.50000
AFIX   0
C35   1    1.078819    0.221829    0.575799    11.00000    0.03555    0.01791 =
         0.02357   -0.01522    0.00227   -0.00403
AFIX  23
H35A  2    1.057457    0.293146    0.517478    11.00000   -1.20000
H35B  2    1.052731    0.163949    0.566133    11.00000   -1.20000
AFIX   0
C36   1    1.226586    0.183209    0.585006    11.00000    0.03046    0.04676 =
         0.02432   -0.01521    0.00737   -0.00085
AFIX 137
H36A  2    1.272146    0.180222    0.523468    11.00000   -1.50000
H36B  2    1.249943    0.107849    0.637362    11.00000   -1.50000
H36C  2    1.252112    0.236871    0.600071    11.00000   -1.50000
AFIX   0
C37   1    1.047768    0.465171    0.528876    11.00000    0.02590    0.01875 =
         0.02291   -0.01043    0.00209   -0.00787
AFIX  43
H37A  2    1.131060    0.436615    0.501571    11.00000   -1.20000
AFIX   0
C1S   1    0.635043    0.015500    0.678087    11.00000    0.12276    0.04923 =
         0.13435    0.03926   -0.09283   -0.05503
AFIX  43
H1SA  2    0.670416   -0.057498    0.725567    11.00000   -1.20000
AFIX   0
C2S   1    0.621862    0.027284    0.588514    11.00000    0.09080    0.11359 =
         0.17726   -0.04282   -0.01316   -0.06881
AFIX  43
H2SA  2    0.640668   -0.036824    0.572688    11.00000   -1.20000
AFIX   0
C3S   1    0.575774    0.146673    0.512750    11.00000    0.04213    0.07641 =
         0.09259   -0.02164    0.01382   -0.03261
AFIX  43
H3SA  2    0.563390    0.159775    0.448266    11.00000   -1.20000
AFIX   0
C4S   1    0.554445    0.228232    0.538831    11.00000    0.03899    0.05957 =
         0.05666    0.00399   -0.00253   -0.02143
AFIX  43
H4SA  2    0.530635    0.302814    0.490411    11.00000   -1.20000
AFIX   0
C5S   1    0.563376    0.216801    0.634927    11.00000    0.06010    0.10788 =
         0.08218   -0.01834   -0.01102   -0.02546
AFIX  43
H5SA  2    0.546629    0.281693    0.649273    11.00000   -1.20000
AFIX   0
C6S   1    0.595392    0.114181    0.703453    11.00000    0.06167    0.11188 =
         0.08613    0.01543   -0.02839   -0.04600
AFIX  43
H6SA  2    0.592686    0.104379    0.769332    11.00000   -1.20000

AFIX   0
HKLF    4




REM  3mayam in P -1
REM wR2 = 0.1998, GooF = S = 1.027, Restrained GooF = 1.027 for all data
REM R1 = 0.0691 for 4747 Fo > 4sig(Fo) and 0.1106 for all 7006 data
REM 486 parameters refined using 0 restraints

END

WGHT      0.0753      6.3188

REM Highest difference peak  1.118,  deepest hole -0.738,  1-sigma level  0.111
Q1    1   0.6143  0.0402  0.5033  11.00000  0.05    1.12
Q2    1   0.5744  0.1597  1.2742  11.00000  0.05    1.04
Q3    1   0.6907 -0.0439  0.5840  11.00000  0.05    0.77
Q4    1   0.6118  0.1308  0.6225  11.00000  0.05    0.75
Q5    1   0.7605  0.4190  0.8130  11.00000  0.05    0.61
Q6    1   0.9257  0.7387  0.9756  11.00000  0.05    0.55
Q7    1   0.8195  0.4667  0.7767  11.00000  0.05    0.50
Q8    1   0.6162  0.0330  0.6944  11.00000  0.05    0.48
Q9    1   0.5372  0.1639  0.4614  11.00000  0.05    0.46
Q10   1   0.9335  0.3456  0.8075  11.00000  0.05    0.46
Q11   1   0.7152 -0.0005  0.6351  11.00000  0.05    0.46
Q12   1   0.9593  0.3785  0.9151  11.00000  0.05    0.45
Q13   1   0.8811  0.3267  0.8220  11.00000  0.05    0.45
Q14   1   0.8562  0.7541  1.0270  11.00000  0.05    0.44
Q15   1   0.9221  0.2622  0.8118  11.00000  0.05    0.42
;
_shelx_res_checksum              67929
loop_
_space_group_symop_operation_xyz
'x, y, z'
'-x, -y, -z'
loop_
_atom_site_label
_atom_site_type_symbol
_atom_site_fract_x
_atom_site_fract_y
_atom_site_fract_z
_atom_site_U_iso_or_equiv
_atom_site_adp_type
_atom_site_occupancy
_atom_site_site_symmetry_order
_atom_site_calc_flag
_atom_site_refinement_flags_posn
_atom_site_refinement_flags_adp
Fe1 Fe 0.85919(7) 0.41342(6) 0.85597(5) 0.0211(2) Uani 1 1 d . .
Cl1 Cl 0.64688(13) 0.55000(11) 0.69462(9) 0.0320(3) Uani 1 1 d . .
O1 O 0.6834(3) 0.5027(3) 0.7945(3) 0.0277(8) Uani 1 1 d . .
O2 O 0.5101(3) 0.6035(3) 0.6969(3) 0.0372(9) Uani 1 1 d . .
O3 O 0.6762(4) 0.4607(4) 0.6611(3) 0.0524(12) Uani 1 1 d . .
O4 O 0.7186(4) 0.6305(4) 0.6347(3) 0.0542(13) Uani 1 1 d . .
N1 N 0.9777(4) 0.5045(3) 0.7655(3) 0.0191(8) Uani 1 1 d . .
N2 N 0.8344(4) 0.4946(3) 0.9437(3) 0.0218(9) Uani 1 1 d . .
N3 N 0.7811(4) 0.2980(3) 0.9652(3) 0.0224(9) Uani 1 1 d . .
N4 N 0.9258(4) 0.3092(3) 0.7854(3) 0.0225(9) Uani 1 1 d . .
C1 C 1.0350(4) 0.5038(4) 0.6759(3) 0.0178(10) Uani 1 1 d . .
C2 C 1.1081(5) 0.5883(4) 0.6294(3) 0.0213(10) Uani 1 1 d . .
C3 C 1.0920(5) 0.6409(4) 0.6914(4) 0.0212(10) Uani 1 1 d . .
C4 C 1.0098(5) 0.5910(4) 0.7728(3) 0.0196(10) Uani 1 1 d . .
C5 C 0.9635(5) 0.6287(4) 0.8480(3) 0.0218(10) Uani 1 1 d . .
H5A H 0.991714 0.689363 0.845238 0.026 Uiso 1 1 calc R U
C6 C 0.8805(5) 0.5856(4) 0.9261(3) 0.0183(10) Uani 1 1 d . .
C7 C 0.8316(5) 0.6277(4) 1.0019(3) 0.0224(10) Uani 1 1 d . .
C8 C 0.7519(5) 0.5651(4) 1.0647(3) 0.0214(10) Uani 1 1 d . .
C9 C 0.7546(5) 0.4823(4) 1.0285(3) 0.0196(10) Uani 1 1 d . .
C10 C 0.6931(5) 0.3968(4) 1.0766(3) 0.0227(11) Uani 1 1 d . .
H10A H 0.637646 0.397526 1.133134 0.027 Uiso 1 1 calc R U
C11 C 0.7075(5) 0.3097(4) 1.0470(4) 0.0232(11) Uani 1 1 d . .
C12 C 0.6506(5) 0.2167(4) 1.0996(4) 0.0293(12) Uani 1 1 d . .
C13 C 0.6864(5) 0.1494(4) 1.0492(4) 0.0277(12) Uani 1 1 d . .
C14 C 0.7677(5) 0.1992(4) 0.9673(4) 0.0226(11) Uani 1 1 d . .
C15 C 0.8242(5) 0.1578(4) 0.8955(3) 0.0226(11) Uani 1 1 d . .
H15A H 0.812360 0.087585 0.904828 0.027 Uiso 1 1 calc R U
C16 C 0.8958(5) 0.2084(4) 0.8118(3) 0.0195(10) Uani 1 1 d . .
C17 C 0.9460(5) 0.1633(4) 0.7381(4) 0.0222(10) Uani 1 1 d . .
C18 C 1.0014(4) 0.2406(4) 0.6634(3) 0.0194(10) Uani 1 1 d . .
C19 C 0.9854(4) 0.3327(4) 0.6922(3) 0.0167(10) Uani 1 1 d . .
C20 C 1.0254(4) 0.4316(4) 0.6358(3) 0.0190(10) Uani 1 1 d . .
C21 C 1.2041(5) 0.6014(4) 0.5417(3) 0.0229(11) Uani 1 1 d . .
H21A H 1.225211 0.674425 0.519438 0.027 Uiso 1 1 calc R U
H21B H 1.163920 0.602613 0.488248 0.027 Uiso 1 1 calc R U
C22 C 1.3287(5) 0.5057(5) 0.5644(4) 0.0310(12) Uani 1 1 d . .
H22A H 1.388376 0.516176 0.505713 0.047 Uiso 1 1 calc R U
H22B H 1.308077 0.433288 0.586286 0.047 Uiso 1 1 calc R U
H22C H 1.370137 0.505819 0.615899 0.047 Uiso 1 1 calc R U
C23 C 1.1527(5) 0.7321(4) 0.6775(4) 0.0253(11) Uani 1 1 d . .
H23A H 1.243440 0.714706 0.649259 0.030 Uiso 1 1 calc R U
H23B H 1.155942 0.732636 0.741797 0.030 Uiso 1 1 calc R U
C24 C 1.0768(6) 0.8503(4) 0.6106(4) 0.0352(13) Uani 1 1 d . .
H24A H 1.116978 0.907198 0.606763 0.053 Uiso 1 1 calc R U
H24B H 0.986035 0.866973 0.636980 0.053 Uiso 1 1 calc R U
H24C H 1.079096 0.852076 0.545296 0.053 Uiso 1 1 calc R U
C25 C 0.8639(5) 0.7257(4) 1.0052(4) 0.0264(11) Uani 1 1 d . .
H25A H 0.956691 0.722034 0.982575 0.032 Uiso 1 1 calc R U
H25B H 0.852121 0.719335 1.073335 0.032 Uiso 1 1 calc R U
C26 C 0.7779(5) 0.8407(4) 0.9415(4) 0.0315(12) Uani 1 1 d . .
H26A H 0.803788 0.901841 0.944557 0.047 Uiso 1 1 calc R U
H26B H 0.686281 0.846145 0.965411 0.047 Uiso 1 1 calc R U
H26C H 0.789018 0.847299 0.873937 0.047 Uiso 1 1 calc R U
C27 C 0.6734(5) 0.5782(4) 1.1549(4) 0.0252(11) Uani 1 1 d . .
H27A H 0.721987 0.604645 1.185087 0.030 Uiso 1 1 calc R U
H27B H 0.662833 0.503539 1.202447 0.030 Uiso 1 1 calc R U
C28 C 0.5395(5) 0.6615(5) 1.1325(4) 0.0343(13) Uani 1 1 d . .
H28A H 0.490691 0.664227 1.193240 0.052 Uiso 1 1 calc R U
H28B H 0.492050 0.637064 1.100645 0.052 Uiso 1 1 calc R U
H28C H 0.549476 0.736934 1.089167 0.052 Uiso 1 1 calc R U
C29 C 0.5634(6) 0.2007(5) 1.1941(4) 0.0380(14) Uani 1 1 d . .
H29A H 0.570753 0.119144 1.232157 0.046 Uiso 1 1 calc R U
H29B H 0.592269 0.229641 1.233919 0.046 Uiso 1 1 calc R U
C30 C 0.4278(6) 0.2615(5) 1.1721(5) 0.0448(15) Uani 1 1 d . .
H30A H 0.372617 0.250666 1.233032 0.067 Uiso 1 1 calc R U
H30B H 0.399183 0.232132 1.133316 0.067 Uiso 1 1 calc R U
H30C H 0.420569 0.342325 1.135306 0.067 Uiso 1 1 calc R U
C31 C 0.6466(5) 0.0439(4) 1.0722(4) 0.0324(13) Uani 1 1 d . .
H31A H 0.634166 0.042124 1.010311 0.039 Uiso 1 1 calc R U
H31B H 0.561409 0.048298 1.110598 0.039 Uiso 1 1 calc R U
C32 C 0.7428(6) -0.0652(5) 1.1279(4) 0.0424(15) Uani 1 1 d . .
H32A H 0.710514 -0.129421 1.139037 0.064 Uiso 1 1 calc R U
H32B H 0.753140 -0.065920 1.190630 0.064 Uiso 1 1 calc R U
H32C H 0.827319 -0.071121 1.090182 0.064 Uiso 1 1 calc R U
C33 C 0.9357(5) 0.0528(4) 0.7452(4) 0.0272(12) Uani 1 1 d . .
H33A H 0.939949 0.055556 0.678739 0.033 Uiso 1 1 calc R U
H33B H 0.849671 0.042065 0.777661 0.033 Uiso 1 1 calc R U
C34 C 1.0426(5) -0.0483(4) 0.8015(4) 0.0326(13) Uani 1 1 d . .
H34A H 1.027740 -0.118298 0.807276 0.049 Uiso 1 1 calc R U
H34B H 1.041175 -0.049951 0.866646 0.049 Uiso 1 1 calc R U
H34C H 1.127668 -0.041556 0.766812 0.049 Uiso 1 1 calc R U
C35 C 1.0788(5) 0.2218(4) 0.5758(4) 0.0246(11) Uani 1 1 d . .
H35A H 1.057457 0.293146 0.517478 0.030 Uiso 1 1 calc R U
H35B H 1.052731 0.163949 0.566133 0.030 Uiso 1 1 calc R U
C36 C 1.2266(5) 0.1832(5) 0.5850(4) 0.0374(14) Uani 1 1 d . .
H36A H 1.272146 0.180222 0.523468 0.056 Uiso 1 1 calc R U
H36B H 1.249943 0.107849 0.637362 0.056 Uiso 1 1 calc R U
H36C H 1.252112 0.236871 0.600071 0.056 Uiso 1 1 calc R U
C37 C 1.0478(5) 0.4652(4) 0.5289(3) 0.0218(10) Uani 1 1 d . .
H37A H 1.131060 0.436615 0.501571 0.026 Uiso 1 1 calc R U
C1S C 0.6350(11) 0.0155(8) 0.6781(9) 0.108(5) Uani 1 1 d . .
H1SA H 0.670416 -0.057498 0.725567 0.130 Uiso 1 1 calc R U
C2S C 0.6219(11) 0.0273(11) 0.5885(11) 0.121(4) Uani 1 1 d . .
H2SA H 0.640668 -0.036824 0.572688 0.145 Uiso 1 1 calc R U
C3S C 0.5758(7) 0.1467(8) 0.5128(7) 0.073(2) Uani 1 1 d . .
H3SA H 0.563390 0.159775 0.448266 0.088 Uiso 1 1 calc R U
C4S C 0.5544(7) 0.2282(7) 0.5388(6) 0.059(2) Uani 1 1 d . .
H4SA H 0.530635 0.302814 0.490411 0.071 Uiso 1 1 calc R U
C5S C 0.5634(8) 0.2168(9) 0.6349(7) 0.089(3) Uani 1 1 d . .
H5SA H 0.546629 0.281693 0.649273 0.106 Uiso 1 1 calc R U
C6S C 0.5954(8) 0.1142(9) 0.7035(8) 0.097(4) Uani 1 1 d . .
H6SA H 0.592686 0.104379 0.769332 0.116 Uiso 1 1 calc R U
loop_
_atom_site_aniso_label
_atom_site_aniso_U_11
_atom_site_aniso_U_22
_atom_site_aniso_U_33
_atom_site_aniso_U_23
_atom_site_aniso_U_13
_atom_site_aniso_U_12
Fe1 0.0282(4) 0.0189(4) 0.0189(4) -0.0097(3) 0.0045(3) -0.0103(3)
Cl1 0.0287(7) 0.0370(7) 0.0277(7) -0.0133(6) -0.0003(5) -0.0057(6)
O1 0.0263(19) 0.032(2) 0.030(2) -0.0191(17) 0.0099(16) -0.0112(15)
O2 0.025(2) 0.046(2) 0.034(2) -0.0145(19) -0.0016(17) -0.0026(17)
O3 0.050(3) 0.067(3) 0.052(3) -0.045(3) -0.008(2) 0.003(2)
O4 0.040(3) 0.059(3) 0.040(3) 0.003(2) 0.007(2) -0.020(2)
N1 0.025(2) 0.018(2) 0.016(2) -0.0076(17) -0.0003(17) -0.0083(17)
N2 0.026(2) 0.020(2) 0.020(2) -0.0072(17) 0.0011(17) -0.0078(17)
N3 0.027(2) 0.020(2) 0.024(2) -0.0122(18) 0.0042(18) -0.0094(17)
N4 0.029(2) 0.016(2) 0.025(2) -0.0119(18) 0.0021(18) -0.0076(17)
C1 0.020(2) 0.018(2) 0.013(2) -0.0053(19) 0.0019(19) -0.0054(19)
C2 0.026(3) 0.013(2) 0.022(3) -0.003(2) -0.006(2) -0.0055(19)
C3 0.024(3) 0.021(2) 0.025(3) -0.014(2) 0.000(2) -0.008(2)
C4 0.024(3) 0.016(2) 0.020(2) -0.009(2) 0.002(2) -0.0069(19)
C5 0.026(3) 0.019(2) 0.020(2) -0.006(2) -0.004(2) -0.007(2)
C6 0.026(3) 0.014(2) 0.019(2) -0.0090(19) -0.002(2) -0.0069(19)
C7 0.027(3) 0.022(2) 0.020(2) -0.009(2) -0.002(2) -0.008(2)
C8 0.026(3) 0.022(2) 0.016(2) -0.005(2) -0.002(2) -0.009(2)
C9 0.022(3) 0.021(2) 0.017(2) -0.010(2) 0.0018(19) -0.0057(19)
C10 0.031(3) 0.023(3) 0.014(2) -0.006(2) 0.005(2) -0.013(2)
C11 0.028(3) 0.026(3) 0.021(2) -0.012(2) 0.007(2) -0.014(2)
C12 0.037(3) 0.029(3) 0.026(3) -0.014(2) 0.005(2) -0.014(2)
C13 0.036(3) 0.025(3) 0.026(3) -0.013(2) 0.006(2) -0.014(2)
C14 0.024(3) 0.019(2) 0.026(3) -0.009(2) 0.002(2) -0.009(2)
C15 0.028(3) 0.018(2) 0.024(3) -0.010(2) 0.003(2) -0.010(2)
C16 0.028(3) 0.014(2) 0.017(2) -0.0083(19) 0.000(2) -0.0035(19)
C17 0.022(3) 0.021(2) 0.025(3) -0.009(2) -0.002(2) -0.006(2)
C18 0.020(2) 0.017(2) 0.022(2) -0.006(2) -0.005(2) -0.0062(19)
C19 0.015(2) 0.021(2) 0.015(2) -0.010(2) 0.0011(18) -0.0030(18)
C20 0.020(2) 0.018(2) 0.020(2) -0.009(2) 0.0014(19) -0.0054(19)
C21 0.026(3) 0.027(3) 0.020(2) -0.012(2) 0.009(2) -0.015(2)
C22 0.025(3) 0.044(3) 0.031(3) -0.025(3) 0.006(2) -0.010(2)
C23 0.028(3) 0.029(3) 0.024(3) -0.013(2) 0.004(2) -0.014(2)
C24 0.046(3) 0.028(3) 0.037(3) -0.013(3) -0.004(3) -0.017(3)
C25 0.041(3) 0.020(2) 0.028(3) -0.016(2) 0.002(2) -0.015(2)
C26 0.034(3) 0.020(3) 0.043(3) -0.015(2) -0.001(3) -0.009(2)
C27 0.034(3) 0.025(3) 0.022(3) -0.016(2) 0.005(2) -0.010(2)
C28 0.030(3) 0.033(3) 0.034(3) -0.013(3) 0.010(2) -0.009(2)
C29 0.049(4) 0.032(3) 0.041(3) -0.022(3) 0.023(3) -0.026(3)
C30 0.055(4) 0.041(3) 0.044(4) -0.019(3) 0.003(3) -0.019(3)
C31 0.042(3) 0.024(3) 0.033(3) -0.015(2) 0.011(3) -0.015(2)
C32 0.068(4) 0.034(3) 0.029(3) -0.010(3) -0.006(3) -0.021(3)
C33 0.038(3) 0.020(3) 0.034(3) -0.018(2) 0.004(2) -0.014(2)
C34 0.037(3) 0.019(3) 0.044(3) -0.015(3) 0.002(3) -0.009(2)
C35 0.036(3) 0.018(2) 0.024(3) -0.015(2) 0.002(2) -0.004(2)
C36 0.030(3) 0.047(3) 0.024(3) -0.015(3) 0.007(2) -0.001(3)
C37 0.026(3) 0.019(2) 0.023(3) -0.010(2) 0.002(2) -0.0079(19)
C1S 0.123(8) 0.049(5) 0.134(10) 0.039(6) -0.093(8) -0.055(5)
C2S 0.091(8) 0.114(9) 0.177(13) -0.043(10) -0.013(8) -0.069(7)
C3S 0.042(4) 0.076(6) 0.093(7) -0.022(5) 0.014(4) -0.033(4)
C4S 0.039(4) 0.060(5) 0.057(5) 0.004(4) -0.003(3) -0.021(3)
C5S 0.060(6) 0.108(8) 0.082(7) -0.018(6) -0.011(5) -0.025(5)
C6S 0.062(6) 0.112(8) 0.086(7) 0.015(7) -0.028(5) -0.046(6)
loop_
_atom_type_symbol
_atom_type_description
_atom_type_scat_dispersion_real
_atom_type_scat_dispersion_imag
_atom_type_scat_source
C C 0.0033 0.0016 'International Tables Vol C Tables 4.2.6.8 and 6.1.1.4'
H H 0.0000 0.0000 'International Tables Vol C Tables 4.2.6.8 and 6.1.1.4'
N N 0.0061 0.0033 'International Tables Vol C Tables 4.2.6.8 and 6.1.1.4'
O O 0.0106 0.0060 'International Tables Vol C Tables 4.2.6.8 and 6.1.1.4'
Cl Cl 0.1484 0.1585 'International Tables Vol C Tables 4.2.6.8 and 6.1.1.4'
Fe Fe 0.3463 0.8444 'International Tables Vol C Tables 4.2.6.8 and 6.1.1.4'
loop_
_geom_angle_atom_site_label_1
_geom_angle_atom_site_label_2
_geom_angle_atom_site_label_3
_geom_angle
_geom_angle_site_symmetry_1
N1 Fe1 N2 90.00(16) .
N1 Fe1 N3 165.36(16) .
N2 Fe1 N3 88.08(16) .
N1 Fe1 N4 87.80(16) .
N2 Fe1 N4 165.43(17) .
N3 Fe1 N4 90.42(16) .
N1 Fe1 O1 102.08(15) .
N2 Fe1 O1 95.56(15) .
N3 Fe1 O1 92.55(15) .
N4 Fe1 O1 98.99(15) .
O2 Cl1 O4 110.9(3) .
O2 Cl1 O3 111.1(3) .
O4 Cl1 O3 110.2(3) .
O2 Cl1 O1 106.3(2) .
O4 Cl1 O1 108.9(2) .
O3 Cl1 O1 109.3(2) .
Cl1 O1 Fe1 132.2(2) .
C4 N1 C1 104.5(4) .
C4 N1 Fe1 127.7(3) .
C1 N1 Fe1 127.5(3) .
C9 N2 C6 104.6(4) .
C9 N2 Fe1 127.9(3) .
C6 N2 Fe1 127.1(3) .
C11 N3 C14 104.3(4) .
C11 N3 Fe1 127.1(3) .
C14 N3 Fe1 127.6(3) .
C16 N4 C19 105.4(4) .
C16 N4 Fe1 125.6(3) .
C19 N4 Fe1 127.6(3) .
N1 C1 C20 125.0(4) .
N1 C1 C2 110.5(4) .
C20 C1 C2 124.5(4) .
C3 C2 C1 106.2(4) .
C3 C2 C21 125.0(4) .
C1 C2 C21 127.7(4) .
C2 C3 C4 107.0(4) .
C2 C3 C23 126.5(4) .
C4 C3 C23 126.5(4) .
N1 C4 C5 124.6(4) .
N1 C4 C3 111.7(4) .
C5 C4 C3 123.7(4) .
C6 C5 C4 125.5(4) .
C5 C6 N2 124.9(4) .
C5 C6 C7 124.5(4) .
N2 C6 C7 110.6(4) .
C8 C7 C6 107.2(4) .
C8 C7 C25 128.6(4) .
C6 C7 C25 124.2(4) .
C7 C8 C9 106.4(4) .
C7 C8 C27 127.9(4) .
C9 C8 C27 125.8(4) .
N2 C9 C10 124.7(4) .
N2 C9 C8 111.1(4) .
C10 C9 C8 124.1(4) .
C9 C10 C11 123.9(4) .
N3 C11 C10 125.3(4) .
N3 C11 C12 110.3(4) .
C10 C11 C12 124.4(4) .
C13 C12 C11 107.4(5) .
C13 C12 C29 127.5(5) .
C11 C12 C29 125.1(5) .
C12 C13 C14 106.4(4) .
C12 C13 C31 127.7(5) .
C14 C13 C31 125.9(4) .
N3 C14 C15 123.0(4) .
N3 C14 C13 111.6(4) .
C15 C14 C13 125.3(4) .
C16 C15 C14 126.6(4) .
C15 C16 N4 125.8(4) .
C15 C16 C17 123.5(4) .
N4 C16 C17 110.7(4) .
C18 C17 C16 106.7(4) .
C18 C17 C33 128.6(5) .
C16 C17 C33 124.7(4) .
C17 C18 C19 106.8(4) .
C17 C18 C35 124.6(4) .
C19 C18 C35 128.1(4) .
N4 C19 C20 124.1(4) .
N4 C19 C18 110.1(4) .
C20 C19 C18 125.8(4) .
C1 C20 C19 122.2(4) .
C1 C20 C37 118.9(4) .
C19 C20 C37 118.7(4) .
C2 C21 C22 111.6(4) .
C3 C23 C24 112.5(4) .
C7 C25 C26 112.3(4) .
C8 C27 C28 112.4(4) .
C30 C29 C12 110.0(5) .
C13 C31 C32 114.5(5) .
C17 C33 C34 113.2(4) .
C18 C35 C36 113.0(4) .
C37 C37 C20 120.4(6) 2_766
C2S C1S C6S 120.4(9) .
C1S C2S C3S 117.8(11) .
C4S C3S C2S 117.5(10) .
C3S C4S C5S 125.2(9) .
C6S C5S C4S 118.5(11) .
C5S C6S C1S 120.0(11) .
loop_
_geom_bond_atom_site_label_1
_geom_bond_atom_site_label_2
_geom_bond_distance
_geom_bond_site_symmetry_2
Fe1 N1 1.989(4) .
Fe1 N2 2.000(4) .
Fe1 N3 2.003(4) .
Fe1 N4 2.004(4) .
Fe1 O1 2.056(4) .
Cl1 O2 1.427(4) .
Cl1 O4 1.431(4) .
Cl1 O3 1.432(4) .
Cl1 O1 1.457(4) .
N1 C4 1.380(6) .
N1 C1 1.386(6) .
N2 C9 1.382(6) .
N2 C6 1.383(6) .
N3 C11 1.381(6) .
N3 C14 1.383(6) .
N4 C16 1.380(6) .
N4 C19 1.384(6) .
C1 C20 1.396(6) .
C1 C2 1.456(6) .
C2 C3 1.364(6) .
C2 C21 1.505(7) .
C3 C4 1.424(6) .
C3 C23 1.505(7) .
C4 C5 1.391(6) .
C5 C6 1.374(6) .
C6 C7 1.438(6) .
C7 C8 1.356(7) .
C7 C25 1.505(6) .
C8 C9 1.439(6) .
C8 C27 1.514(6) .
C9 C10 1.383(6) .
C10 C11 1.391(7) .
C11 C12 1.435(7) .
C12 C13 1.352(7) .
C12 C29 1.530(7) .
C13 C14 1.421(7) .
C13 C31 1.507(7) .
C14 C15 1.387(7) .
C15 C16 1.380(6) .
C16 C17 1.436(6) .
C17 C18 1.369(7) .
C17 C33 1.497(6) .
C18 C19 1.444(6) .
C18 C35 1.503(6) .
C19 C20 1.404(6) .
C20 C37 1.483(6) .
C21 C22 1.516(7) .
C23 C24 1.539(7) .
C25 C26 1.539(7) .
C27 C28 1.520(7) .
C29 C30 1.460(8) .
C31 C32 1.510(8) .
C33 C34 1.524(7) .
C35 C36 1.533(7) .
C37 C37 1.326(9) 2_766
C1S C2S 1.336(16) .
C1S C6S 1.461(15) .
C2S C3S 1.520(14) .
C3S C4S 1.270(11) .
C4S C5S 1.425(12) .
C5S C6S 1.318(12) .
