#------------------------------------------------------------------------------
#$Date: 2019-11-17 13:36:23 +0200 (Sun, 17 Nov 2019) $
#$Revision: 230204 $
#$URL: file:///home/coder/svn-repositories/cod/cif/7/05/69/7056977.cif $
#------------------------------------------------------------------------------
#
# This file is available in the Crystallography Open Database (COD),
# http://www.crystallography.net/
#
# All data on this site have been placed in the public domain by the
# contributors.
#
data_7056977
loop_
_publ_author_name
'To, Ching Tat'
'Chan, Kin Shing'
_publ_section_title
;
 Complexes of guest--host type between C60 and group 9 metalloporphyrins
;
_journal_issue                   10
_journal_name_full               'New Journal of Chemistry'
_journal_page_first              7599
_journal_paper_doi               10.1039/C7NJ05081J
_journal_volume                  42
_journal_year                    2018
_chemical_formula_sum            'C114 H41 Ir N4'
_chemical_formula_weight         1658.71
_space_group_crystal_system      monoclinic
_space_group_IT_number           15
_space_group_name_Hall           '-C 2yc'
_space_group_name_H-M_alt        'C 1 2/c 1'
_symmetry_space_group_name_Hall  '-C 2yc'
_symmetry_space_group_name_H-M   'C 1 2/c 1'
_atom_sites_solution_hydrogens   geom
_audit_creation_method           SHELXL-2014/6
_audit_update_record
;
2018-01-25 deposited with the CCDC.
2018-02-05 downloaded from the CCDC.
;
_cell_angle_alpha                90
_cell_angle_beta                 94.0580(10)
_cell_angle_gamma                90
_cell_formula_units_Z            4
_cell_length_a                   16.3792(7)
_cell_length_b                   22.5894(10)
_cell_length_c                   21.6432(10)
_cell_measurement_reflns_used    196
_cell_measurement_temperature    296(2)
_cell_measurement_theta_max      15
_cell_measurement_theta_min      15
_cell_volume                     7987.8(6)
_computing_cell_refinement       'BRUKER KAPPA APEXII DUO DIFFRACTOMETER'
_computing_data_collection       'BRUKER KAPPA APEXII DUO DIFFRACTOMETER'
_computing_data_reduction        'BRUKER KAPPA APEXII DUO DIFFRACTOMETER'
_computing_molecular_graphics    'BRUKER SHELXTL'
_computing_publication_material  'BRUKER SHELXTL'
_computing_structure_refinement  'SHELXL-2014/6 (Sheldrick, 2014)'
_diffrn_ambient_temperature      296(2)
_diffrn_measured_fraction_theta_full 0.998
_diffrn_measured_fraction_theta_max 0.998
_diffrn_measurement_device_type  'BRUKER KAPPA APEXII DUO DIFFRACTOMETER'
_diffrn_measurement_method       'OMEGA SCAN'
_diffrn_radiation_type           MoK\a
_diffrn_radiation_wavelength     0.71073
_diffrn_reflns_av_R_equivalents  0.0464
_diffrn_reflns_av_unetI/netI     0.0282
_diffrn_reflns_Laue_measured_fraction_full 0.998
_diffrn_reflns_Laue_measured_fraction_max 0.998
_diffrn_reflns_limit_h_max       19
_diffrn_reflns_limit_h_min       -19
_diffrn_reflns_limit_k_max       27
_diffrn_reflns_limit_k_min       -27
_diffrn_reflns_limit_l_max       25
_diffrn_reflns_limit_l_min       -25
_diffrn_reflns_number            50527
_diffrn_reflns_point_group_measured_fraction_full 0.998
_diffrn_reflns_point_group_measured_fraction_max 0.998
_diffrn_reflns_theta_full        25.242
_diffrn_reflns_theta_max         25.247
_diffrn_reflns_theta_min         1.538
_exptl_absorpt_coefficient_mu    1.728
_exptl_absorpt_correction_T_max  0.7456
_exptl_absorpt_correction_T_min  0.6166
_exptl_absorpt_correction_type   multi-scan
_exptl_crystal_colour            red
_exptl_crystal_density_diffrn    1.379
_exptl_crystal_description       block
_exptl_crystal_F_000             3320
_exptl_crystal_size_max          0.400
_exptl_crystal_size_mid          0.300
_exptl_crystal_size_min          0.200
_platon_squeeze_details
;
;
_refine_diff_density_max         0.712
_refine_diff_density_min         -1.929
_refine_diff_density_rms         0.059
_refine_ls_extinction_method     none
_refine_ls_goodness_of_fit_ref   1.038
_refine_ls_hydrogen_treatment    constr
_refine_ls_matrix_type           full
_refine_ls_number_parameters     593
_refine_ls_number_reflns         7240
_refine_ls_number_restraints     21
_refine_ls_restrained_S_all      1.047
_refine_ls_R_factor_all          0.0303
_refine_ls_R_factor_gt           0.0262
_refine_ls_shift/su_max          0.002
_refine_ls_shift/su_mean         0.000
_refine_ls_structure_factor_coef Fsqd
_refine_ls_weighting_details
'w=1/[\s^2^(Fo^2^)+(0.0419P)^2^+1.7254P] where P=(Fo^2^+2Fc^2^)/3'
_refine_ls_weighting_scheme      calc
_refine_ls_wR_factor_gt          0.0641
_refine_ls_wR_factor_ref         0.0652
_reflns_Friedel_coverage         0.000
_reflns_number_gt                6584
_reflns_number_total             7240
_reflns_threshold_expression     'I > 2\s(I)'
_cod_data_source_file            c7nj05081j2.cif
_cod_data_source_block           C60-Ir(ttp)Ph
_cod_depositor_comments
'Adding full bibliography for 7056976--7056978.cif.'
_cod_database_code               7056977
_shelx_space_group_comment
;
The symmetry employed for this shelxl refinement is uniquely defined
by the following loop, which should always be used as a source of
symmetry information in preference to the above space-group names.
They are only intended as comments.
;
_shelx_estimated_absorpt_t_min   0.545
_shelx_estimated_absorpt_t_max   0.724
_shelxl_version_number           2014/6
_shelx_res_file
;
TITL P in C2/c
CELL 0.71073  16.3792  22.5894  21.6432  90.000  94.058  90.000
ZERR   4.00   0.0007   0.0010   0.0010   0.000   0.001   0.000
LATT  7
SYMM -X, Y, 0.5-Z
SFAC C H N IR
UNIT 456 164 16 4
REM C114 H41 Ir N4
REM APEXII BLOCK RED
SIZE 0.40 0.30 0.20
OMIT -3 50.5
TEMP 23.000
EQIV $1   -x+1, y, -z+3/2
DFIX 1.45 0.01 C68 C69 C58 C59 C59 C54 C49 C49_$1 C49 C62_$1 C41 C41_$1
DFIX 1.45 0.01 C68 C67 C51 C58 C45 C68_$1
ISOR 0.01 C58 c58'
L.S. 40
ACTA
FMAP 2
PLAN 20
WGHT    0.041900    1.725400
FVAR       0.34987   0.59944
IR1   4    0.500000    0.335631    0.750000    10.50000    0.03375    0.03761 =
         0.02058    0.00000    0.00713    0.00000
C2    1    0.326239    0.341236    0.793887    11.00000    0.03645    0.03400 =
         0.02842   -0.00250    0.01009   -0.00518
N1    3    0.502376    0.335903    0.844424    11.00000    0.03862    0.04158 =
         0.02816    0.00323    0.01054   -0.00054
N2    3    0.625077    0.336713    0.755401    11.00000    0.03505    0.03345 =
         0.02563   -0.00068    0.00724    0.00308
C1    1    0.242804    0.347427    0.770458    11.00000    0.03574    0.04859 =
         0.03615   -0.00224    0.01131   -0.00578
AFIX  43
H1    2    0.197824    0.351321    0.794067    11.00000   -1.20000
AFIX   0
C3    1    0.353967    0.339864    0.856034    11.00000    0.03862    0.03972 =
         0.03049   -0.00063    0.01205   -0.00418
C4    1    0.435120    0.335504    0.878861    11.00000    0.04174    0.04184 =
         0.02647   -0.00109    0.01165   -0.00050
C5    1    0.462788    0.331705    0.942937    11.00000    0.04891    0.06351 =
         0.02407    0.00333    0.01116   -0.00088
AFIX  43
H5A   2    0.429722    0.329965    0.976095    11.00000   -1.20000
AFIX   0
C6    1    0.544498    0.331102    0.946683    11.00000    0.04938    0.06308 =
         0.02310    0.00262    0.00342    0.00396
AFIX  43
H6A   2    0.578422    0.328862    0.982925    11.00000   -1.20000
AFIX   0
C7    1    0.570785    0.334528    0.884783    11.00000    0.04059    0.04078 =
         0.02480    0.00081    0.00328    0.00537
C8    1    0.652074    0.337775    0.869028    11.00000    0.04057    0.03870 =
         0.02778    0.00114    0.00214    0.00611
C9    1    0.676433    0.339463    0.808705    11.00000    0.03735    0.03194 =
         0.03173    0.00144    0.00479    0.00622
C10   1    0.759067    0.346616    0.791731    11.00000    0.03496    0.05070 =
         0.03250    0.00035    0.00486    0.00555
AFIX  43
H10   2    0.805459    0.350063    0.818853    11.00000   -1.20000
AFIX   0
C11   1    0.291641    0.345090    0.903823    11.00000    0.03783    0.05747 =
         0.02649   -0.00118    0.00966   -0.00220
C12   1    0.241417    0.298164    0.915985    11.00000    0.06167    0.07430 =
         0.04483   -0.00805    0.01968   -0.02444
AFIX  43
H12A  2    0.244098    0.263376    0.893238    11.00000   -1.20000
AFIX   0
C13   1    0.186723    0.302589    0.962131    11.00000    0.06730    0.11075 =
         0.05343   -0.00286    0.02656   -0.03345
AFIX  43
H13A  2    0.152901    0.270642    0.969412    11.00000   -1.20000
AFIX   0
C14   1    0.181477    0.352432    0.996841    11.00000    0.04881    0.12906 =
         0.04633   -0.00163    0.02500   -0.00164
C15   1    0.231915    0.399414    0.985255    11.00000    0.07259    0.09575 =
         0.05805   -0.02051    0.02646    0.01161
AFIX  43
H15A  2    0.229277    0.433942    1.008431    11.00000   -1.20000
AFIX   0
C16   1    0.286889    0.395553    0.939019    11.00000    0.06550    0.06648 =
         0.05360   -0.00800    0.02631   -0.00266
AFIX  43
H16A  2    0.320770    0.427508    0.931893    11.00000   -1.20000
AFIX   0
C17   1    0.122454    0.356022    1.048111    11.00000    0.09703    0.19454 =
         0.08502   -0.01416    0.06253   -0.00421
AFIX  33
H17A  2    0.127008    0.394188    1.067561    11.00000   -1.50000
H17B  2    0.067454    0.350354    1.030721    11.00000   -1.50000
H17C  2    0.135734    0.325786    1.078334    11.00000   -1.50000
AFIX   0
C21   1    0.716314    0.341018    0.921761    11.00000    0.03855    0.05284 =
         0.03105    0.00577    0.00564    0.00431
C22   1    0.775469    0.297190    0.930518    11.00000    0.04689    0.05712 =
         0.04515    0.00790    0.00310    0.00899
AFIX  43
H22A  2    0.777326    0.266556    0.901945    11.00000   -1.20000
AFIX   0
C23   1    0.831325    0.298640    0.981019    11.00000    0.04716    0.08442 =
         0.05709    0.02088   -0.00260    0.01093
AFIX  43
H23A  2    0.871031    0.269221    0.985415    11.00000   -1.20000
AFIX   0
C24   1    0.830183    0.342380    1.025272    11.00000    0.03992    0.11077 =
         0.04424    0.01566   -0.00270   -0.00559
C25   1    0.772606    0.386378    1.015930    11.00000    0.05562    0.10105 =
         0.04039   -0.02241    0.00443   -0.00832
AFIX  43
H25A  2    0.771092    0.416885    1.044680    11.00000   -1.20000
AFIX   0
C26   1    0.716554    0.386381    0.964521    11.00000    0.04681    0.07091 =
         0.04094   -0.01052    0.00158    0.00891
AFIX  43
H26A  2    0.679013    0.417137    0.958931    11.00000   -1.20000
AFIX   0
C27   1    0.888741    0.341390    1.082841    11.00000    0.07050    0.16881 =
         0.06386    0.00558   -0.02500   -0.00285
AFIX  33
H27A  2    0.924236    0.307677    1.081363    11.00000   -1.50000
H27B  2    0.920901    0.376957    1.084601    11.00000   -1.50000
H27C  2    0.858123    0.338909    1.118970    11.00000   -1.50000
AFIX   0
C31   1    0.500000    0.245216    0.750000    10.50000    0.04731    0.03257 =
         0.03240    0.00000    0.00261    0.00000
C32   1    0.442707    0.213536    0.780689    11.00000    0.06143    0.04190 =
         0.05659    0.00375    0.02108   -0.00090
AFIX  43
H32A  2    0.403615    0.233731    0.801645    11.00000   -1.20000
AFIX   0
C33   1    0.442892    0.152167    0.780566    11.00000    0.07604    0.04011 =
         0.08992    0.01060    0.02745   -0.00823
AFIX  43
H33A  2    0.404028    0.131557    0.801353    11.00000   -1.20000
AFIX   0
C34   1    0.500000    0.121813    0.750000    10.50000    0.09092    0.03454 =
         0.10280    0.00000    0.02120    0.00000
AFIX  43
H34   2    0.500000    0.080643    0.750002    10.50000   -1.20000
AFIX   0

C42   1    0.430084    0.467724    0.812748    11.00000    0.06711    0.03512 =
         0.06097    0.00808    0.03285   -0.00617
C43   1    0.356973    0.495396    0.792912    11.00000    0.06572    0.08444 =
         0.10045    0.02448    0.02147   -0.03326
C44   1    0.331559    0.548158    0.826263    11.00000    0.06912    0.07760 =
         0.16853    0.03660    0.07872    0.01192
C46   1    0.332195    0.653596    0.826797    11.00000    0.09585    0.08023 =
         0.17159   -0.04183    0.09140    0.00376
C47   1    0.355793    0.706006    0.793248    11.00000    0.09934    0.07345 =
         0.11643   -0.01957    0.03023    0.04346
C48   1    0.429740    0.734405    0.812378    11.00000    0.11248    0.03362 =
         0.09220   -0.01781    0.04291    0.00687
C50   1    0.478995    0.490051    0.862631    11.00000    0.13333    0.05148 =
         0.04334    0.02013    0.02011   -0.01394
C51   1    0.454664    0.541586    0.893882    11.00000    0.20268    0.07719 =
         0.03934    0.00562    0.05223   -0.01892
C52   1    0.383813    0.567507    0.875754    11.00000    0.18775    0.07542 =
         0.11410   -0.00349    0.12512   -0.01024
C53   1    0.385547    0.635019    0.876227    11.00000    0.20377    0.06485 =
         0.11146   -0.00355    0.12243    0.02322
C54   1    0.456074    0.661275    0.893463    11.00000    0.21989    0.08146 =
         0.05744   -0.02297    0.06208    0.01025
C55   1    0.480404    0.711614    0.862347    11.00000    0.16630    0.06206 =
         0.06289   -0.03445    0.02399    0.01168
C56   1    0.565657    0.489815    0.856151    11.00000    0.09935    0.06499 =
         0.08363    0.04646   -0.03321   -0.01289
C57   1    0.603975    0.542719    0.884789    11.00000    0.12589    0.07189 =
         0.04990    0.01042   -0.03757    0.00360
C60   1    0.604406    0.658723    0.884314    11.00000    0.13884    0.08882 =
         0.05556   -0.02517   -0.02913   -0.03095
C61   1    0.566223    0.712538    0.854867    11.00000    0.12776    0.07844 =
         0.10616   -0.06198   -0.02196   -0.00037
C62   1    0.593533    0.734222    0.801283    11.00000    0.12047    0.04327 =
         0.10331   -0.01001   -0.03027   -0.02482
C63   1    0.668470    0.568044    0.855103    11.00000    0.08370    0.06816 =
         0.09024    0.00646   -0.05295   -0.00544
C64   1    0.668059    0.633597    0.854992    11.00000    0.09366    0.07036 =
         0.09442   -0.00610   -0.04860   -0.02347
C65   1    0.592634    0.467600    0.802729    11.00000    0.08943    0.03389 =
         0.08371   -0.00182   -0.04228    0.01541
C66   1    0.658096    0.496028    0.772829    11.00000    0.05740    0.06907 =
         0.13922   -0.01433   -0.02602    0.02972
C67   1    0.695522    0.546583    0.798963    11.00000    0.04784    0.08314 =
         0.13894   -0.00649   -0.02977    0.01131
C69   1    0.695756    0.655385    0.799368    11.00000    0.06500    0.07435 =
         0.15376    0.00732   -0.02940   -0.03338
C70   1    0.658597    0.705635    0.772442    11.00000    0.08128    0.05840 =
         0.16131    0.00497   -0.01317   -0.03681
PART 1
C41   1    0.456690    0.447109    0.752477    21.00000    0.03301    0.03059 =
         0.03902   -0.00233    0.00607   -0.00210
C58   1    0.536202    0.570537    0.909171    21.00000    0.10593    0.08145 =
         0.02888    0.01210   -0.00551   -0.01579
C59   1    0.537758    0.633962    0.907870    21.00000    0.12702    0.08241 =
         0.03042   -0.02410   -0.00975    0.01049
C49   1    0.456266    0.754581    0.752604    21.00000    0.07160    0.03618 =
         0.06998   -0.00358    0.01923    0.00695
C68   1    0.713213    0.601585    0.765620    21.00000    0.02373    0.07639 =
         0.18555   -0.00423    0.01217   -0.00563
C45   1    0.300664    0.601415    0.801182    21.00000    0.05584    0.06496 =
         0.12852   -0.00159    0.05388    0.00811
PART 2
C41'  1    0.497210    0.445161    0.721045   -21.00000    0.06413    0.02585 =
         0.05992    0.00058    0.01229   -0.00153
C58'  1    0.481775    0.600344    0.911065   -21.00000    0.13643    0.09527 =
         0.03079   -0.01441    0.02173    0.00237
C59'  1    0.567080    0.601224    0.908874   -21.00000    0.09405    0.16548 =
         0.02263    0.00195   -0.00995   -0.01980
C49'  1    0.497600    0.754213    0.722268   -21.00000    0.15488    0.01932 =
         0.09375    0.01461    0.02482    0.00852
C68'  1    0.710759    0.570926    0.741247   -21.00000    0.05118    0.16274 =
         0.13219    0.05741    0.04774    0.03807
C45'  1    0.711098    0.630433    0.740953   -21.00000    0.08687    0.17621 =
         0.18593   -0.09996    0.07768   -0.10041
PART 0
HKLF 4

REM  P in C2/c
REM R1 =  0.0262 for    6584 Fo > 4sig(Fo)  and  0.0303 for all    7240 data
REM    593 parameters refined using     21 restraints

END

WGHT      0.0414      2.6618

REM Highest difference peak  0.712,  deepest hole -1.929,  1-sigma level  0.059
Q1    1   0.5588  0.3369  0.7651  11.00000  0.05    0.71
Q2    1   0.4865  0.3697  0.7717  11.00000  0.05    0.39
Q3    1   0.4844  0.2997  0.7711  11.00000  0.05    0.36
Q4    1   0.4992  0.2863  0.7617  11.00000  0.05    0.34
Q5    1   0.1795  0.3915  0.9599  11.00000  0.05    0.30
Q6    1   0.3481  0.6217  0.8422  11.00000  0.05    0.29
Q7    1   0.3205  0.3395  0.8896  11.00000  0.05    0.28
Q8    1   0.6817  0.3390  0.8975  11.00000  0.05    0.27
Q9    1   0.6450  0.3291  0.7821  11.00000  0.05    0.27
Q10   1   0.8279  0.3812  1.0158  11.00000  0.05    0.27
Q11   1   0.2559  0.3842  0.9039  11.00000  0.05    0.26
Q12   1   0.3964  0.3182  0.8673  11.00000  0.05    0.25
Q13   1   0.4182  0.6083  0.8940  11.00000  0.05    0.25
Q14   1   0.7180  0.3486  0.8028  11.00000  0.05    0.25
Q15   1   0.8827  0.3825  1.0996  11.00000  0.05    0.25
Q16   1   0.6830  0.5347  0.7199  11.00000  0.05    0.24
Q17   1   0.3956  0.3555  0.8697  11.00000  0.05    0.24
Q18   1   0.4649  0.3370  0.8598  11.00000  0.05    0.24
Q19   1   0.3988  0.4712  0.7808  11.00000  0.05    0.24
Q20   1   0.6209  0.4955  0.8022  11.00000  0.05    0.24
;
_shelx_res_checksum              90419
loop_
_space_group_symop_operation_xyz
'x, y, z'
'-x, y, -z+1/2'
'x+1/2, y+1/2, z'
'-x+1/2, y+1/2, -z+1/2'
'-x, -y, -z'
'x, -y, z-1/2'
'-x+1/2, -y+1/2, -z'
'x+1/2, -y+1/2, z-1/2'
loop_
_atom_site_label
_atom_site_type_symbol
_atom_site_fract_x
_atom_site_fract_y
_atom_site_fract_z
_atom_site_U_iso_or_equiv
_atom_site_adp_type
_atom_site_occupancy
_atom_site_site_symmetry_order
_atom_site_calc_flag
_atom_site_refinement_flags_posn
_atom_site_refinement_flags_adp
_atom_site_refinement_flags_occupancy
_atom_site_disorder_assembly
_atom_site_disorder_group
Ir1 Ir 0.5000 0.33563(2) 0.7500 0.03040(6) Uani 1 2 d S T P . .
C2 C 0.32624(15) 0.34124(10) 0.79389(12) 0.0326(5) Uani 1 1 d . . . . .
N1 N 0.50238(13) 0.33590(9) 0.84442(10) 0.0357(5) Uani 1 1 d . . . . .
N2 N 0.62508(12) 0.33671(8) 0.75540(10) 0.0311(4) Uani 1 1 d . . . . .
C1 C 0.24280(17) 0.34743(12) 0.77046(13) 0.0397(6) Uani 1 1 d . . . . .
H1 H 0.1978 0.3513 0.7941 0.048 Uiso 1 1 calc R U . . .
C3 C 0.35397(16) 0.33986(11) 0.85603(13) 0.0358(6) Uani 1 1 d . . . . .
C4 C 0.43512(16) 0.33550(11) 0.87886(12) 0.0362(6) Uani 1 1 d . . . . .
C5 C 0.46279(18) 0.33171(13) 0.94294(13) 0.0451(7) Uani 1 1 d . . . . .
H5A H 0.4297 0.3300 0.9761 0.054 Uiso 1 1 calc R U . . .
C6 C 0.54450(18) 0.33110(13) 0.94668(13) 0.0451(7) Uani 1 1 d . . . . .
H6A H 0.5784 0.3289 0.9829 0.054 Uiso 1 1 calc R U . . .
C7 C 0.57078(16) 0.33453(11) 0.88478(12) 0.0353(6) Uani 1 1 d . . . . .
C8 C 0.65207(16) 0.33778(11) 0.86903(12) 0.0357(6) Uani 1 1 d . . . . .
C9 C 0.67643(16) 0.33946(10) 0.80870(12) 0.0336(5) Uani 1 1 d . . . . .
C10 C 0.75907(16) 0.34662(12) 0.79173(13) 0.0393(6) Uani 1 1 d . . . . .
H10 H 0.8055 0.3501 0.8189 0.047 Uiso 1 1 calc R U . . .
C11 C 0.29164(17) 0.34509(12) 0.90382(13) 0.0402(6) Uani 1 1 d . . . . .
C12 C 0.2414(2) 0.29816(16) 0.91598(15) 0.0595(9) Uani 1 1 d . . . . .
H12A H 0.2441 0.2634 0.8932 0.071 Uiso 1 1 calc R U . . .
C13 C 0.1867(2) 0.3026(2) 0.96213(18) 0.0761(12) Uani 1 1 d . . . . .
H13A H 0.1529 0.2706 0.9694 0.091 Uiso 1 1 calc R U . . .
C14 C 0.1815(2) 0.3524(2) 0.99684(18) 0.0737(11) Uani 1 1 d . . . . .
C15 C 0.2319(2) 0.39941(19) 0.98525(18) 0.0744(11) Uani 1 1 d . . . . .
H15A H 0.2293 0.4339 1.0084 0.089 Uiso 1 1 calc R U . . .
C16 C 0.2869(2) 0.39555(16) 0.93902(16) 0.0608(9) Uani 1 1 d . . . . .
H16A H 0.3208 0.4275 0.9319 0.073 Uiso 1 1 calc R U . . .
C17 C 0.1225(3) 0.3560(3) 1.0481(3) 0.123(2) Uani 1 1 d . . . . .
H17A H 0.1270 0.3942 1.0676 0.184 Uiso 1 1 calc R U . . .
H17B H 0.0675 0.3504 1.0307 0.184 Uiso 1 1 calc R U . . .
H17C H 0.1357 0.3258 1.0783 0.184 Uiso 1 1 calc R U . . .
C21 C 0.71631(17) 0.34102(12) 0.92176(13) 0.0407(6) Uani 1 1 d . . . . .
C22 C 0.77547(18) 0.29719(14) 0.93052(15) 0.0497(7) Uani 1 1 d . . . . .
H22A H 0.7773 0.2666 0.9019 0.060 Uiso 1 1 calc R U . . .
C23 C 0.8313(2) 0.29864(17) 0.98102(17) 0.0632(9) Uani 1 1 d . . . . .
H23A H 0.8710 0.2692 0.9854 0.076 Uiso 1 1 calc R U . . .
C24 C 0.8302(2) 0.34238(18) 1.02527(17) 0.0652(10) Uani 1 1 d . . . . .
C25 C 0.7726(2) 0.38638(18) 1.01593(15) 0.0656(10) Uani 1 1 d . . . . .
H25A H 0.7711 0.4169 1.0447 0.079 Uiso 1 1 calc R U . . .
C26 C 0.71655(19) 0.38638(15) 0.96452(14) 0.0530(8) Uani 1 1 d . . . . .
H26A H 0.6790 0.4171 0.9589 0.064 Uiso 1 1 calc R U . . .
C27 C 0.8887(3) 0.3414(2) 1.0828(2) 0.1025(17) Uani 1 1 d . . . . .
H27A H 0.9242 0.3077 1.0814 0.154 Uiso 1 1 calc R U . . .
H27B H 0.9209 0.3770 1.0846 0.154 Uiso 1 1 calc R U . . .
H27C H 0.8581 0.3389 1.1190 0.154 Uiso 1 1 calc R U . . .
C31 C 0.5000 0.24522(16) 0.7500 0.0374(8) Uani 1 2 d S T P A .
C32 C 0.4427(2) 0.21354(13) 0.78069(16) 0.0525(8) Uani 1 1 d . . . . .
H32A H 0.4036 0.2337 0.8016 0.063 Uiso 1 1 calc R U . A .
C33 C 0.4429(2) 0.15217(14) 0.7806(2) 0.0677(10) Uani 1 1 d . . . . .
H33A H 0.4040 0.1316 0.8014 0.081 Uiso 1 1 calc R U . . .
C34 C 0.5000 0.1218(2) 0.7500 0.0754(16) Uani 1 2 d S T P . .
H34 H 0.5000 0.0806 0.7500 0.090 Uiso 1 2 calc R U P . .
C42 C 0.4301(2) 0.46772(13) 0.81275(16) 0.0531(8) Uani 1 1 d . . . . .
C43 C 0.3570(2) 0.4954(2) 0.7929(2) 0.0828(12) Uani 1 1 d . . . . .
C44 C 0.3316(3) 0.5482(2) 0.8263(4) 0.102(2) Uani 1 1 d . . . . .
C46 C 0.3322(4) 0.6536(3) 0.8268(5) 0.112(2) Uani 1 1 d . . . . .
C47 C 0.3558(3) 0.7060(2) 0.7932(3) 0.0953(15) Uani 1 1 d . . . . .
C48 C 0.4297(3) 0.73440(15) 0.8124(2) 0.0777(12) Uani 1 1 d . . . . .
C50 C 0.4790(3) 0.49005(16) 0.86263(17) 0.0754(11) Uani 1 1 d . . . . .
C51 C 0.4547(5) 0.5416(2) 0.89388(19) 0.1043(19) Uani 1 1 d D . . . .
C52 C 0.3838(6) 0.5675(2) 0.8758(3) 0.120(3) Uani 1 1 d . . . . .
C53 C 0.3855(7) 0.6350(2) 0.8762(4) 0.121(3) Uani 1 1 d . . . . .
C54 C 0.4561(6) 0.6613(3) 0.8935(2) 0.117(2) Uani 1 1 d D . . . .
C55 C 0.4804(4) 0.7116(2) 0.8623(2) 0.0963(16) Uani 1 1 d . . . . .
C56 C 0.5657(3) 0.48981(18) 0.8562(2) 0.0845(14) Uani 1 1 d . . . . .
C57 C 0.6040(3) 0.54272(19) 0.88479(19) 0.0846(14) Uani 1 1 d . . . . .
C60 C 0.6044(4) 0.6587(2) 0.8843(2) 0.0961(17) Uani 1 1 d . . . . .
C61 C 0.5662(4) 0.7125(2) 0.8549(3) 0.1056(18) Uani 1 1 d . . . . .
C62 C 0.5935(4) 0.73422(17) 0.8013(3) 0.0908(15) Uani 1 1 d . . . . .
C63 C 0.6685(3) 0.56804(18) 0.8551(2) 0.0835(14) Uani 1 1 d . . . . .
C64 C 0.6681(3) 0.6336(2) 0.8550(3) 0.0888(14) Uani 1 1 d . . . . .
C65 C 0.5926(3) 0.46760(14) 0.8027(2) 0.0713(12) Uani 1 1 d . . . . .
C66 C 0.6581(2) 0.49603(19) 0.7728(3) 0.0901(14) Uani 1 1 d . . . . .
C67 C 0.6955(2) 0.5466(2) 0.7990(3) 0.0917(15) Uani 1 1 d D . . . .
C69 C 0.6958(3) 0.6554(2) 0.7994(3) 0.0995(19) Uani 1 1 d D . . . .
C70 C 0.6586(3) 0.7056(2) 0.7724(3) 0.1014(17) Uani 1 1 d . . . . .
C41 C 0.4567(3) 0.44711(19) 0.7525(4) 0.0340(15) Uani 0.599(10) 1 d D . P A 1
C58 C 0.5362(6) 0.5705(3) 0.9092(4) 0.073(3) Uani 0.599(10) 1 d D U P A 1
C59 C 0.5378(7) 0.6340(4) 0.9079(4) 0.081(4) Uani 0.599(10) 1 d D . P A 1
C49 C 0.4563(3) 0.7546(3) 0.7526(5) 0.059(2) Uani 0.599(10) 1 d D . P A 1
C68 C 0.7132(6) 0.6016(4) 0.7656(5) 0.095(5) Uani 0.599(10) 1 d D . P A 1
C45 C 0.3007(4) 0.6014(4) 0.8012(4) 0.081(3) Uani 0.599(10) 1 d D . P A 1
C41' C 0.4972(11) 0.4452(3) 0.7210(5) 0.050(3) Uani 0.401(10) 1 d . . P A 2
C58' C 0.4818(10) 0.6003(7) 0.9111(5) 0.087(4) Uani 0.401(10) 1 d . U P A 2
C59' C 0.5671(10) 0.6012(11) 0.9089(6) 0.095(6) Uani 0.401(10) 1 d . . P A 2
C49' C 0.4976(19) 0.7542(5) 0.7223(6) 0.089(5) Uani 0.401(10) 1 d . . P A 2
C68' C 0.7108(10) 0.5709(11) 0.7412(10) 0.113(8) Uani 0.401(10) 1 d . . P A 2
C45' C 0.7111(13) 0.6304(12) 0.7410(13) 0.146(12) Uani 0.401(10) 1 d . . P A 2
loop_
_atom_site_aniso_label
_atom_site_aniso_U_11
_atom_site_aniso_U_22
_atom_site_aniso_U_33
_atom_site_aniso_U_23
_atom_site_aniso_U_13
_atom_site_aniso_U_12
Ir1 0.03375(8) 0.03761(9) 0.02058(8) 0.000 0.00713(5) 0.000
C2 0.0364(13) 0.0340(13) 0.0284(14) -0.0025(10) 0.0101(10) -0.0052(10)
N1 0.0386(11) 0.0416(12) 0.0282(12) 0.0032(9) 0.0105(9) -0.0005(9)
N2 0.0350(11) 0.0334(11) 0.0256(11) -0.0007(9) 0.0072(8) 0.0031(9)
C1 0.0357(13) 0.0486(17) 0.0361(16) -0.0022(12) 0.0113(12) -0.0058(11)
C3 0.0386(13) 0.0397(14) 0.0305(14) -0.0006(11) 0.0120(11) -0.0042(11)
C4 0.0417(14) 0.0418(14) 0.0265(13) -0.0011(11) 0.0117(11) -0.0005(12)
C5 0.0489(16) 0.0635(19) 0.0241(14) 0.0033(13) 0.0112(12) -0.0009(14)
C6 0.0494(16) 0.0631(19) 0.0231(14) 0.0026(13) 0.0034(12) 0.0040(14)
C7 0.0406(13) 0.0408(14) 0.0248(13) 0.0008(11) 0.0033(11) 0.0054(11)
C8 0.0406(13) 0.0387(14) 0.0278(14) 0.0011(11) 0.0021(11) 0.0061(11)
C9 0.0373(13) 0.0319(13) 0.0317(14) 0.0014(11) 0.0048(11) 0.0062(11)
C10 0.0350(13) 0.0507(17) 0.0325(15) 0.0003(12) 0.0049(11) 0.0055(11)
C11 0.0378(14) 0.0575(18) 0.0265(14) -0.0012(12) 0.0097(11) -0.0022(12)
C12 0.062(2) 0.074(2) 0.0448(19) -0.0080(16) 0.0197(15) -0.0244(17)
C13 0.067(2) 0.111(3) 0.053(2) -0.003(2) 0.0266(19) -0.033(2)
C14 0.0488(19) 0.129(4) 0.046(2) -0.002(2) 0.0250(16) -0.002(2)
C15 0.073(2) 0.096(3) 0.058(2) -0.021(2) 0.026(2) 0.012(2)
C16 0.065(2) 0.066(2) 0.054(2) -0.0080(17) 0.0263(17) -0.0027(17)
C17 0.097(4) 0.195(6) 0.085(4) -0.014(4) 0.063(3) -0.004(4)
C21 0.0386(14) 0.0528(17) 0.0310(15) 0.0058(12) 0.0056(11) 0.0043(12)
C22 0.0469(16) 0.0571(19) 0.0452(18) 0.0079(14) 0.0031(14) 0.0090(14)
C23 0.0472(18) 0.084(3) 0.057(2) 0.0209(19) -0.0026(16) 0.0109(17)
C24 0.0399(16) 0.111(3) 0.044(2) 0.016(2) -0.0027(14) -0.0056(18)
C25 0.056(2) 0.101(3) 0.0404(19) -0.0224(18) 0.0044(15) -0.0083(19)
C26 0.0468(16) 0.071(2) 0.0409(18) -0.0105(15) 0.0016(13) 0.0089(15)
C27 0.070(3) 0.169(5) 0.064(3) 0.006(3) -0.025(2) -0.003(3)
C31 0.047(2) 0.0326(19) 0.032(2) 0.000 0.0026(17) 0.000
C32 0.0614(19) 0.0419(17) 0.057(2) 0.0038(14) 0.0211(16) -0.0009(14)
C33 0.076(2) 0.0401(19) 0.090(3) 0.0106(17) 0.027(2) -0.0082(15)
C34 0.091(4) 0.035(2) 0.103(5) 0.000 0.021(3) 0.000
C42 0.067(2) 0.0351(15) 0.061(2) 0.0081(14) 0.0329(17) -0.0062(14)
C43 0.066(2) 0.084(3) 0.100(3) 0.024(3) 0.021(2) -0.033(2)
C44 0.069(3) 0.078(3) 0.169(6) 0.037(4) 0.079(4) 0.012(2)
C46 0.096(4) 0.080(4) 0.172(7) -0.042(4) 0.091(5) 0.004(3)
C47 0.099(4) 0.073(3) 0.116(4) -0.020(3) 0.030(3) 0.043(3)
C48 0.112(3) 0.0336(18) 0.092(3) -0.0178(19) 0.043(3) 0.007(2)
C50 0.133(4) 0.051(2) 0.043(2) 0.0201(17) 0.020(2) -0.014(2)
C51 0.203(7) 0.077(3) 0.039(2) 0.006(2) 0.052(3) -0.019(4)
C52 0.188(7) 0.075(3) 0.114(5) -0.003(3) 0.125(5) -0.010(4)
C53 0.204(8) 0.065(3) 0.111(5) -0.004(3) 0.122(6) 0.023(4)
C54 0.220(8) 0.081(4) 0.057(3) -0.023(3) 0.062(4) 0.010(5)
C55 0.166(5) 0.062(3) 0.063(3) -0.034(2) 0.024(3) 0.012(3)
C56 0.099(3) 0.065(2) 0.084(3) 0.046(2) -0.033(3) -0.013(2)
C57 0.126(4) 0.072(3) 0.050(2) 0.010(2) -0.038(3) 0.004(3)
C60 0.139(5) 0.089(4) 0.056(3) -0.025(2) -0.029(3) -0.031(4)
C61 0.128(5) 0.078(3) 0.106(4) -0.062(3) -0.022(4) 0.000(3)
C62 0.120(4) 0.043(2) 0.103(4) -0.010(2) -0.030(3) -0.025(2)
C63 0.084(3) 0.068(3) 0.090(3) 0.006(2) -0.053(3) -0.005(2)
C64 0.094(3) 0.070(3) 0.094(4) -0.006(3) -0.049(3) -0.023(3)
C65 0.089(3) 0.0339(17) 0.084(3) -0.0018(17) -0.042(2) 0.0154(17)
C66 0.057(2) 0.069(3) 0.139(4) -0.014(3) -0.026(2) 0.030(2)
C67 0.048(2) 0.083(3) 0.139(5) -0.006(3) -0.030(3) 0.011(2)
C69 0.065(3) 0.074(3) 0.154(6) 0.007(3) -0.029(3) -0.033(2)
C70 0.081(3) 0.058(3) 0.161(6) 0.005(3) -0.013(3) -0.037(2)
C41 0.033(3) 0.031(2) 0.039(4) -0.002(2) 0.006(4) -0.002(2)
C58 0.106(6) 0.081(5) 0.029(3) 0.012(3) -0.006(4) -0.016(5)
C59 0.127(10) 0.082(6) 0.030(4) -0.024(4) -0.010(5) 0.010(6)
C49 0.072(5) 0.036(3) 0.070(7) -0.004(4) 0.019(4) 0.007(4)
C68 0.024(4) 0.076(8) 0.186(15) -0.004(8) 0.012(5) -0.006(5)
C45 0.056(4) 0.065(5) 0.129(8) -0.002(6) 0.054(5) 0.008(4)
C41' 0.064(7) 0.026(4) 0.060(6) 0.001(3) 0.012(8) -0.002(4)
C58' 0.136(8) 0.095(8) 0.031(5) -0.014(5) 0.022(5) 0.002(7)
C59' 0.094(11) 0.17(2) 0.023(5) 0.002(11) -0.010(6) -0.020(13)
C49' 0.155(18) 0.019(4) 0.094(10) 0.015(5) 0.025(15) 0.009(8)
C68' 0.051(8) 0.163(17) 0.132(16) 0.057(16) 0.048(10) 0.038(11)
C45' 0.087(12) 0.18(2) 0.19(2) -0.10(2) 0.078(15) -0.100(15)
loop_
_atom_type_symbol
_atom_type_description
_atom_type_scat_dispersion_real
_atom_type_scat_dispersion_imag
_atom_type_scat_source
C C 0.0033 0.0016 'International Tables Vol C Tables 4.2.6.8 and 6.1.1.4'
H H 0.0000 0.0000 'International Tables Vol C Tables 4.2.6.8 and 6.1.1.4'
N N 0.0061 0.0033 'International Tables Vol C Tables 4.2.6.8 and 6.1.1.4'
Ir Ir -1.4442 7.9887 'International Tables Vol C Tables 4.2.6.8 and 6.1.1.4'
loop_
_geom_angle_atom_site_label_1
_geom_angle_atom_site_label_2
_geom_angle_atom_site_label_3
_geom_angle
_geom_angle_site_symmetry_1
_geom_angle_site_symmetry_3
N1 Ir1 N1 179.65(12) . 2_656
N1 Ir1 C31 90.17(6) . .
N1 Ir1 C31 90.17(6) 2_656 .
N1 Ir1 N2 89.70(9) . .
N1 Ir1 N2 90.30(9) 2_656 .
C31 Ir1 N2 90.69(5) . .
N1 Ir1 N2 90.30(9) . 2_656
N1 Ir1 N2 89.69(9) 2_656 2_656
C31 Ir1 N2 90.69(5) . 2_656
N2 Ir1 N2 178.63(11) . 2_656
N1 Ir1 C41' 104.0(2) . .
N1 Ir1 C41' 75.7(2) 2_656 .
C31 Ir1 C41' 165.8(2) . .
N2 Ir1 C41' 90.2(4) . .
N2 Ir1 C41' 88.5(4) 2_656 .
N1 Ir1 C41' 75.7(2) . 2_656
N1 Ir1 C41' 104.0(2) 2_656 2_656
C31 Ir1 C41' 165.8(2) . 2_656
N2 Ir1 C41' 88.5(4) . 2_656
N2 Ir1 C41' 90.2(4) 2_656 2_656
C41' Ir1 C41' 28.4(4) . 2_656
N1 Ir1 C41 91.8(2) . 2_656
N1 Ir1 C41 87.9(2) 2_656 2_656
C31 Ir1 C41 164.15(9) . 2_656
N2 Ir1 C41 73.60(11) . 2_656
N2 Ir1 C41 105.03(10) 2_656 2_656
N1 Ir1 C41 87.9(2) . .
N1 Ir1 C41 91.8(2) 2_656 .
C31 Ir1 C41 164.15(9) . .
N2 Ir1 C41 105.03(10) . .
N2 Ir1 C41 73.60(10) 2_656 .
C41 Ir1 C41 31.71(17) 2_656 .
N2 C2 C3 125.4(2) 2_656 .
N2 C2 C1 108.8(2) 2_656 .
C3 C2 C1 125.7(2) . .
C7 N1 C4 107.7(2) . .
C7 N1 Ir1 126.47(18) . .
C4 N1 Ir1 125.75(19) . .
C2 N2 C9 106.9(2) 2_656 .
C2 N2 Ir1 126.04(17) 2_656 .
C9 N2 Ir1 126.69(17) . .
C10 C1 C2 107.9(2) 2_656 .
C4 C3 C2 125.8(2) . .
C4 C3 C11 116.0(2) . .
C2 C3 C11 118.1(2) . .
N1 C4 C3 126.2(2) . .
N1 C4 C5 108.4(2) . .
C3 C4 C5 125.4(3) . .
C6 C5 C4 107.9(2) . .
C5 C6 C7 107.9(3) . .
N1 C7 C8 126.3(2) . .
N1 C7 C6 108.0(2) . .
C8 C7 C6 125.6(3) . .
C9 C8 C7 124.8(2) . .
C9 C8 C21 118.7(2) . .
C7 C8 C21 116.5(2) . .
N2 C9 C8 125.8(2) . .
N2 C9 C10 108.7(2) . .
C8 C9 C10 125.5(3) . .
C1 C10 C9 107.6(2) 2_656 .
C16 C11 C12 118.3(3) . .
C16 C11 C3 120.8(3) . .
C12 C11 C3 120.8(3) . .
C11 C12 C13 120.3(3) . .
C14 C13 C12 121.7(4) . .
C13 C14 C15 118.3(3) . .
C13 C14 C17 121.0(4) . .
C15 C14 C17 120.7(4) . .
C14 C15 C16 120.5(4) . .
C11 C16 C15 120.9(3) . .
C26 C21 C22 118.0(3) . .
C26 C21 C8 121.0(2) . .
C22 C21 C8 121.0(3) . .
C23 C22 C21 120.7(3) . .
C22 C23 C24 121.9(3) . .
C25 C24 C23 117.3(3) . .
C25 C24 C27 121.2(4) . .
C23 C24 C27 121.4(4) . .
C24 C25 C26 121.6(3) . .
C21 C26 C25 120.4(3) . .
C32 C31 C32 117.8(4) . 2_656
C32 C31 Ir1 121.08(18) . .
C32 C31 Ir1 121.07(18) 2_656 .
C33 C32 C31 120.9(3) . .
C34 C33 C32 120.3(3) . .
C33 C34 C33 119.8(4) . 2_656
C43 C42 C50 120.8(4) . .
C43 C42 C41 99.8(4) . .
C50 C42 C41 127.5(4) . .
C43 C42 C41' 133.2(6) . 2_656
C50 C42 C41' 93.8(6) . 2_656
C42 C43 C66 113.4(4) . 2_656
C42 C43 C44 118.7(5) . .
C66 C43 C44 116.5(5) 2_656 .
C52 C44 C45 102.4(7) . .
C52 C44 C43 116.9(5) . .
C45 C44 C43 127.9(7) . .
C52 C44 C68' 141.1(8) . 2_656
C43 C44 C68' 86.2(9) . 2_656
C45 C46 C53 104.2(8) . .
C45 C46 C47 126.6(9) . .
C53 C46 C47 116.9(6) . .
C53 C46 C45' 141.6(8) . 2_656
C47 C46 C45' 85.9(11) . 2_656
C48 C47 C70 112.0(5) . 2_656
C48 C47 C46 118.5(6) . .
C70 C47 C46 117.5(6) 2_656 .
C47 C48 C55 120.4(5) . .
C47 C48 C49 100.6(5) . .
C55 C48 C49 126.4(5) . .
C47 C48 C49' 132.7(8) . 2_656
C55 C48 C49' 92.7(9) . 2_656
C42 C50 C51 120.1(5) . .
C42 C50 C56 116.2(4) . .
C51 C50 C56 111.3(5) . .
C52 C51 C50 119.2(5) . .
C52 C51 C58' 85.3(8) . .
C50 C51 C58' 142.0(8) . .
C52 C51 C58 127.9(6) . .
C50 C51 C58 100.8(6) . .
C51 C52 C44 124.2(5) . .
C51 C52 C53 114.9(8) . .
C44 C52 C53 109.2(8) . .
C51 C52 C58' 49.8(6) . .
C44 C52 C58' 153.7(5) . .
C53 C52 C58' 65.7(7) . .
C54 C53 C46 124.4(6) . .
C54 C53 C52 117.6(8) . .
C46 C53 C52 106.5(8) . .
C54 C53 C58' 51.9(7) . .
C46 C53 C58' 153.9(5) . .
C52 C53 C58' 66.3(7) . .
C53 C54 C55 120.1(7) . .
C53 C54 C59 128.7(7) . .
C55 C54 C59 99.0(7) . .
C53 C54 C58' 83.3(8) . .
C55 C54 C58' 142.8(9) . .
C54 C55 C48 119.6(6) . .
C54 C55 C61 112.6(6) . .
C48 C55 C61 116.0(5) . .
C65 C56 C50 117.8(4) . .
C65 C56 C57 120.3(4) . .
C50 C56 C57 110.6(5) . .
C63 C57 C58 129.1(5) . .
C63 C57 C56 117.0(5) . .
C58 C57 C56 101.3(6) . .
C63 C57 C59' 97.5(8) . .
C56 C57 C59' 131.9(8) . .
C59 C60 C64 131.1(6) . .
C59 C60 C61 99.9(7) . .
C64 C60 C61 116.5(6) . .
C64 C60 C59' 98.2(9) . .
C61 C60 C59' 132.0(9) . .
C62 C61 C55 119.2(6) . .
C62 C61 C60 120.3(6) . .
C55 C61 C60 109.1(6) . .
C61 C62 C70 120.6(5) . .
C61 C62 C49 126.8(6) . 2_656
C70 C62 C49 100.8(5) . 2_656
C61 C62 C49' 91.0(8) . 2_656
C70 C62 C49' 133.9(6) . 2_656
C57 C63 C67 123.4(4) . .
C57 C63 C64 114.0(5) . .
C67 C63 C64 110.1(5) . .
C60 C64 C69 123.4(5) . .
C60 C64 C63 114.5(5) . .
C69 C64 C63 110.5(5) . .
C56 C65 C66 120.9(4) . .
C56 C65 C41 127.9(4) . 2_656
C66 C65 C41 99.1(4) . 2_656
C56 C65 C41' 92.5(5) . 2_656
C66 C65 C41' 133.7(5) . 2_656
C67 C66 C43 116.9(5) . 2_656
C67 C66 C65 120.1(5) . .
C43 C66 C65 111.2(4) 2_656 .
C66 C67 C68' 93.5(13) . .
C66 C67 C63 118.4(5) . .
C68' C67 C63 136.0(10) . .
C66 C67 C68 125.9(7) . .
C63 C67 C68 102.5(5) . .
C70 C69 C64 119.0(6) . .
C70 C69 C45' 92.9(16) . .
C64 C69 C45' 135.3(12) . .
C70 C69 C68 124.4(7) . .
C64 C69 C68 103.0(5) . .
C69 C70 C47 117.3(6) . 2_656
C69 C70 C62 120.2(6) . .
C47 C70 C62 111.0(5) 2_656 .
C41 C41 C65 115.5(8) 2_656 2_656
C41 C41 C42 114.9(8) 2_656 .
C65 C41 C42 116.0(4) 2_656 .
C41 C41 Ir1 74.15(8) 2_656 .
C65 C41 Ir1 114.9(4) 2_656 .
C42 C41 Ir1 114.7(4) . .
C57 C58 C59 115.0(8) . .
C57 C58 C51 115.8(6) . .
C59 C58 C51 116.6(8) . .
C60 C59 C58 115.8(9) . .
C60 C59 C54 119.1(8) . .
C58 C59 C54 113.7(8) . .
C49 C49 C62 116.2(11) 2_656 2_656
C49 C49 C48 115.2(11) 2_656 .
C62 C49 C48 115.2(5) 2_656 .
C45 C68 C69 118.7(8) 2_656 .
C45 C68 C67 117.6(9) 2_656 .
C69 C68 C67 113.9(7) . .
C46 C45 C44 117.5(9) . .
C46 C45 C68 115.1(8) . 2_656
C44 C45 C68 114.6(8) . 2_656
C41' C41' C42 118.4(19) 2_656 2_656
C41' C41' C65 108.7(17) 2_656 2_656
C42 C41' C65 117.9(6) 2_656 2_656
C41' C41' Ir1 75.8(2) 2_656 .
C42 C41' Ir1 116.1(7) 2_656 .
C65 C41' Ir1 112.6(7) 2_656 .
C59' C58' C51 107.1(16) . .
C59' C58' C54 104.1(15) . .
C51 C58' C54 135.5(12) . .
C59' C58' C53 142.6(14) . .
C51 C58' C53 92.6(9) . .
C54 C58' C53 44.9(6) . .
C59' C58' C52 144.7(13) . .
C51 C58' C52 45.0(5) . .
C54 C58' C52 92.5(9) . .
C53 C58' C52 48.0(5) . .
C58' C59' C60 116.3(19) . .
C58' C59' C57 114.2(17) . .
C60 C59' C57 115.2(10) . .
C49' C49' C48 120(3) 2_656 2_656
C49' C49' C62 108(3) 2_656 2_656
C48 C49' C62 120.2(9) 2_656 2_656
C45' C68' C67 113(2) . .
C45' C68' C44 108.0(18) . 2_656
C67 C68' C44 125.1(16) . 2_656
C68' C45' C69 113(2) . .
C68' C45' C46 108.4(17) . 2_656
C69 C45' C46 124(2) . 2_656
loop_
_geom_bond_atom_site_label_1
_geom_bond_atom_site_label_2
_geom_bond_distance
_geom_bond_site_symmetry_2
Ir1 N1 2.041(2) .
Ir1 N1 2.041(2) 2_656
Ir1 C31 2.042(4) .
Ir1 N2 2.044(2) .
Ir1 N2 2.044(2) 2_656
Ir1 C41' 2.552(7) .
Ir1 C41' 2.552(7) 2_656
Ir1 C41 2.618(4) 2_656
Ir1 C41 2.618(4) .
C2 N2 1.380(3) 2_656
C2 C3 1.389(4) .
C2 C1 1.430(4) .
N1 C7 1.371(3) .
N1 C4 1.373(3) .
N2 C2 1.380(3) 2_656
N2 C9 1.380(3) .
C1 C10 1.344(4) 2_656
C3 C4 1.388(4) .
C3 C11 1.508(4) .
C4 C5 1.431(4) .
C5 C6 1.335(4) .
C6 C7 1.438(4) .
C7 C8 1.400(4) .
C8 C9 1.392(4) .
C8 C21 1.498(4) .
C9 C10 1.436(4) .
C10 C1 1.344(4) 2_656
C11 C16 1.376(4) .
C11 C12 1.379(4) .
C12 C13 1.392(5) .
C13 C14 1.360(6) .
C14 C15 1.379(6) .
C14 C17 1.525(5) .
C15 C16 1.395(5) .
C21 C26 1.381(4) .
C21 C22 1.389(4) .
C22 C23 1.375(4) .
C23 C24 1.377(5) .
C24 C25 1.375(5) .
C24 C27 1.518(5) .
C25 C26 1.392(4) .
C31 C32 1.386(3) .
C31 C32 1.386(3) 2_656
C32 C33 1.386(4) .
C33 C34 1.368(4) .
C34 C33 1.368(4) 2_656
C42 C43 1.392(5) .
C42 C50 1.393(5) .
C42 C41 1.479(8) .
C42 C41' 1.528(15) 2_656
C43 C66 1.427(6) 2_656
C43 C44 1.469(7) .
C44 C52 1.393(9) .
C44 C45 1.400(10) .
C44 C68' 1.65(3) 2_656
C46 C45 1.387(11) .
C46 C53 1.397(10) .
C46 C47 1.455(9) .
C46 C45' 1.67(3) 2_656
C47 C48 1.407(7) .
C47 C70 1.425(7) 2_656
C48 C55 1.413(7) .
C48 C49 1.466(12) .
C48 C49' 1.52(3) 2_656
C50 C51 1.418(6) .
C50 C56 1.436(6) .
C51 C52 1.334(9) .
C51 C58' 1.440(16) .
C51 C58 1.503(8) .
C52 C53 1.525(7) .
C52 C58' 1.880(18) .
C53 C54 1.328(10) .
C53 C58' 1.87(2) .
C54 C55 1.394(8) .
C54 C59 1.486(8) .
C54 C58' 1.481(16) .
C55 C61 1.426(7) .
C56 C65 1.362(6) .
C56 C57 1.467(6) .
C57 C63 1.397(7) .
C57 C58 1.410(11) .
C57 C59' 1.56(2) .
C60 C59 1.358(12) .
C60 C64 1.380(8) .
C60 C61 1.490(8) .
C60 C59' 1.55(2) .
C61 C62 1.363(8) .
C62 C70 1.427(7) .
C62 C49 1.450(9) 2_656
C62 C49' 1.61(3) 2_656
C63 C67 1.409(7) .
C63 C64 1.481(6) .
C64 C69 1.405(8) .
C65 C66 1.442(6) .
C65 C41 1.469(9) 2_656
C65 C41' 1.606(17) 2_656
C66 C67 1.397(6) .
C66 C43 1.427(6) 2_656
C67 C68' 1.403(19) .
C67 C68 1.476(8) .
C69 C70 1.396(7) .
C69 C45' 1.42(2) .
C69 C68 1.457(8) .
C70 C47 1.425(7) 2_656
C41 C41 1.430(8) 2_656
C41 C65 1.469(9) 2_656
C58 C59 1.433(9) .
C49 C49 1.445(9) 2_656
C49 C62 1.450(9) 2_656
C68 C45 1.448(9) 2_656
C45 C68 1.448(9) 2_656
C41' C41' 1.25(2) 2_656
C41' C42 1.528(15) 2_656
C41' C65 1.606(17) 2_656
C58' C59' 1.40(2) .
C49' C49' 1.20(3) 2_656
C49' C48 1.52(3) 2_656
C49' C62 1.61(3) 2_656
C68' C45' 1.34(3) .
C68' C44 1.65(3) 2_656
C45' C46 1.67(3) 2_656
loop_
_platon_squeeze_void_nr
_platon_squeeze_void_average_x
_platon_squeeze_void_average_y
_platon_squeeze_void_average_z
_platon_squeeze_void_volume
_platon_squeeze_void_count_electrons
1 0.000 0.500 -0.002 830.6 177.1
2 0.000 0.899 0.250 23.2 -0.4
3 0.000 0.101 0.750 23.2 -0.7
4 0.500 0.000 0.380 830.6 177.1
5 0.500 0.399 0.250 23.2 -0.4
6 0.500 0.601 0.750 23.2 -0.7
