#------------------------------------------------------------------------------
#$Date: 2020-12-06 16:31:58 +0200 (Sun, 06 Dec 2020) $
#$Revision: 259613 $
#$URL: file:///home/coder/svn-repositories/cod/cif/7/06/00/7060071.cif $
#------------------------------------------------------------------------------
#
# This file is available in the Crystallography Open Database (COD),
# http://www.crystallography.net/
#
# All data on this site have been placed in the public domain by the
# contributors.
#
data_7060071
loop_
_publ_author_name
'Balasooriya, Dinesh'
'Liu, Beibei'
'He, Hongshan'
'Sykes, Andew'
'May, P. Stanley'
_publ_section_title
;
 A conjugated porphyrin as a red-light sensitizer for near-infrared
 emission of ytterbium(iii) ion
;
_journal_issue                   43
_journal_name_full               'New Journal of Chemistry'
_journal_page_first              18756
_journal_page_last               18762
_journal_paper_doi               10.1039/D0NJ04910G
_journal_volume                  44
_journal_year                    2020
_chemical_formula_moiety
'C52 H43 N6 O2 Yb, 0.65(C H2 Cl2), C0.82 H3.46 O0.82, C H3 O'
_chemical_formula_sum            'C54.47 H50.76 Cl1.3 N6 O3.82 Yb'
_chemical_formula_weight         1069.66
_chemical_name_common            YbDMP(acetate)(1,10-phen).0.65CH2Cl2.1.82CH3OH
_space_group_crystal_system      monoclinic
_space_group_IT_number           14
_space_group_name_Hall           '-P 2ybc'
_space_group_name_H-M_alt        'P 1 21/c 1'
_atom_sites_solution_hydrogens   mixed
_audit_creation_method           SHELXL-2014/7
_audit_update_record
;
2019-08-10 deposited with the CCDC.	2020-10-13 downloaded from the CCDC.
;
_cell_angle_alpha                90
_cell_angle_beta                 93.6710(10)
_cell_angle_gamma                90
_cell_formula_units_Z            4
_cell_length_a                   11.3239(9)
_cell_length_b                   16.5128(14)
_cell_length_c                   25.834(2)
_cell_measurement_reflns_used    9956
_cell_measurement_temperature    100(2)
_cell_measurement_theta_max      25.47
_cell_measurement_theta_min      2.18
_cell_volume                     4820.8(7)
_computing_cell_refinement       'Bruker SAINT'
_computing_data_collection       'Bruker APEX2'
_computing_data_reduction        'Bruker SAINT'
_computing_molecular_graphics    'Bruker SHELXTL'
_computing_publication_material  'Bruker SHELXTL'
_computing_structure_refinement  'SHELXL-2014 (Sheldrick 2014)'
_computing_structure_solution    'SHELXS-97 (Sheldrick 2008)'
_diffrn_ambient_temperature      100(2)
_diffrn_measured_fraction_theta_full 1.000
_diffrn_measured_fraction_theta_max 0.999
_diffrn_measurement_device_type  'Bruker APEX-II CCD'
_diffrn_measurement_method       '\f and \w scans'
_diffrn_radiation_type           MoK\a
_diffrn_radiation_wavelength     0.71073
_diffrn_reflns_av_R_equivalents  0.0477
_diffrn_reflns_av_unetI/netI     0.0348
_diffrn_reflns_Laue_measured_fraction_full 1.000
_diffrn_reflns_Laue_measured_fraction_max 0.999
_diffrn_reflns_limit_h_max       13
_diffrn_reflns_limit_h_min       -13
_diffrn_reflns_limit_k_max       19
_diffrn_reflns_limit_k_min       -19
_diffrn_reflns_limit_l_max       31
_diffrn_reflns_limit_l_min       -31
_diffrn_reflns_number            47802
_diffrn_reflns_point_group_measured_fraction_full 1.000
_diffrn_reflns_point_group_measured_fraction_max 0.999
_diffrn_reflns_theta_full        25.242
_diffrn_reflns_theta_max         25.488
_diffrn_reflns_theta_min         1.580
_exptl_absorpt_coefficient_mu    2.064
_exptl_absorpt_correction_T_max  0.745
_exptl_absorpt_correction_T_min  0.561
_exptl_absorpt_correction_type   multi-scan
_exptl_absorpt_process_details   SADABS
_exptl_crystal_colour            red
_exptl_crystal_density_diffrn    1.474
_exptl_crystal_description       plate
_exptl_crystal_F_000             2169
_exptl_crystal_size_max          0.400
_exptl_crystal_size_mid          0.200
_exptl_crystal_size_min          0.050
_refine_diff_density_max         3.136
_refine_diff_density_min         -1.788
_refine_diff_density_rms         0.186
_refine_ls_extinction_method     none
_refine_ls_goodness_of_fit_ref   1.156
_refine_ls_hydrogen_treatment    mixed
_refine_ls_matrix_type           full
_refine_ls_number_parameters     609
_refine_ls_number_reflns         8942
_refine_ls_number_restraints     6
_refine_ls_restrained_S_all      1.170
_refine_ls_R_factor_all          0.0608
_refine_ls_R_factor_gt           0.0484
_refine_ls_shift/su_max          0.000
_refine_ls_shift/su_mean         0.008
_refine_ls_structure_factor_coef Fsqd
_refine_ls_weighting_details
'w=1/[\s^2^(Fo^2^)+(0.0533P)^2^+28.9683P] where P=(Fo^2^+2Fc^2^)/3'
_refine_ls_weighting_scheme      calc
_refine_ls_wR_factor_gt          0.1187
_refine_ls_wR_factor_ref         0.1302
_reflns_Friedel_coverage         0.000
_reflns_number_gt                7583
_reflns_number_total             8942
_reflns_threshold_expression     'I > 2\s(I)'
_cod_data_source_file            d0nj04910g2.cif
_cod_data_source_block           shelx
_cod_depositor_comments          'Adding full bibliography for 7060071.cif.'
_cod_original_cell_volume        4820.7(7)
_cod_original_sg_symbol_H-M      'P 21/c'
_cod_original_formula_sum        'C54.47 H50.76 Cl1.30 N6 O3.82 Yb'
_cod_database_code               7060071
_shelx_shelxl_version_number     2014/7
_shelx_space_group_comment
;
The symmetry employed for this shelxl refinement is uniquely defined
by the following loop, which should always be used as a source of
symmetry information in preference to the above space-group names.
They are only intended as comments.
;
_shelx_estimated_absorpt_t_min   0.493
_shelx_estimated_absorpt_t_max   0.904
_exptl_absorpt_special_details   SADABS
_shelx_res_file
;

    shelx.res created by SHELXL-2014/7

TITL 18142 in P2(1)/c
CELL  0.71073  11.3239  16.5128  25.8337   90.000   93.671   90.000
ZERR     4.00   0.0009   0.0014   0.0021    0.000    0.001    0.000
LATT   1
SYMM  - X, 1/2 + Y, 1/2 - Z
SFAC  C    H    N    O    CL   YB
UNIT  218  203  24   15   5    4
MERG   2
DFIX  1.300 0.020 C55 C54
DFIX  1.500 0.020 C53 C54
DFIX     0.900   0.020 H99 O3
FLAT     0.100 C51 C52 C53 C55 C54 N6
FMAP   2
PLAN   25
SIZE     0.050   0.200   0.400
ACTA
BOND   $H
L.S.  24
TEMP   100.00
WGHT    0.053300   28.968298
FVAR       0.07081
C1    1   -0.562022    0.229648    0.082658    11.00000    0.02435    0.07657 =
         0.02355   -0.01005   -0.00549    0.00238
AFIX  33
H1A   2   -0.581569    0.179770    0.065040    11.00000   -1.50000
H1B   2   -0.625282    0.244697    0.103744    11.00000   -1.50000
H1C   2   -0.550699    0.271410    0.057603    11.00000   -1.50000
AFIX   0
C2    1   -0.449088    0.218691    0.116764    11.00000    0.01847    0.05189 =
         0.01875    0.00117    0.00298   -0.00295
C3    1   -0.402127    0.281866    0.146272    11.00000    0.02245    0.04176 =
         0.02097    0.00237    0.00480    0.00176
AFIX  43
H3    2   -0.439997    0.331851    0.144371    11.00000   -1.20000
AFIX   0
C4    1   -0.388507    0.145499    0.118100    11.00000    0.01919    0.03882 =
         0.03028    0.00182    0.00428   -0.01113
AFIX  43
H4    2   -0.416903    0.103002    0.097209    11.00000   -1.20000
AFIX   0
C5    1   -0.284840    0.134382    0.150501    11.00000    0.02314    0.03491 =
         0.02400    0.00279    0.00020   -0.00423
C6    1   -0.242221    0.198633    0.181847    11.00000    0.01690    0.02974 =
         0.01976   -0.00041    0.00416   -0.00367
C7    1   -0.299418    0.273459    0.179013    11.00000    0.01508    0.03437 =
         0.01855    0.00031    0.00302   -0.00210
C8    1   -0.252959    0.345702    0.209974    11.00000    0.03886    0.02964 =
         0.03214    0.00092   -0.00490    0.00142
AFIX  33
H8A   2   -0.304009    0.391321    0.202885    11.00000   -1.50000
H8B   2   -0.250775    0.333159    0.246308    11.00000   -1.50000
H8C   2   -0.174594    0.358501    0.200389    11.00000   -1.50000
AFIX   0
C9    1   -0.221738    0.054007    0.149514    11.00000    0.05376    0.03578 =
         0.04397   -0.00780   -0.01478   -0.00078
AFIX  33
H9A   2   -0.264463    0.018164    0.125804    11.00000   -1.50000
H9B   2   -0.143223    0.061966    0.138473    11.00000   -1.50000
H9C   2   -0.217366    0.030736    0.183637    11.00000   -1.50000
AFIX   0
C10   1   -0.134201    0.188663    0.218539    11.00000    0.01469    0.03026 =
         0.02146    0.00225   -0.00001   -0.00319
C11   1   -0.152312    0.176875    0.271169    11.00000    0.01925    0.01861 =
         0.02338    0.00015    0.00290   -0.00067
C12   1   -0.267108    0.172402    0.292443    11.00000    0.01583    0.03223 =
         0.02610    0.00151    0.00167   -0.00139
AFIX  43
H12   2   -0.340012    0.172136    0.273697    11.00000   -1.20000
AFIX   0
C13   1   -0.249065    0.168697    0.344313    11.00000    0.01943    0.03605 =
         0.02628    0.00018    0.00665   -0.00335
AFIX  43
H13   2   -0.307027    0.165250    0.368147    11.00000   -1.20000
AFIX   0
C14   1   -0.122460    0.171082    0.356089    11.00000    0.02144    0.02536 =
         0.02021    0.00114    0.00538   -0.00255
C15   1   -0.069293    0.176670    0.406146    11.00000    0.02262    0.03559 =
         0.01879    0.00023    0.00853   -0.00529
AFIX  43
H15   2   -0.118997    0.170046    0.433129    11.00000   -1.20000
AFIX   0
C16   1    0.049619    0.191019    0.420499    11.00000    0.02402    0.03355 =
         0.01712    0.00317    0.00513   -0.00267
C17   1    0.098780    0.202601    0.472867    11.00000    0.02689    0.05536 =
         0.01859    0.00197    0.00440   -0.00483
AFIX  43
H17   2    0.057823    0.199899    0.502894    11.00000   -1.20000
AFIX   0
C18   1    0.214882    0.218038    0.470209    11.00000    0.02709    0.05567 =
         0.01656    0.00372    0.00208   -0.00615
AFIX  43
H18   2    0.269247    0.227770    0.498035    11.00000   -1.20000
AFIX   0
C19   1    0.239366    0.216649    0.415706    11.00000    0.02411    0.02987 =
         0.01841    0.00376   -0.00183    0.00141
C20   1    0.349015    0.234415    0.396022    11.00000    0.01801    0.03003 =
         0.02002    0.00260    0.00078    0.00144
C21   1    0.368394    0.241079    0.343154    11.00000    0.01394    0.02986 =
         0.02018    0.00282   -0.00040    0.00406
C22   1    0.473743    0.273199    0.322761    11.00000    0.01512    0.03689 =
         0.02510    0.00251    0.00237   -0.00018
AFIX  43
H22   2    0.543104    0.287083    0.341930    11.00000   -1.20000
AFIX   0
C23   1    0.454151    0.279679    0.270665    11.00000    0.01715    0.03883 =
         0.01959    0.00474    0.00374   -0.00286
AFIX  43
H23   2    0.506694    0.299568    0.247522    11.00000   -1.20000
AFIX   0
C24   1    0.337488    0.250152    0.258104    11.00000    0.01583    0.02634 =
         0.01829    0.00039    0.00372    0.00260
C25   1    0.283009    0.248583    0.208375    11.00000    0.01709    0.03000 =
         0.01983    0.00119    0.00688    0.00017
AFIX  43
H25   2    0.330271    0.262427    0.181591    11.00000   -1.20000
AFIX   0
C26   1    0.165761    0.228693    0.193855    11.00000    0.02061    0.02791 =
         0.01690   -0.00091    0.00198    0.00105
C27   1    0.110010    0.244804    0.143394    11.00000    0.02008    0.04579 =
         0.01719    0.00239    0.00304   -0.00391
AFIX  43
H27   2    0.146726    0.262896    0.114353    11.00000   -1.20000
AFIX   0
C28   1   -0.006737    0.228434    0.146434    11.00000    0.02373    0.04647 =
         0.01162    0.00000   -0.00227    0.00128
AFIX  43
H28   2   -0.065110    0.233270    0.119608    11.00000   -1.20000
AFIX   0
C29   1   -0.024243    0.202292    0.198456    11.00000    0.02413    0.02184 =
         0.02091   -0.00164   -0.00221    0.00422
C30   1    0.219653   -0.053612    0.417666    11.00000    0.10254    0.04776 =
         0.03021    0.01472    0.01039    0.01886
AFIX  33
H30A  2    0.304268   -0.058775    0.420016    11.00000   -1.50000
H30B  2    0.193352   -0.037684    0.450764    11.00000   -1.50000
H30C  2    0.184560   -0.104647    0.407673    11.00000   -1.50000
AFIX   0
C31   1    0.109557    0.093759    0.028569    10.65000    0.15118    0.07731 =
         0.04989   -0.01204    0.00705   -0.03951
AFIX  23
H31A  2    0.115609    0.151416    0.035419    10.65000   -1.20000
H31B  2    0.048122    0.072296    0.049192    10.65000   -1.20000
AFIX   0
C32   1   -0.407390   -0.028761    0.325176    10.82000    0.06835
AFIX 137
H32A  2   -0.490010   -0.028579    0.331502    10.82000   -1.50000
H32B  2   -0.397460   -0.047424    0.290530    10.82000   -1.50000
H32C  2   -0.376323    0.025130    0.329152    10.82000   -1.50000
AFIX   0
C33   1   -0.161783   -0.024654    0.450813    11.00000    0.33335    0.26478 =
         0.08895    0.11308    0.12464    0.22938
AFIX 137
H33A  2   -0.109337   -0.045418    0.478332    11.00000   -1.50000
H33B  2   -0.240322   -0.044676    0.454676    11.00000   -1.50000
H33C  2   -0.162206    0.033440    0.452213    11.00000   -1.50000
AFIX   0
C34   1    0.454881    0.252704    0.432396    11.00000    0.01737    0.04943 =
         0.01404    0.00299    0.00256   -0.00131
C35   1    0.526717    0.190111    0.452005    11.00000    0.03157    0.05445 =
         0.01857    0.00562    0.00438    0.00814
C36   1    0.632740    0.209575    0.480032    11.00000    0.02716    0.07407 =
         0.01787    0.01060    0.00482    0.01487
AFIX  43
H36   2    0.681264    0.167841    0.492961    11.00000   -1.20000
AFIX   0
C37   1    0.667645    0.288483    0.489111    11.00000    0.01912    0.09007 =
         0.01745   -0.00667    0.00547   -0.00087
C38   1    0.592985    0.349644    0.472023    11.00000    0.02729    0.06389 =
         0.02055   -0.00555    0.00488   -0.01392
AFIX  43
H38   2    0.614274    0.403078    0.479154    11.00000   -1.20000
AFIX   0
C39   1    0.484423    0.333369    0.443823    11.00000    0.02297    0.05129 =
         0.01833    0.00630    0.00437   -0.00448
C41   1    0.403013    0.401752    0.426825    11.00000    0.04184    0.04196 =
         0.03580   -0.00179    0.00363   -0.00610
AFIX  33
H41A  2    0.437722    0.452334    0.438047    11.00000   -1.50000
H41B  2    0.391082    0.401557    0.389698    11.00000   -1.50000
H41C  2    0.328317    0.394974    0.441890    11.00000   -1.50000
AFIX   0
C42   1    0.492832    0.102134    0.444288    11.00000    0.04487    0.05947 =
         0.06015    0.01459   -0.00300    0.01266
AFIX  33
H42A  2    0.553348    0.068298    0.460561    11.00000   -1.50000
H42B  2    0.419159    0.091986    0.459548    11.00000   -1.50000
H42C  2    0.484482    0.090277    0.407858    11.00000   -1.50000
AFIX   0
C43   1    0.785490    0.306197    0.517211    11.00000    0.01599    0.13420 =
         0.03387   -0.01881   -0.00062   -0.00078
AFIX  33
H43A  2    0.825030    0.256197    0.526087    11.00000   -1.50000
H43B  2    0.833157    0.337503    0.495188    11.00000   -1.50000
H43C  2    0.773383    0.336180    0.548265    11.00000   -1.50000
AFIX   0
C44   1    0.369314    0.067435    0.239555    11.00000    0.03501    0.02819 =
         0.05071    0.00493    0.01508    0.00732
AFIX  43
H44   2    0.408252    0.102115    0.263329    11.00000   -1.20000
AFIX   0
C45   1    0.434964    0.031062    0.201643    11.00000    0.04258    0.03991 =
         0.06180    0.00864    0.03414    0.01193
AFIX  43
H45   2    0.515113    0.042254    0.199950    11.00000   -1.20000
AFIX   0
C46   1    0.378827   -0.021083    0.167296    11.00000    0.07437    0.04697 =
         0.05209    0.00999    0.03869    0.02284
AFIX  43
H46   2    0.420416   -0.044379    0.141200    11.00000   -1.20000
AFIX   0
C47   1    0.258586   -0.039883    0.171038    11.00000    0.07451    0.03734 =
         0.02778    0.00416    0.01349    0.02053
C48   1    0.195859   -0.101423    0.140495    11.00000    0.10643    0.04011 =
         0.02758   -0.00884    0.00403    0.02818
AFIX  43
H48   2    0.232520   -0.126030    0.113392    11.00000   -1.20000
AFIX   0
C49   1    0.086192   -0.123611    0.150474    11.00000    0.08533    0.03842 =
         0.04001   -0.00930   -0.02017    0.00966
AFIX  43
H49   2    0.050589   -0.163839    0.129670    11.00000   -1.20000
AFIX   0
C50   1    0.199573    0.000153    0.210332    11.00000    0.04633    0.02470 =
         0.02089    0.00526    0.00402    0.00678
C51   1    0.080001   -0.021978    0.219239    11.00000    0.03988    0.02321 =
         0.02931    0.00385   -0.00825    0.00545
C52   1   -0.076417   -0.013000    0.272090    11.00000    0.02981    0.02779 =
         0.05583    0.00599   -0.00033   -0.00570
AFIX  43
H52   2   -0.111582    0.011791    0.299533    11.00000   -1.20000
AFIX   0
C53   1   -0.135057   -0.078194    0.247155    11.00000    0.04050    0.03202 =
         0.07780    0.01636   -0.01407   -0.00932
AFIX  43
H53   2   -0.201875   -0.097547    0.262268    11.00000   -1.20000
AFIX   0
C55   1    0.016553   -0.089469    0.191926    11.00000    0.11729    0.02909 =
         0.03140   -0.00806   -0.02963    0.03737
C54   1   -0.106012   -0.114907    0.204831    11.00000    0.02630
AFIX  43
H54   2   -0.153852   -0.151226    0.185625    11.00000   -1.20000
AFIX   0
C57   1    0.183423    0.009216    0.377951    11.00000    0.06452    0.02737 =
         0.02132   -0.00041    0.00750    0.00598
N1    3    0.285558    0.224482    0.302355    11.00000    0.01637    0.02684 =
         0.01758    0.00074    0.00215    0.00459
N2    3    0.136988    0.198496    0.386240    11.00000    0.01672    0.02531 =
         0.01545    0.00271    0.00237   -0.00129
N3    3   -0.064757    0.173774    0.311149    11.00000    0.01811    0.02635 =
         0.01457   -0.00028    0.00303   -0.00189
N4    3    0.084299    0.200325    0.227005    11.00000    0.01800    0.02132 =
         0.01704   -0.00133   -0.00086   -0.00022
N5    3    0.254000    0.054814    0.243228    11.00000    0.02704    0.02482 =
         0.02969    0.00467    0.00893    0.00764
N6    3    0.027141    0.015213    0.258446    11.00000    0.03427    0.02128 =
         0.02818    0.00026    0.00127   -0.00174
O1    4    0.264797    0.045657    0.354751    11.00000    0.04395    0.03778 =
         0.02500    0.00223   -0.00215    0.01624
O2    4    0.077078    0.026785    0.367923    11.00000    0.04380    0.02964 =
         0.03315    0.00362    0.00390   -0.00126
O3    4   -0.350009   -0.077579    0.358737    10.82000    0.05440    0.15962 =
         0.15772   -0.05935   -0.01603   -0.00336
O4    4   -0.125063   -0.048626    0.405414    11.00000    0.17661    0.08661 =
         0.12947   -0.02316    0.08141   -0.03200
CL1   5    0.230440    0.052512    0.046496    10.65000    0.09723    0.11569 =
         0.08313    0.04493   -0.00877   -0.00738
CL2   5    0.066717    0.079260   -0.037864    10.65000    0.06595    0.11224 =
         0.05507   -0.00259   -0.00297   -0.00097
YB1   6    0.130783    0.130175    0.305775    11.00000    0.01712    0.02157 =
         0.01823    0.00176    0.00247    0.00077
H99   2   -0.282022   -0.071834    0.378855    11.00000    0.07435
HKLF    4

REM  18142 in P2(1)/c
REM R1 =  0.0484 for    7583 Fo > 4sig(Fo)  and  0.0608 for all    8942 data
REM    609 parameters refined using      6 restraints

END

WGHT      0.0532     29.0643

REM Highest difference peak  3.136,  deepest hole -1.788,  1-sigma level  0.186
Q1    1  -0.1476 -0.1155  0.1978  11.00000  0.05    3.14
Q2    1   0.0344  0.0141 -0.0269  11.00000  0.05    2.18
Q3    1  -0.0584 -0.1207  0.2032  11.00000  0.05    2.14
Q4    1  -0.2237 -0.0806  0.4412  11.00000  0.05    1.15
Q5    1   0.0418  0.0589  0.0656  11.00000  0.05    1.13
Q6    1  -0.0365 -0.0520  0.4375  11.00000  0.05    1.00
Q7    1  -0.1341  0.1499  0.1929  11.00000  0.05    0.87
Q8    1   0.1595  0.0399  0.0233  11.00000  0.05    0.86
Q9    1  -0.0260 -0.0211  0.4564  11.00000  0.05    0.86
Q10   1  -0.3394 -0.0337  0.3365  11.00000  0.05    0.81
Q11   1   0.1314  0.1835  0.3030  11.00000  0.05    0.75
Q12   1   0.1111  0.1193  0.0282  11.00000  0.05    0.72
Q13   1   0.2681  0.0950  0.0448  11.00000  0.05    0.65
Q14   1  -0.1311  0.3441  0.2011  11.00000  0.05    0.64
Q15   1   0.2083  0.0536  0.0675  11.00000  0.05    0.63
Q16   1  -0.5372  0.2137  0.0472  11.00000  0.05    0.63
Q17   1  -0.5719  0.3018  0.0853  11.00000  0.05    0.59
Q18   1  -0.3406 -0.0889  0.4268  11.00000  0.05    0.57
Q19   1   0.1274  0.0686 -0.0095  11.00000  0.05    0.57
Q20   1  -0.1324 -0.1799  0.1191  11.00000  0.05    0.56
Q21   1  -0.1281  0.0717  0.1781  11.00000  0.05    0.56
Q22   1   0.1258  0.0592  0.3051  11.00000  0.05    0.56
Q23   1   0.1302 -0.0770  0.4521  11.00000  0.05    0.55
Q24   1  -0.3519 -0.0975  0.3562  11.00000  0.05    0.53
Q25   1   0.0806  0.0854  0.3372  11.00000  0.05    0.51
;
_shelx_res_checksum              1445
loop_
_space_group_symop_operation_xyz
'x, y, z'
'-x, y+1/2, -z+1/2'
'-x, -y, -z'
'x, -y-1/2, z-1/2'
loop_
_atom_site_label
_atom_site_type_symbol
_atom_site_fract_x
_atom_site_fract_y
_atom_site_fract_z
_atom_site_U_iso_or_equiv
_atom_site_adp_type
_atom_site_occupancy
_atom_site_site_symmetry_order
_atom_site_calc_flag
_atom_site_refinement_flags_posn
_atom_site_refinement_flags_adp
_atom_site_refinement_flags_occupancy
_atom_site_disorder_assembly
_atom_site_disorder_group
C1 C -0.5620(6) 0.2296(5) 0.0827(3) 0.0418(19) Uani 1 1 d . . . . .
H1A H -0.5816 0.1798 0.0650 0.063 Uiso 1 1 calc R U . . .
H1B H -0.6253 0.2447 0.1037 0.063 Uiso 1 1 calc R U . . .
H1C H -0.5507 0.2714 0.0576 0.063 Uiso 1 1 calc R U . . .
C2 C -0.4491(5) 0.2187(5) 0.1168(2) 0.0296(15) Uani 1 1 d . . . . .
C3 C -0.4021(5) 0.2819(4) 0.1463(2) 0.0283(14) Uani 1 1 d . . . . .
H3 H -0.4400 0.3319 0.1444 0.034 Uiso 1 1 calc R U . . .
C4 C -0.3885(5) 0.1455(4) 0.1181(3) 0.0293(15) Uani 1 1 d . . . . .
H4 H -0.4169 0.1030 0.0972 0.035 Uiso 1 1 calc R U . . .
C5 C -0.2848(5) 0.1344(4) 0.1505(2) 0.0274(14) Uani 1 1 d . . . . .
C6 C -0.2422(5) 0.1986(4) 0.1818(2) 0.0220(13) Uani 1 1 d . . . . .
C7 C -0.2994(5) 0.2735(4) 0.1790(2) 0.0226(13) Uani 1 1 d . . . . .
C8 C -0.2530(6) 0.3457(4) 0.2100(3) 0.0339(16) Uani 1 1 d . . . . .
H8A H -0.3040 0.3913 0.2029 0.051 Uiso 1 1 calc R U . . .
H8B H -0.2508 0.3332 0.2463 0.051 Uiso 1 1 calc R U . . .
H8C H -0.1746 0.3585 0.2004 0.051 Uiso 1 1 calc R U . . .
C9 C -0.2217(7) 0.0540(5) 0.1495(3) 0.0453(19) Uani 1 1 d . . . . .
H9A H -0.2645 0.0182 0.1258 0.068 Uiso 1 1 calc R U . . .
H9B H -0.1432 0.0620 0.1385 0.068 Uiso 1 1 calc R U . . .
H9C H -0.2174 0.0307 0.1836 0.068 Uiso 1 1 calc R U . . .
C10 C -0.1342(5) 0.1887(4) 0.2185(2) 0.0222(13) Uani 1 1 d . . . . .
C11 C -0.1523(5) 0.1769(3) 0.2712(2) 0.0203(12) Uani 1 1 d . . . . .
C12 C -0.2671(5) 0.1724(4) 0.2924(2) 0.0247(13) Uani 1 1 d . . . . .
H12 H -0.3400 0.1721 0.2737 0.030 Uiso 1 1 calc R U . . .
C13 C -0.2491(5) 0.1687(4) 0.3443(2) 0.0270(14) Uani 1 1 d . . . . .
H13 H -0.3070 0.1652 0.3681 0.032 Uiso 1 1 calc R U . . .
C14 C -0.1225(5) 0.1711(4) 0.3561(2) 0.0222(13) Uani 1 1 d . . . . .
C15 C -0.0693(5) 0.1767(4) 0.4061(2) 0.0254(13) Uani 1 1 d . . . . .
H15 H -0.1190 0.1700 0.4331 0.030 Uiso 1 1 calc R U . . .
C16 C 0.0496(5) 0.1910(4) 0.4205(2) 0.0247(13) Uani 1 1 d . . . . .
C17 C 0.0988(6) 0.2026(5) 0.4729(2) 0.0335(16) Uani 1 1 d . . . . .
H17 H 0.0578 0.1999 0.5029 0.040 Uiso 1 1 calc R U . . .
C18 C 0.2149(6) 0.2180(5) 0.4702(2) 0.0331(16) Uani 1 1 d . . . . .
H18 H 0.2692 0.2278 0.4980 0.040 Uiso 1 1 calc R U . . .
C19 C 0.2394(5) 0.2166(4) 0.4157(2) 0.0243(13) Uani 1 1 d . . . . .
C20 C 0.3490(5) 0.2344(4) 0.3960(2) 0.0227(13) Uani 1 1 d . . . . .
C21 C 0.3684(5) 0.2411(4) 0.3432(2) 0.0214(13) Uani 1 1 d . . . . .
C22 C 0.4737(5) 0.2732(4) 0.3228(2) 0.0257(13) Uani 1 1 d . . . . .
H22 H 0.5431 0.2871 0.3419 0.031 Uiso 1 1 calc R U . . .
C23 C 0.4542(5) 0.2797(4) 0.2707(2) 0.0251(13) Uani 1 1 d . . . . .
H23 H 0.5067 0.2996 0.2475 0.030 Uiso 1 1 calc R U . . .
C24 C 0.3375(5) 0.2502(4) 0.2581(2) 0.0200(12) Uani 1 1 d . . . . .
C25 C 0.2830(5) 0.2486(4) 0.2084(2) 0.0221(13) Uani 1 1 d . . . . .
H25 H 0.3303 0.2624 0.1816 0.026 Uiso 1 1 calc R U . . .
C26 C 0.1658(5) 0.2287(4) 0.1939(2) 0.0218(12) Uani 1 1 d . . . . .
C27 C 0.1100(5) 0.2448(4) 0.1434(2) 0.0276(14) Uani 1 1 d . . . . .
H27 H 0.1467 0.2629 0.1144 0.033 Uiso 1 1 calc R U . . .
C28 C -0.0067(6) 0.2284(4) 0.1464(2) 0.0274(14) Uani 1 1 d . . . . .
H28 H -0.0651 0.2333 0.1196 0.033 Uiso 1 1 calc R U . . .
C29 C -0.0242(5) 0.2023(4) 0.1985(2) 0.0224(13) Uani 1 1 d . . . . .
C30 C 0.2197(10) -0.0536(5) 0.4177(3) 0.060(3) Uani 1 1 d . . . . .
H30A H 0.3043 -0.0588 0.4200 0.090 Uiso 1 1 calc R U . . .
H30B H 0.1934 -0.0377 0.4508 0.090 Uiso 1 1 calc R U . . .
H30C H 0.1846 -0.1046 0.4077 0.090 Uiso 1 1 calc R U . . .
C31 C 0.110(2) 0.0938(12) 0.0286(6) 0.093(6) Uani 0.65 1 d . . P . .
H31A H 0.1156 0.1514 0.0354 0.111 Uiso 0.65 1 calc R U P . .
H31B H 0.0481 0.0723 0.0492 0.111 Uiso 0.65 1 calc R U P . .
C32 C -0.4074(12) -0.0288(8) 0.3252(5) 0.068(3) Uiso 0.82 1 d . . P . .
H32A H -0.4900 -0.0286 0.3315 0.103 Uiso 0.82 1 calc R U P . .
H32B H -0.3975 -0.0474 0.2905 0.103 Uiso 0.82 1 calc R U P . .
H32C H -0.3763 0.0251 0.3292 0.103 Uiso 0.82 1 calc R U P . .
C33 C -0.162(2) -0.0247(13) 0.4508(6) 0.224(14) Uani 1 1 d . . . . .
H33A H -0.1093 -0.0454 0.4783 0.336 Uiso 1 1 calc R U . . .
H33B H -0.2403 -0.0447 0.4547 0.336 Uiso 1 1 calc R U . . .
H33C H -0.1622 0.0334 0.4522 0.336 Uiso 1 1 calc R U . . .
C34 C 0.4549(5) 0.2527(4) 0.4324(2) 0.0269(14) Uani 1 1 d . . . . .
C35 C 0.5267(6) 0.1901(5) 0.4520(2) 0.0347(16) Uani 1 1 d . . . . .
C36 C 0.6327(6) 0.2096(5) 0.4800(3) 0.0396(19) Uani 1 1 d . . . . .
H36 H 0.6813 0.1678 0.4930 0.047 Uiso 1 1 calc R U . . .
C37 C 0.6676(6) 0.2885(6) 0.4891(3) 0.042(2) Uani 1 1 d . . . . .
C38 C 0.5930(6) 0.3496(5) 0.4720(3) 0.0371(17) Uani 1 1 d . . . . .
H38 H 0.6143 0.4031 0.4792 0.045 Uiso 1 1 calc R U . . .
C39 C 0.4844(6) 0.3334(5) 0.4438(2) 0.0307(15) Uani 1 1 d . . . . .
C41 C 0.4030(7) 0.4018(5) 0.4268(3) 0.0398(17) Uani 1 1 d . . . . .
H41A H 0.4377 0.4523 0.4380 0.060 Uiso 1 1 calc R U . . .
H41B H 0.3911 0.4016 0.3897 0.060 Uiso 1 1 calc R U . . .
H41C H 0.3283 0.3950 0.4419 0.060 Uiso 1 1 calc R U . . .
C42 C 0.4928(8) 0.1021(5) 0.4443(4) 0.055(2) Uani 1 1 d . . . . .
H42A H 0.5533 0.0683 0.4606 0.083 Uiso 1 1 calc R U . . .
H42B H 0.4192 0.0920 0.4595 0.083 Uiso 1 1 calc R U . . .
H42C H 0.4845 0.0903 0.4079 0.083 Uiso 1 1 calc R U . . .
C43 C 0.7855(6) 0.3062(7) 0.5172(3) 0.061(3) Uani 1 1 d . . . . .
H43A H 0.8250 0.2562 0.5261 0.092 Uiso 1 1 calc R U . . .
H43B H 0.8332 0.3375 0.4952 0.092 Uiso 1 1 calc R U . . .
H43C H 0.7734 0.3362 0.5483 0.092 Uiso 1 1 calc R U . . .
C44 C 0.3693(6) 0.0674(4) 0.2396(3) 0.0374(17) Uani 1 1 d . . . . .
H44 H 0.4083 0.1021 0.2633 0.045 Uiso 1 1 calc R U . . .
C45 C 0.4350(7) 0.0311(5) 0.2016(3) 0.047(2) Uani 1 1 d . . . . .
H45 H 0.5151 0.0423 0.2000 0.056 Uiso 1 1 calc R U . . .
C46 C 0.3788(9) -0.0211(5) 0.1673(4) 0.056(2) Uani 1 1 d . . . . .
H46 H 0.4204 -0.0444 0.1412 0.068 Uiso 1 1 calc R U . . .
C47 C 0.2586(8) -0.0399(5) 0.1710(3) 0.046(2) Uani 1 1 d . . . . .
C48 C 0.1959(10) -0.1014(5) 0.1405(3) 0.058(3) Uani 1 1 d . . . . .
H48 H 0.2325 -0.1260 0.1134 0.070 Uiso 1 1 calc R U . . .
C49 C 0.0862(10) -0.1236(5) 0.1505(3) 0.056(2) Uani 1 1 d . . . . .
H49 H 0.0506 -0.1638 0.1297 0.067 Uiso 1 1 calc R U . . .
C50 C 0.1996(6) 0.0002(4) 0.2103(2) 0.0306(15) Uani 1 1 d . . . . .
C51 C 0.0800(6) -0.0220(4) 0.2192(3) 0.0312(15) Uani 1 1 d . . . . .
C52 C -0.0764(6) -0.0130(4) 0.2721(3) 0.0379(17) Uani 1 1 d . . . . .
H52 H -0.1116 0.0118 0.2995 0.046 Uiso 1 1 calc R U . . .
C53 C -0.1351(7) -0.0782(4) 0.2472(3) 0.051(2) Uani 1 1 d D . . . .
H53 H -0.2019 -0.0975 0.2623 0.061 Uiso 1 1 calc R U . . .
C55 C 0.0166(9) -0.0895(5) 0.1919(3) 0.061(3) Uani 1 1 d D . . . .
C54 C -0.1060(5) -0.1149(4) 0.2048(2) 0.0263(14) Uiso 1 1 d D . . . .
H54 H -0.1539 -0.1512 0.1856 0.032 Uiso 1 1 calc R U . . .
C57 C 0.1834(8) 0.0092(4) 0.3780(3) 0.0375(17) Uani 1 1 d . . . . .
N1 N 0.2856(4) 0.2245(3) 0.30236(18) 0.0202(10) Uani 1 1 d . . . . .
N2 N 0.1370(4) 0.1985(3) 0.38624(18) 0.0191(10) Uani 1 1 d . . . . .
N3 N -0.0648(4) 0.1738(3) 0.31115(18) 0.0196(10) Uani 1 1 d . . . . .
N4 N 0.0843(4) 0.2003(3) 0.22700(18) 0.0189(10) Uani 1 1 d . . . . .
N5 N 0.2540(5) 0.0548(3) 0.2432(2) 0.0269(12) Uani 1 1 d . . . . .
N6 N 0.0271(5) 0.0152(3) 0.2584(2) 0.0279(12) Uani 1 1 d . . . . .
O1 O 0.2648(4) 0.0457(3) 0.35475(18) 0.0358(11) Uani 1 1 d . . . . .
O2 O 0.0771(4) 0.0268(3) 0.36792(18) 0.0355(11) Uani 1 1 d . . . . .
O3 O -0.3500(9) -0.0776(9) 0.3587(6) 0.125(5) Uani 0.82 1 d D . P . .
O4 O -0.1251(10) -0.0486(6) 0.4054(4) 0.128(4) Uani 1 1 d . . . . .
Cl1 Cl 0.2304(5) 0.0525(4) 0.0465(2) 0.0993(16) Uani 0.65 1 d . . P . .
Cl2 Cl 0.0667(4) 0.0793(3) -0.03786(16) 0.0780(12) Uani 0.65 1 d . . P . .
Yb1 Yb 0.13078(2) 0.13018(2) 0.30577(2) 0.01892(10) Uani 1 1 d . . . . .
H99 H -0.282(5) -0.072(6) 0.379(3) 0.07(3) Uiso 1 1 d D . . . .
loop_
_atom_site_aniso_label
_atom_site_aniso_U_11
_atom_site_aniso_U_22
_atom_site_aniso_U_33
_atom_site_aniso_U_23
_atom_site_aniso_U_13
_atom_site_aniso_U_12
C1 0.024(4) 0.077(6) 0.024(4) -0.010(4) -0.005(3) 0.002(4)
C2 0.018(3) 0.052(4) 0.019(3) 0.001(3) 0.003(2) -0.003(3)
C3 0.022(3) 0.042(4) 0.021(3) 0.002(3) 0.005(2) 0.002(3)
C4 0.019(3) 0.039(4) 0.030(4) 0.002(3) 0.004(3) -0.011(3)
C5 0.023(3) 0.035(4) 0.024(3) 0.003(3) 0.000(2) -0.004(3)
C6 0.017(3) 0.030(3) 0.020(3) 0.000(2) 0.004(2) -0.004(2)
C7 0.015(3) 0.034(3) 0.019(3) 0.000(3) 0.003(2) -0.002(2)
C8 0.039(4) 0.030(4) 0.032(4) 0.001(3) -0.005(3) 0.001(3)
C9 0.054(5) 0.036(4) 0.044(5) -0.008(3) -0.015(4) -0.001(4)
C10 0.015(3) 0.030(3) 0.021(3) 0.002(3) 0.000(2) -0.003(2)
C11 0.019(3) 0.019(3) 0.023(3) 0.000(2) 0.003(2) -0.001(2)
C12 0.016(3) 0.032(3) 0.026(3) 0.002(3) 0.002(2) -0.001(3)
C13 0.019(3) 0.036(4) 0.026(3) 0.000(3) 0.007(3) -0.003(3)
C14 0.021(3) 0.025(3) 0.020(3) 0.001(2) 0.005(2) -0.003(2)
C15 0.023(3) 0.036(4) 0.019(3) 0.000(3) 0.009(2) -0.005(3)
C16 0.024(3) 0.034(3) 0.017(3) 0.003(3) 0.005(2) -0.003(3)
C17 0.027(3) 0.055(5) 0.019(3) 0.002(3) 0.004(3) -0.005(3)
C18 0.027(3) 0.056(5) 0.017(3) 0.004(3) 0.002(3) -0.006(3)
C19 0.024(3) 0.030(3) 0.018(3) 0.004(3) -0.002(2) 0.001(3)
C20 0.018(3) 0.030(3) 0.020(3) 0.003(3) 0.001(2) 0.001(2)
C21 0.014(3) 0.030(3) 0.020(3) 0.003(2) 0.000(2) 0.004(2)
C22 0.015(3) 0.037(4) 0.025(3) 0.003(3) 0.002(2) 0.000(3)
C23 0.017(3) 0.039(4) 0.020(3) 0.005(3) 0.004(2) -0.003(3)
C24 0.016(3) 0.026(3) 0.018(3) 0.000(2) 0.004(2) 0.003(2)
C25 0.017(3) 0.030(3) 0.020(3) 0.001(2) 0.007(2) 0.000(2)
C26 0.021(3) 0.028(3) 0.017(3) -0.001(2) 0.002(2) 0.001(2)
C27 0.020(3) 0.046(4) 0.017(3) 0.002(3) 0.003(2) -0.004(3)
C28 0.024(3) 0.046(4) 0.012(3) 0.000(3) -0.002(2) 0.001(3)
C29 0.024(3) 0.022(3) 0.021(3) -0.002(2) -0.002(2) 0.004(2)
C30 0.103(8) 0.048(5) 0.030(4) 0.015(4) 0.010(4) 0.019(5)
C31 0.151(19) 0.077(12) 0.050(10) -0.012(9) 0.007(11) -0.040(13)
C33 0.33(3) 0.26(2) 0.089(11) 0.113(14) 0.125(15) 0.23(2)
C34 0.017(3) 0.049(4) 0.014(3) 0.003(3) 0.003(2) -0.001(3)
C35 0.032(4) 0.054(5) 0.019(3) 0.006(3) 0.004(3) 0.008(3)
C36 0.027(4) 0.074(6) 0.018(3) 0.011(3) 0.005(3) 0.015(4)
C37 0.019(3) 0.090(7) 0.017(3) -0.007(4) 0.005(3) -0.001(4)
C38 0.027(4) 0.064(5) 0.021(3) -0.006(3) 0.005(3) -0.014(3)
C39 0.023(3) 0.051(4) 0.018(3) 0.006(3) 0.004(3) -0.004(3)
C41 0.042(4) 0.042(4) 0.036(4) -0.002(3) 0.004(3) -0.006(3)
C42 0.045(5) 0.059(5) 0.060(6) 0.015(5) -0.003(4) 0.013(4)
C43 0.016(3) 0.134(9) 0.034(4) -0.019(5) -0.001(3) -0.001(4)
C44 0.035(4) 0.028(4) 0.051(5) 0.005(3) 0.015(3) 0.007(3)
C45 0.043(4) 0.040(4) 0.062(5) 0.009(4) 0.034(4) 0.012(4)
C46 0.074(6) 0.047(5) 0.052(5) 0.010(4) 0.039(5) 0.023(5)
C47 0.075(6) 0.037(4) 0.028(4) 0.004(3) 0.013(4) 0.021(4)
C48 0.106(8) 0.040(5) 0.028(4) -0.009(4) 0.004(5) 0.028(5)
C49 0.085(7) 0.038(5) 0.040(5) -0.009(4) -0.020(5) 0.010(5)
C50 0.046(4) 0.025(3) 0.021(3) 0.005(3) 0.004(3) 0.007(3)
C51 0.040(4) 0.023(3) 0.029(4) 0.004(3) -0.008(3) 0.005(3)
C52 0.030(4) 0.028(4) 0.056(5) 0.006(3) 0.000(3) -0.006(3)
C53 0.041(4) 0.032(4) 0.078(6) 0.016(4) -0.014(4) -0.009(3)
C55 0.117(8) 0.029(4) 0.031(4) -0.008(3) -0.030(5) 0.037(5)
C57 0.065(5) 0.027(4) 0.021(3) 0.000(3) 0.008(3) 0.006(3)
N1 0.016(2) 0.027(3) 0.018(2) 0.001(2) 0.0021(19) 0.005(2)
N2 0.017(2) 0.025(3) 0.015(2) 0.003(2) 0.0024(19) -0.001(2)
N3 0.018(2) 0.026(3) 0.015(2) 0.000(2) 0.0030(19) -0.002(2)
N4 0.018(2) 0.021(3) 0.017(2) -0.001(2) -0.0009(19) 0.000(2)
N5 0.027(3) 0.025(3) 0.030(3) 0.005(2) 0.009(2) 0.008(2)
N6 0.034(3) 0.021(3) 0.028(3) 0.000(2) 0.001(2) -0.002(2)
O1 0.044(3) 0.038(3) 0.025(2) 0.002(2) -0.002(2) 0.016(2)
O2 0.044(3) 0.030(3) 0.033(3) 0.004(2) 0.004(2) -0.001(2)
O3 0.054(6) 0.160(12) 0.158(12) -0.059(10) -0.016(7) -0.003(7)
O4 0.177(10) 0.087(6) 0.129(8) -0.023(6) 0.081(8) -0.032(7)
Cl1 0.097(3) 0.116(4) 0.083(3) 0.045(3) -0.009(3) -0.007(3)
Cl2 0.066(2) 0.112(4) 0.055(2) -0.003(2) -0.0030(18) -0.001(2)
Yb1 0.01712(14) 0.02157(15) 0.01823(14) 0.00176(11) 0.00247(9) 0.00077(10)
loop_
_atom_type_symbol
_atom_type_description
_atom_type_scat_dispersion_real
_atom_type_scat_dispersion_imag
_atom_type_scat_source
C C 0.0033 0.0016 'International Tables Vol C Tables 4.2.6.8 and 6.1.1.4'
H H 0.0000 0.0000 'International Tables Vol C Tables 4.2.6.8 and 6.1.1.4'
N N 0.0061 0.0033 'International Tables Vol C Tables 4.2.6.8 and 6.1.1.4'
O O 0.0106 0.0060 'International Tables Vol C Tables 4.2.6.8 and 6.1.1.4'
Cl Cl 0.1484 0.1585 'International Tables Vol C Tables 4.2.6.8 and 6.1.1.4'
Yb Yb -0.3850 5.5486 'International Tables Vol C Tables 4.2.6.8 and 6.1.1.4'
loop_
_geom_angle_atom_site_label_1
_geom_angle_atom_site_label_2
_geom_angle_atom_site_label_3
_geom_angle
_geom_angle_site_symmetry_1
_geom_angle_site_symmetry_3
_geom_angle_publ_flag
C2 C1 H1A 109.5 . . ?
C2 C1 H1B 109.5 . . ?
H1A C1 H1B 109.5 . . ?
C2 C1 H1C 109.5 . . ?
H1A C1 H1C 109.5 . . ?
H1B C1 H1C 109.5 . . ?
C3 C2 C4 118.2(6) . . ?
C3 C2 C1 120.8(7) . . ?
C4 C2 C1 121.0(6) . . ?
C2 C3 C7 122.3(6) . . ?
C2 C3 H3 118.8 . . ?
C7 C3 H3 118.8 . . ?
C2 C4 C5 121.3(6) . . ?
C2 C4 H4 119.4 . . ?
C5 C4 H4 119.4 . . ?
C6 C5 C4 119.2(6) . . ?
C6 C5 C9 122.0(6) . . ?
C4 C5 C9 118.8(6) . . ?
C7 C6 C5 119.9(6) . . ?
C7 C6 C10 119.0(5) . . ?
C5 C6 C10 121.1(6) . . ?
C6 C7 C3 119.0(6) . . ?
C6 C7 C8 121.8(5) . . ?
C3 C7 C8 119.3(6) . . ?
C7 C8 H8A 109.5 . . ?
C7 C8 H8B 109.5 . . ?
H8A C8 H8B 109.5 . . ?
C7 C8 H8C 109.5 . . ?
H8A C8 H8C 109.5 . . ?
H8B C8 H8C 109.5 . . ?
C5 C9 H9A 109.5 . . ?
C5 C9 H9B 109.5 . . ?
H9A C9 H9B 109.5 . . ?
C5 C9 H9C 109.5 . . ?
H9A C9 H9C 109.5 . . ?
H9B C9 H9C 109.5 . . ?
C29 C10 C11 124.9(5) . . ?
C29 C10 C6 117.1(5) . . ?
C11 C10 C6 117.5(5) . . ?
N3 C11 C10 125.9(5) . . ?
N3 C11 C12 109.4(5) . . ?
C10 C11 C12 124.5(5) . . ?
C13 C12 C11 107.4(5) . . ?
C13 C12 H12 126.3 . . ?
C11 C12 H12 126.3 . . ?
C12 C13 C14 107.1(5) . . ?
C12 C13 H13 126.5 . . ?
C14 C13 H13 126.5 . . ?
N3 C14 C15 125.7(5) . . ?
N3 C14 C13 110.1(5) . . ?
C15 C14 C13 124.1(5) . . ?
C16 C15 C14 127.6(6) . . ?
C16 C15 H15 116.2 . . ?
C14 C15 H15 116.2 . . ?
N2 C16 C15 124.5(5) . . ?
N2 C16 C17 110.0(5) . . ?
C15 C16 C17 125.5(6) . . ?
C18 C17 C16 107.3(6) . . ?
C18 C17 H17 126.4 . . ?
C16 C17 H17 126.4 . . ?
C17 C18 C19 107.1(6) . . ?
C17 C18 H18 126.4 . . ?
C19 C18 H18 126.4 . . ?
N2 C19 C20 125.3(5) . . ?
N2 C19 C18 109.4(5) . . ?
C20 C19 C18 125.2(6) . . ?
C21 C20 C19 124.6(5) . . ?
C21 C20 C34 115.1(5) . . ?
C19 C20 C34 120.2(5) . . ?
N1 C21 C20 125.6(5) . . ?
N1 C21 C22 109.3(5) . . ?
C20 C21 C22 124.9(6) . . ?
C23 C22 C21 107.9(5) . . ?
C23 C22 H22 126.1 . . ?
C21 C22 H22 126.1 . . ?
C22 C23 C24 106.8(5) . . ?
C22 C23 H23 126.6 . . ?
C24 C23 H23 126.6 . . ?
N1 C24 C25 124.8(5) . . ?
N1 C24 C23 110.7(5) . . ?
C25 C24 C23 124.5(5) . . ?
C24 C25 C26 127.7(5) . . ?
C24 C25 H25 116.2 . . ?
C26 C25 H25 116.2 . . ?
N4 C26 C25 125.1(5) . . ?
N4 C26 C27 110.7(5) . . ?
C25 C26 C27 123.8(6) . . ?
C28 C27 C26 106.5(5) . . ?
C28 C27 H27 126.8 . . ?
C26 C27 H27 126.8 . . ?
C27 C28 C29 107.9(5) . . ?
C27 C28 H28 126.1 . . ?
C29 C28 H28 126.1 . . ?
N4 C29 C10 125.2(5) . . ?
N4 C29 C28 109.4(5) . . ?
C10 C29 C28 125.1(5) . . ?
C57 C30 H30A 109.5 . . ?
C57 C30 H30B 109.5 . . ?
H30A C30 H30B 109.5 . . ?
C57 C30 H30C 109.5 . . ?
H30A C30 H30C 109.5 . . ?
H30B C30 H30C 109.5 . . ?
Cl1 C31 Cl2 114.0(12) . . ?
Cl1 C31 H31A 108.8 . . ?
Cl2 C31 H31A 108.8 . . ?
Cl1 C31 H31B 108.7 . . ?
Cl2 C31 H31B 108.8 . . ?
H31A C31 H31B 107.6 . . ?
O3 C32 H32A 109.5 . . ?
O3 C32 H32B 109.5 . . ?
H32A C32 H32B 109.5 . . ?
O3 C32 H32C 109.5 . . ?
H32A C32 H32C 109.5 . . ?
H32B C32 H32C 109.5 . . ?
O4 C33 H33A 111.3 . . ?
O4 C33 H33B 111.0 . . ?
H33A C33 H33B 107.7 . . ?
O4 C33 H33C 111.0 . . ?
H33A C33 H33C 107.8 . . ?
H33B C33 H33C 107.8 . . ?
C35 C34 C39 120.3(6) . . ?
C35 C34 C20 120.1(6) . . ?
C39 C34 C20 119.5(6) . . ?
C34 C35 C36 118.7(7) . . ?
C34 C35 C42 121.9(6) . . ?
C36 C35 C42 119.4(7) . . ?
C37 C36 C35 122.2(7) . . ?
C37 C36 H36 118.9 . . ?
C35 C36 H36 118.9 . . ?
C38 C37 C36 118.5(6) . . ?
C38 C37 C43 121.4(8) . . ?
C36 C37 C43 120.1(8) . . ?
C37 C38 C39 121.6(7) . . ?
C37 C38 H38 119.2 . . ?
C39 C38 H38 119.2 . . ?
C34 C39 C38 118.5(7) . . ?
C34 C39 C41 121.2(6) . . ?
C38 C39 C41 120.2(7) . . ?
C39 C41 H41A 109.5 . . ?
C39 C41 H41B 109.5 . . ?
H41A C41 H41B 109.5 . . ?
C39 C41 H41C 109.5 . . ?
H41A C41 H41C 109.5 . . ?
H41B C41 H41C 109.5 . . ?
C35 C42 H42A 109.5 . . ?
C35 C42 H42B 109.5 . . ?
H42A C42 H42B 109.5 . . ?
C35 C42 H42C 109.5 . . ?
H42A C42 H42C 109.5 . . ?
H42B C42 H42C 109.5 . . ?
C37 C43 H43A 109.5 . . ?
C37 C43 H43B 109.5 . . ?
H43A C43 H43B 109.5 . . ?
C37 C43 H43C 109.5 . . ?
H43A C43 H43C 109.5 . . ?
H43B C43 H43C 109.5 . . ?
N5 C44 C45 123.3(8) . . ?
N5 C44 H44 118.4 . . ?
C45 C44 H44 118.4 . . ?
C46 C45 C44 118.6(7) . . ?
C46 C45 H45 120.7 . . ?
C44 C45 H45 120.7 . . ?
C45 C46 C47 120.5(7) . . ?
C45 C46 H46 119.7 . . ?
C47 C46 H46 119.7 . . ?
C46 C47 C50 116.8(8) . . ?
C46 C47 C48 124.2(8) . . ?
C50 C47 C48 118.8(8) . . ?
C49 C48 C47 121.2(8) . . ?
C49 C48 H48 119.4 . . ?
C47 C48 H48 119.4 . . ?
C48 C49 C55 125.4(8) . . ?
C48 C49 H49 117.3 . . ?
C55 C49 H49 117.3 . . ?
N5 C50 C47 122.9(7) . . ?
N5 C50 C51 117.6(6) . . ?
C47 C50 C51 119.3(7) . . ?
N6 C51 C50 118.1(6) . . ?
N6 C51 C55 118.2(7) . . ?
C50 C51 C55 123.3(7) . . ?
N6 C52 C53 123.2(8) . . ?
N6 C52 H52 118.4 . . ?
C53 C52 H52 118.4 . . ?
C54 C53 C52 127.1(8) . . ?
C54 C53 H53 116.5 . . ?
C52 C53 H53 116.5 . . ?
C51 C55 C49 111.5(8) . . ?
C51 C55 C54 122.0(7) . . ?
C49 C55 C54 126.4(7) . . ?
C53 C54 C55 109.8(6) . . ?
C53 C54 H54 125.1 . . ?
C55 C54 H54 125.1 . . ?
O2 C57 O1 120.4(6) . . ?
O2 C57 C30 121.4(8) . . ?
O1 C57 C30 118.2(8) . . ?
O2 C57 Yb1 62.0(4) . . ?
O1 C57 Yb1 58.5(3) . . ?
C30 C57 Yb1 176.2(7) . . ?
C24 N1 C21 105.3(5) . . ?
C24 N1 Yb1 126.2(4) . . ?
C21 N1 Yb1 124.7(4) . . ?
C16 N2 C19 106.2(5) . . ?
C16 N2 Yb1 122.8(4) . . ?
C19 N2 Yb1 124.5(4) . . ?
C14 N3 C11 106.0(5) . . ?
C14 N3 Yb1 123.0(4) . . ?
C11 N3 Yb1 127.0(4) . . ?
C26 N4 C29 105.4(5) . . ?
C26 N4 Yb1 125.3(4) . . ?
C29 N4 Yb1 127.3(4) . . ?
C44 N5 C50 117.8(6) . . ?
C44 N5 Yb1 123.5(5) . . ?
C50 N5 Yb1 118.6(4) . . ?
C52 N6 C51 118.6(6) . . ?
C52 N6 Yb1 121.9(5) . . ?
C51 N6 Yb1 119.4(4) . . ?
C57 O1 Yb1 94.1(4) . . ?
C57 O2 Yb1 91.2(4) . . ?
C32 O3 H99 133(7) . . ?
N3 Yb1 N1 120.59(16) . . ?
N3 Yb1 N2 77.05(16) . . ?
N1 Yb1 N2 74.72(16) . . ?
N3 Yb1 O1 136.55(17) . . ?
N1 Yb1 O1 87.52(17) . . ?
N2 Yb1 O1 80.17(16) . . ?
N3 Yb1 N4 75.04(16) . . ?
N1 Yb1 N4 76.65(16) . . ?
N2 Yb1 N4 120.95(17) . . ?
O1 Yb1 N4 147.78(16) . . ?
N3 Yb1 O2 84.25(17) . . ?
N1 Yb1 O2 134.76(16) . . ?
N2 Yb1 O2 75.55(16) . . ?
O1 Yb1 O2 54.25(17) . . ?
N4 Yb1 O2 148.55(16) . . ?
N3 Yb1 N6 81.19(17) . . ?
N1 Yb1 N6 144.08(17) . . ?
N2 Yb1 N6 140.98(17) . . ?
O1 Yb1 N6 94.49(17) . . ?
N4 Yb1 N6 83.12(16) . . ?
O2 Yb1 N6 70.34(17) . . ?
N3 Yb1 N5 138.76(17) . . ?
N1 Yb1 N5 81.88(17) . . ?
N2 Yb1 N5 144.17(17) . . ?
O1 Yb1 N5 71.96(16) . . ?
N4 Yb1 N5 78.07(16) . . ?
O2 Yb1 N5 104.26(16) . . ?
N6 Yb1 N5 64.93(18) . . ?
N3 Yb1 C57 110.2(2) . . ?
N1 Yb1 C57 112.0(2) . . ?
N2 Yb1 C57 76.06(18) . . ?
O1 Yb1 C57 27.5(2) . . ?
N4 Yb1 C57 162.92(18) . . ?
O2 Yb1 C57 26.8(2) . . ?
N6 Yb1 C57 81.7(2) . . ?
N5 Yb1 C57 88.37(19) . . ?
loop_
_geom_bond_atom_site_label_1
_geom_bond_atom_site_label_2
_geom_bond_distance
_geom_bond_site_symmetry_2
_geom_bond_publ_flag
C1 C2 1.517(9) . ?
C1 H1A 0.9600 . ?
C1 H1B 0.9600 . ?
C1 H1C 0.9600 . ?
C2 C3 1.378(10) . ?
C2 C4 1.389(10) . ?
C3 C7 1.401(8) . ?
C3 H3 0.9300 . ?
C4 C5 1.409(9) . ?
C4 H4 0.9300 . ?
C5 C6 1.402(9) . ?
C5 C9 1.508(10) . ?
C6 C7 1.395(9) . ?
C6 C10 1.508(8) . ?
C7 C8 1.512(9) . ?
C8 H8A 0.9600 . ?
C8 H8B 0.9600 . ?
C8 H8C 0.9600 . ?
C9 H9A 0.9600 . ?
C9 H9B 0.9600 . ?
C9 H9C 0.9600 . ?
C10 C29 1.397(8) . ?
C10 C11 1.402(8) . ?
C11 N3 1.386(7) . ?
C11 C12 1.445(8) . ?
C12 C13 1.344(9) . ?
C12 H12 0.9300 . ?
C13 C14 1.447(8) . ?
C13 H13 0.9300 . ?
C14 N3 1.369(7) . ?
C14 C15 1.394(9) . ?
C15 C16 1.394(9) . ?
C15 H15 0.9300 . ?
C16 N2 1.375(7) . ?
C16 C17 1.442(9) . ?
C17 C18 1.345(9) . ?
C17 H17 0.9300 . ?
C18 C19 1.453(9) . ?
C18 H18 0.9300 . ?
C19 N2 1.379(8) . ?
C19 C20 1.403(8) . ?
C20 C21 1.401(8) . ?
C20 C34 1.506(8) . ?
C21 N1 1.393(7) . ?
C21 C22 1.436(8) . ?
C22 C23 1.354(9) . ?
C22 H22 0.9300 . ?
C23 C24 1.426(8) . ?
C23 H23 0.9300 . ?
C24 N1 1.385(7) . ?
C24 C25 1.389(8) . ?
C25 C26 1.396(8) . ?
C25 H25 0.9300 . ?
C26 N4 1.380(7) . ?
C26 C27 1.436(8) . ?
C27 C28 1.357(9) . ?
C27 H27 0.9300 . ?
C28 C29 1.437(8) . ?
C28 H28 0.9300 . ?
C29 N4 1.393(7) . ?
C30 C57 1.498(10) . ?
C30 H30A 0.9600 . ?
C30 H30B 0.9600 . ?
C30 H30C 0.9600 . ?
C31 Cl1 1.57(2) . ?
C31 Cl2 1.770(16) . ?
C31 H31A 0.9700 . ?
C31 H31B 0.9700 . ?
C32 O3 1.323(17) . ?
C32 H32A 0.9600 . ?
C32 H32B 0.9600 . ?
C32 H32C 0.9600 . ?
C33 O4 1.329(16) . ?
C33 H33A 0.9746 . ?
C33 H33B 0.9743 . ?
C33 H33C 0.9742 . ?
C34 C35 1.391(10) . ?
C34 C39 1.400(10) . ?
C35 C36 1.399(10) . ?
C35 C42 1.513(12) . ?
C36 C37 1.377(12) . ?
C36 H36 0.9300 . ?
C37 C38 1.372(11) . ?
C37 C43 1.506(10) . ?
C38 C39 1.414(9) . ?
C38 H38 0.9300 . ?
C39 C41 1.505(10) . ?
C41 H41A 0.9600 . ?
C41 H41B 0.9600 . ?
C41 H41C 0.9600 . ?
C42 H42A 0.9600 . ?
C42 H42B 0.9600 . ?
C42 H42C 0.9600 . ?
C43 H43A 0.9600 . ?
C43 H43B 0.9600 . ?
C43 H43C 0.9600 . ?
C44 N5 1.332(9) . ?
C44 C45 1.402(10) . ?
C44 H44 0.9300 . ?
C45 C46 1.364(13) . ?
C45 H45 0.9300 . ?
C46 C47 1.406(13) . ?
C46 H46 0.9300 . ?
C47 C50 1.415(10) . ?
C47 C48 1.445(13) . ?
C48 C49 1.336(14) . ?
C48 H48 0.9300 . ?
C49 C55 1.481(13) . ?
C49 H49 0.9300 . ?
C50 N5 1.360(9) . ?
C50 C51 1.435(10) . ?
C51 N6 1.356(9) . ?
C51 C55 1.480(10) . ?
C52 N6 1.330(9) . ?
C52 C53 1.400(10) . ?
C52 H52 0.9300 . ?
C53 C54 1.310(10) . ?
C53 H53 0.9300 . ?
C55 C54 1.508(11) . ?
C54 H54 0.9300 . ?
C57 O2 1.250(9) . ?
C57 O1 1.281(9) . ?
C57 Yb1 2.771(7) . ?
N1 Yb1 2.350(5) . ?
N2 Yb1 2.362(5) . ?
N3 Yb1 2.341(5) . ?
N4 Yb1 2.371(5) . ?
N5 Yb1 2.529(5) . ?
N6 Yb1 2.508(5) . ?
O1 Yb1 2.368(4) . ?
O2 Yb1 2.447(5) . ?
O3 H99 0.91(2) . ?
