#------------------------------------------------------------------------------
#$Date: 2015-09-02 11:28:22 +0300 (Wed, 02 Sep 2015) $
#$Revision: 153892 $
#$URL: svn://www.crystallography.net/cod/cif/7/11/77/7117734.cif $
#------------------------------------------------------------------------------
#
# This file is available in the Crystallography Open Database (COD),
# http://www.crystallography.net/
#
# All data on this site have been placed in the public domain by the
# contributors.
#
data_7117734
loop_
_publ_author_name
'Sk Asif Ikbal'
'Avinash Dhamija'
'Sankar Prasad Rath'
_publ_section_title
;
 Metal-coordination-driven mixed ligand binding in supramolecular
 bisporphyrin tweezers
;
_journal_name_full               Chem.Commun.
_journal_page_first              14107
_journal_paper_doi               10.1039/C5cc04882F
_journal_volume                  51
_journal_year                    2015
_chemical_formula_sum            'C92 H121 Cl4 Mg2 N9 O4'
_chemical_formula_weight         1607.39
_chemical_name_systematic
;
 ?
;
_space_group_crystal_system      triclinic
_space_group_IT_number           2
_space_group_name_Hall           '-P 1'
_space_group_name_H-M_alt        'P -1'
_symmetry_space_group_name_Hall  '-P 1'
_symmetry_space_group_name_H-M   'P -1'
_atom_sites_solution_hydrogens   mixed
_audit_creation_method           SHELXL-2014
_audit_update_record
;
2015-06-10 deposited with the CCDC.
2015-07-22 downloaded from the CCDC.
;
_cell_angle_alpha                86.112(2)
_cell_angle_beta                 73.433(2)
_cell_angle_gamma                69.330(2)
_cell_formula_units_Z            2
_cell_length_a                   13.2670(18)
_cell_length_b                   18.521(3)
_cell_length_c                   20.980(3)
_cell_measurement_reflns_used    999
_cell_measurement_temperature    100(2)
_cell_measurement_theta_max      26.0
_cell_measurement_theta_min      2.5
_cell_volume                     4620.0(12)
_computing_cell_refinement       'Bruker SAINT'
_computing_data_collection       'Bruker APEX'
_computing_data_reduction        'Bruker SAINT'
_computing_molecular_graphics    'SHELXL 5.1, XP (Sheldrick, 1994)'
_computing_publication_material  SHELXS-97
_computing_structure_refinement  'SHELXL-2014 (Sheldrick, 2014)'
_computing_structure_solution    'SHELXS-97 (Sheldrick, 2008)'
_diffrn_ambient_temperature      100(2)
_diffrn_measured_fraction_theta_full 0.982
_diffrn_measured_fraction_theta_max 0.975
_diffrn_measurement_device_type  'Bruker SMART APEX'
_diffrn_measurement_method       \w
_diffrn_radiation_type           MoK\a
_diffrn_radiation_wavelength     0.71073
_diffrn_reflns_av_R_equivalents  0.0459
_diffrn_reflns_av_unetI/netI     0.1165
_diffrn_reflns_laue_measured_fraction_full 0.982
_diffrn_reflns_laue_measured_fraction_max 0.975
_diffrn_reflns_limit_h_max       16
_diffrn_reflns_limit_h_min       -16
_diffrn_reflns_limit_k_max       22
_diffrn_reflns_limit_k_min       -12
_diffrn_reflns_limit_l_max       25
_diffrn_reflns_limit_l_min       -25
_diffrn_reflns_number            25736
_diffrn_reflns_point_group_measured_fraction_full 0.982
_diffrn_reflns_point_group_measured_fraction_max 0.975
_diffrn_reflns_theta_full        25.000
_diffrn_reflns_theta_max         26.000
_diffrn_reflns_theta_min         2.193
_diffrn_source                   'fine-focus sealed tube'
_exptl_absorpt_coefficient_mu    0.194
_exptl_absorpt_correction_T_max  0.970
_exptl_absorpt_correction_T_min  0.950
_exptl_absorpt_correction_type   multi-scan
_exptl_absorpt_process_details   'SADABS 2.05 (Sheldrick, 2002)'
_exptl_crystal_colour            'dark brown'
_exptl_crystal_density_diffrn    1.155
_exptl_crystal_description       block
_exptl_crystal_F_000             1720
_exptl_crystal_size_max          0.260
_exptl_crystal_size_mid          0.200
_exptl_crystal_size_min          0.160
_refine_diff_density_max         0.671
_refine_diff_density_min         -0.535
_refine_diff_density_rms         0.071
_refine_ls_extinction_coef       .
_refine_ls_extinction_method     none
_refine_ls_goodness_of_fit_ref   0.926
_refine_ls_hydrogen_treatment    constr
_refine_ls_matrix_type           full
_refine_ls_number_parameters     970
_refine_ls_number_reflns         17732
_refine_ls_number_restraints     0
_refine_ls_restrained_S_all      0.926
_refine_ls_R_factor_all          0.1460
_refine_ls_R_factor_gt           0.0856
_refine_ls_shift/su_max          0.000
_refine_ls_shift/su_mean         0.000
_refine_ls_structure_factor_coef Fsqd
_refine_ls_weighting_details
'w=1/[\s^2^(Fo^2^)+(0.1375P)^2^] where P=(Fo^2^+2Fc^2^)/3'
_refine_ls_weighting_scheme      calc
_refine_ls_wR_factor_gt          0.2184
_refine_ls_wR_factor_ref         0.2511
_reflns_Friedel_coverage         0.000
_reflns_friedel_fraction_full    .
_reflns_friedel_fraction_max     .
_reflns_number_gt                8835
_reflns_number_total             17732
_reflns_threshold_expression     'I > 2\s(I)'
_cod_data_source_file            c5cc04882f2.cif
_cod_data_source_block           22febc
_cod_original_cell_volume        4619.9(11)
_cod_database_code               7117734
_shelx_space_group_comment
;
The symmetry employed for this shelxl refinement is uniquely defined
by the following loop, which should always be used as a source of
symmetry information in preference to the above space-group names.
They are only intended as comments.
;
_shelx_estimated_absorpt_t_min   0.951
_shelx_estimated_absorpt_t_max   0.970
_shelxl_version_number           2014-3
_shelx_res_file
;
TITL 22febc in P -1
CELL  0.71073  13.2670  18.5208  20.9799   86.112   73.433   69.330
ZERR     2.00   0.0018   0.0026   0.0030    0.002    0.002    0.002
LATT   1
SFAC  C    H    N    MG   O Cl
UNIT  184  242  18   4    8 8
MERG   2
TEMP -173.0
OMIT -3 52.0
omit 1 1 2
omit 0 -3 1
omit 3 2 1
omit 9 5 4
omit 8 5 4
omit 7 4 3
omit 8 6 6
omit 1 -3 4
omit 1 1 11
omit 2 1 0
omit -1 1 2
omit 5 3 2
omit -12 -16 6
omit -1 0 3
omit 11 7 7
omit 3 2 5
omit 2 5 2
size 0.26 0.20 0.16 ! red block
acta 50
FMAP   2
bond $H
PLAN   5
L.S.   40
WGHT    0.137500
FVAR       3.01166   0.58000
MG1   4   -0.320707    0.866492    0.884269    11.00000    0.02965    0.03025 =
         0.03126    0.00127   -0.01246   -0.01146
MG2   4   -0.043332    0.575710    0.652144    11.00000    0.03500    0.02867 =
         0.03628    0.00138   -0.01409   -0.01357
O1    5   -0.241466    0.778417    0.805245    11.00000    0.03390    0.04064 =
         0.04591   -0.01303   -0.00876   -0.01501
O2    5   -0.116450    0.623911    0.758731    11.00000    0.04567    0.03677 =
         0.04405   -0.00343   -0.00555   -0.01623
O3    5   -0.392314    0.961210    0.958026    11.00000    0.03613    0.03627 =
         0.02647    0.00024   -0.00836   -0.01208
O4    5    0.038424    0.524145    0.548197    11.00000    0.04567    0.04368 =
         0.03535   -0.00497   -0.01522   -0.01794
N1    3   -0.242388    0.934229    0.821683    11.00000    0.02693    0.03262 =
         0.03454    0.00065   -0.01120   -0.01370
N2    3   -0.188336    0.820992    0.926574    11.00000    0.03358    0.03587 =
         0.03592    0.00166   -0.01494   -0.01184
N3    3   -0.399166    0.798171    0.946545    11.00000    0.03107    0.02910 =
         0.04130    0.00050   -0.01300   -0.01161
N4    3   -0.453237    0.909814    0.841868    11.00000    0.02893    0.03148 =
         0.02950    0.00007   -0.00893   -0.01520
N5    3   -0.287087    0.921055    0.625032    11.00000    0.03647    0.03376 =
         0.02892    0.01021   -0.01685   -0.01483
AFIX  43
H5A   2   -0.261128    0.892594    0.656094    11.00000   -1.20000
AFIX   0
N6    3   -0.191348    0.637212    0.628923    11.00000    0.03443    0.02710 =
         0.03519    0.00145   -0.01041   -0.01400
N7    3   -0.095386    0.482824    0.682631    11.00000    0.03168    0.02975 =
         0.04310    0.00114   -0.01178   -0.01415
N8    3    0.104333    0.515428    0.676278    11.00000    0.03449    0.03205 =
         0.03712   -0.00011   -0.01343   -0.01359
N9    3    0.008097    0.668279    0.620160    11.00000    0.03564    0.03107 =
         0.02762   -0.00060   -0.01124   -0.01398
C1    1   -0.274112    0.978411    0.771271    11.00000    0.02784    0.03139 =
         0.02657    0.00100   -0.00700   -0.01349
C2    1   -0.186003    1.010058    0.736693    11.00000    0.03120    0.03204 =
         0.03334   -0.00170   -0.01001   -0.01225
C3    1   -0.106043    0.985589    0.770068    11.00000    0.02661    0.03727 =
         0.03302   -0.00176   -0.00670   -0.01388
C4    1   -0.140847    0.937047    0.822368    11.00000    0.02752    0.03491 =
         0.03035   -0.00564   -0.00662   -0.01406
C5    1   -0.075481    0.895119    0.864259    11.00000    0.02864    0.03658 =
         0.03801   -0.00087   -0.01392   -0.01406
AFIX  43
H5B   2   -0.008112    0.904850    0.859612    11.00000   -1.20000
AFIX   0
C6    1   -0.095476    0.842215    0.910816    11.00000    0.03503    0.03818 =
         0.03746   -0.00103   -0.01738   -0.01069
C7    1   -0.019667    0.797555    0.950448    11.00000    0.03671    0.06274 =
         0.04414    0.00655   -0.02032   -0.01983
C8    1   -0.069698    0.751836    0.988282    11.00000    0.03888    0.05863 =
         0.04420    0.01399   -0.02017   -0.01669
C9    1   -0.177710    0.767701    0.974959    11.00000    0.03534    0.04316 =
         0.03931    0.00562   -0.01665   -0.01360
C10   1   -0.257800    0.734746    1.005173    11.00000    0.04106    0.04718 =
         0.04776    0.01278   -0.02051   -0.01444
AFIX  43
H10A  2   -0.239448    0.697272    1.037175    11.00000   -1.20000
AFIX   0
C11   1   -0.362920    0.750275    0.994013    11.00000    0.03789    0.04407 =
         0.04859    0.01502   -0.01875   -0.01722
C12   1   -0.449199    0.720256    1.031740    11.00000    0.04815    0.05651 =
         0.05053    0.02283   -0.01971   -0.02103
C13   1   -0.538325    0.750804    1.005713    11.00000    0.04154    0.04725 =
         0.05349    0.01488   -0.01641   -0.02238
C14   1   -0.505364    0.799011    0.952558    11.00000    0.03359    0.03513 =
         0.04197    0.00034   -0.01264   -0.01618
C15   1   -0.571376    0.843025    0.913209    11.00000    0.03634    0.04099 =
         0.03967   -0.00411   -0.01238   -0.01742
AFIX  43
H15A  2   -0.642648    0.837763    0.921575    11.00000   -1.20000
AFIX   0
C16   1   -0.549620    0.893513    0.863564    11.00000    0.03326    0.03468 =
         0.03504    0.00020   -0.01286   -0.01859
C17   1   -0.627861    0.936106    0.826186    11.00000    0.03874    0.04651 =
         0.04418    0.01072   -0.02265   -0.02220
C18   1   -0.575258    0.977131    0.780568    11.00000    0.03730    0.05106 =
         0.03844    0.00917   -0.01928   -0.02552
C19   1   -0.463109    0.960821    0.791262    11.00000    0.02994    0.03589 =
         0.03209   -0.00107   -0.01134   -0.01460
C20   1   -0.379090    0.990820    0.757611    11.00000    0.03276    0.03522 =
         0.03221    0.00526   -0.01440   -0.01696
C21   1   -0.173929    1.060001    0.677029    11.00000    0.04183    0.04400 =
         0.04045    0.00972   -0.01990   -0.02324
AFIX  23
H21A  2   -0.210529    1.048191    0.646055    11.00000   -1.20000
H21B  2   -0.093218    1.046782    0.653500    11.00000   -1.20000
AFIX   0
C22   1   -0.225286    1.146860    0.695010    11.00000    0.06079    0.04400 =
         0.05471    0.01378   -0.03330   -0.02858
AFIX 137
H22A  2   -0.221665    1.175995    0.654150    11.00000   -1.50000
H22B  2   -0.183216    1.160241    0.721020    11.00000   -1.50000
H22C  2   -0.303763    1.159797    0.721338    11.00000   -1.50000
AFIX   0
C23   1   -0.000112    1.004258    0.757259    11.00000    0.03834    0.04602 =
         0.03859    0.00405   -0.01349   -0.02434
AFIX  23
H23A  2    0.022213    1.018382    0.710300    11.00000   -1.20000
H23B  2    0.061084    0.957783    0.764331    11.00000   -1.20000
AFIX   0
C24   1   -0.015523    1.070942    0.803039    11.00000    0.05042    0.04699 =
         0.07641    0.00786   -0.03600   -0.02727
AFIX 137
H24A  2    0.054684    1.081454    0.792987    11.00000   -1.50000
H24B  2   -0.035695    1.056644    0.849562    11.00000   -1.50000
H24C  2   -0.075390    1.117265    0.795773    11.00000   -1.50000
AFIX   0
C25   1    0.094074    0.800464    0.943950    11.00000    0.04689    0.08904 =
         0.07368    0.03157   -0.04171   -0.03542
AFIX  23
H25A  2    0.114515    0.784374    0.985892    11.00000   -1.20000
H25B  2    0.092483    0.854127    0.936156    11.00000   -1.20000
AFIX   0
C26   1    0.186978    0.744500    0.883237    11.00000    0.05524    0.15109 =
         0.08391   -0.00158   -0.01781   -0.03383
AFIX 137
H26A  2    0.261898    0.741870    0.883594    11.00000   -1.50000
H26B  2    0.173126    0.764943    0.841005    11.00000   -1.50000
H26C  2    0.182399    0.692659    0.888196    11.00000   -1.50000
AFIX   0
C27   1   -0.029851    0.697556    1.040546    11.00000    0.05354    0.09173 =
         0.06381    0.03822   -0.03676   -0.03071
AFIX  23
H27A  2   -0.052336    0.651938    1.040656    11.00000   -1.20000
H27B  2    0.053129    0.679276    1.028377    11.00000   -1.20000
AFIX   0
C28   1   -0.075712    0.733981    1.109026    11.00000    0.10162    0.15332 =
         0.07062    0.05206   -0.05158   -0.06760
AFIX 137
H28A  2   -0.044491    0.696952    1.140122    11.00000   -1.50000
H28B  2   -0.157638    0.749063    1.122689    11.00000   -1.50000
H28C  2   -0.055087    0.779816    1.109182    11.00000   -1.50000
AFIX   0
C29   1   -0.445278    0.670998    1.091781    11.00000    0.07434    0.13108 =
         0.10665    0.07963   -0.05155   -0.06242
AFIX  23
H29A  2   -0.366499    0.638491    1.088520    11.00000   -1.20000
H29B  2   -0.487987    0.636358    1.092914    11.00000   -1.20000
AFIX   0
C30   1   -0.494553    0.720610    1.155191    11.00000    0.11133    0.28697 =
         0.05284    0.05034   -0.02276    0.01478
AFIX 137
H30A  2   -0.506709    0.688216    1.193482    11.00000   -1.50000
H30B  2   -0.566303    0.760108    1.154093    11.00000   -1.50000
H30C  2   -0.442578    0.745654    1.159087    11.00000   -1.50000
AFIX   0
C31   1   -0.648985    0.739629    1.027679    11.00000    0.04964    0.07695 =
         0.06308    0.03231   -0.02383   -0.03175
AFIX  23
H31A  2   -0.639849    0.690270    1.050760    11.00000   -1.20000
H31B  2   -0.672965    0.735569    0.987901    11.00000   -1.20000
AFIX   0
C32   1   -0.739287    0.803483    1.073210    11.00000    0.04960    0.13794 =
         0.07838    0.00551   -0.01062   -0.04025
AFIX 137
H32A  2   -0.808460    0.791436    1.087445    11.00000   -1.50000
H32B  2   -0.752858    0.852004    1.049661    11.00000   -1.50000
H32C  2   -0.715584    0.808756    1.112295    11.00000   -1.50000
AFIX   0
C33   1   -0.745150    0.937633    0.841680    11.00000    0.04701    0.08323 =
         0.07347    0.04126   -0.03584   -0.04288
AFIX  23
H33A  2   -0.745868    0.884392    0.848658    11.00000   -1.20000
H33B  2   -0.775371    0.957926    0.803486    11.00000   -1.20000
AFIX   0
C34   1   -0.821638    0.989343    0.905466    11.00000    0.05017    0.10516 =
         0.09236    0.02853   -0.01666   -0.02692
AFIX 137
H34A  2   -0.898492    0.989835    0.914206    11.00000   -1.50000
H34B  2   -0.821255    1.042120    0.898543    11.00000   -1.50000
H34C  2   -0.793044    0.968443    0.943578    11.00000   -1.50000
AFIX   0
C35   1   -0.632345    1.027103    0.732566    11.00000    0.04173    0.06510 =
         0.06229    0.02347   -0.02709   -0.03250
AFIX  23
H35A  2   -0.684626    1.004660    0.723468    11.00000   -1.20000
H35B  2   -0.574867    1.025904    0.690062    11.00000   -1.20000
AFIX   0
C36   1   -0.696848    1.110109    0.756136    11.00000    0.04355    0.07860 =
         0.08215    0.03780   -0.01949   -0.01415
AFIX 137
H36A  2   -0.730852    1.138583    0.721976    11.00000   -1.50000
H36B  2   -0.645712    1.133431    0.764364    11.00000   -1.50000
H36C  2   -0.755905    1.112266    0.797387    11.00000   -1.50000
AFIX   0
C37   1   -0.399746    1.040871    0.699239    11.00000    0.03411    0.03544 =
         0.03391    0.00638   -0.01545   -0.01991
AFIX  23
H37A  2   -0.481235    1.069972    0.708501    11.00000   -1.20000
H37B  2   -0.361507    1.078898    0.695175    11.00000   -1.20000
AFIX   0
C38   1   -0.360034    0.996933    0.634604    11.00000    0.02806    0.03559 =
         0.03570    0.00917   -0.01607   -0.01666
C39   1   -0.380253    1.020784    0.574256    11.00000    0.03338    0.04336 =
         0.03559    0.00853   -0.01499   -0.02402
C40   1   -0.450742    1.099773    0.560454    11.00000    0.03734    0.03595 =
         0.04428    0.01041   -0.02286   -0.01673
AFIX  23
H40A  2   -0.518947    1.118629    0.598474    11.00000   -1.20000
H40B  2   -0.474968    1.096590    0.520577    11.00000   -1.20000
AFIX   0
C41   1   -0.390420    1.158026    0.549013    11.00000    0.05411    0.03854 =
         0.06817    0.01701   -0.02797   -0.02639
AFIX 137
H41A  2   -0.440560    1.208229    0.539526    11.00000   -1.50000
H41B  2   -0.323062    1.140068    0.511192    11.00000   -1.50000
H41C  2   -0.368885    1.163205    0.588970    11.00000   -1.50000
AFIX   0
C42   1   -0.316507    0.956932    0.527452    11.00000    0.03665    0.03875 =
         0.03453    0.00627   -0.01595   -0.02521
C43   1   -0.309514    0.955432    0.453846    11.00000    0.03835    0.04511 =
         0.03788    0.00999   -0.02111   -0.02069
AFIX  23
H43A  2   -0.292617    0.901763    0.439003    11.00000   -1.20000
H43B  2   -0.383315    0.987316    0.447533    11.00000   -1.20000
AFIX   0
C44   1   -0.220192    0.985452    0.410891    11.00000    0.05141    0.06720 =
         0.03433    0.01042   -0.01593   -0.03319
AFIX 137
H44A  2   -0.218806    0.983109    0.364110    11.00000   -1.50000
H44B  2   -0.146691    0.953541    0.416313    11.00000   -1.50000
H44C  2   -0.237531    1.039046    0.424576    11.00000   -1.50000
AFIX   0
C45   1   -0.261104    0.896635    0.560013    11.00000    0.03263    0.03929 =
         0.03071    0.01012   -0.01176   -0.02166
C46   1   -0.181407    0.817636    0.532864    11.00000    0.04682    0.03554 =
         0.03194    0.00605   -0.01898   -0.02150
AFIX  23
H46A  2   -0.110402    0.823397    0.505704    11.00000   -1.20000
H46B  2   -0.213179    0.800019    0.502143    11.00000   -1.20000
AFIX   0
C51   1   -0.223478    0.708417    0.601000    11.00000    0.03574    0.03346 =
         0.03429    0.00580   -0.01654   -0.01656
C52   1   -0.337268    0.727529    0.595361    11.00000    0.03781    0.03259 =
         0.05745    0.00781   -0.02035   -0.01597
C53   1   -0.370899    0.667552    0.621696    11.00000    0.03870    0.03508 =
         0.09833    0.00917   -0.03370   -0.01385
C54   1   -0.278966    0.610628    0.640320    11.00000    0.03566    0.02857 =
         0.05745    0.00266   -0.01541   -0.01258
C55   1   -0.278838    0.538104    0.663026    11.00000    0.02852    0.03797 =
         0.07201    0.00405   -0.01278   -0.01813
AFIX  43
H55A  2   -0.346300    0.528620    0.667370    11.00000   -1.20000
AFIX   0
C56   1   -0.193928    0.477430    0.680295    11.00000    0.03837    0.02292 =
         0.05239    0.00354   -0.00771   -0.00906
C57   1   -0.196834    0.400124    0.698112    11.00000    0.03960    0.03903 =
         0.05570    0.00326   -0.01123   -0.02003
C58   1   -0.097454    0.360076    0.711797    11.00000    0.04191    0.03014 =
         0.04482    0.00438   -0.00900   -0.01176
C59   1   -0.035203    0.412725    0.702306    11.00000    0.03735    0.03172 =
         0.03623   -0.00299   -0.00771   -0.01466
C60   1    0.072370    0.394756    0.710780    11.00000    0.03971    0.02970 =
         0.04513   -0.00094   -0.01822   -0.01093
AFIX  43
H60A  2    0.104800    0.344619    0.725816    11.00000   -1.20000
AFIX   0
C61   1    0.136350    0.441899    0.699679    11.00000    0.03554    0.02568 =
         0.05346   -0.00185   -0.01556   -0.00881
C62   1    0.246574    0.421914    0.709011    11.00000    0.04594    0.03385 =
         0.08736   -0.00063   -0.03003   -0.00995
C63   1    0.279563    0.484156    0.692371    11.00000    0.04241    0.03458 =
         0.09617    0.01077   -0.03297   -0.01179
C64   1    0.189905    0.542230    0.670990    11.00000    0.03910    0.02775 =
         0.05174   -0.00445   -0.01286   -0.01192
C65   1    0.189433    0.614423    0.647485    11.00000    0.03003    0.03487 =
         0.04664   -0.00212   -0.00964   -0.01246
AFIX  43
H65A  2    0.254484    0.625827    0.645964    11.00000   -1.20000
AFIX   0
C66   1    0.106508    0.672621    0.625759    11.00000    0.03131    0.03826 =
         0.03155   -0.00430   -0.00614   -0.01666
C67   1    0.114500    0.747109    0.604689    11.00000    0.03739    0.03400 =
         0.03519    0.00258   -0.00839   -0.01540
C68   1    0.020413    0.787416    0.584509    11.00000    0.03599    0.03505 =
         0.03196    0.00284   -0.01112   -0.01704
C69   1   -0.047644    0.736148    0.594550    11.00000    0.03637    0.03305 =
         0.03062   -0.00174   -0.01105   -0.01479
C70   1   -0.151488    0.752641    0.580864    11.00000    0.03836    0.02956 =
         0.03055    0.00304   -0.01344   -0.01513
C71   1   -0.417695    0.797967    0.573028    11.00000    0.05308    0.04140 =
         0.07301    0.01955   -0.04111   -0.02500
AFIX  23
H71A  2   -0.460341    0.781133    0.548994    11.00000   -1.20000
H71B  2   -0.374116    0.825626    0.541457    11.00000   -1.20000
AFIX   0
C72   1   -0.500192    0.853515    0.630255    11.00000    0.04063    0.03932 =
         0.08749    0.01805   -0.03107   -0.01122
AFIX 137
H72A  2   -0.546535    0.899480    0.612462    11.00000   -1.50000
H72B  2   -0.458663    0.868748    0.655511    11.00000   -1.50000
H72C  2   -0.548443    0.828049    0.659605    11.00000   -1.50000
AFIX   0
C73   1   -0.485194    0.661169    0.635761    11.00000    0.04504    0.04315 =
         0.26920    0.05034   -0.06859   -0.02387
AFIX  23
H73A  2   -0.478846    0.609526    0.621423    11.00000   -1.20000
H73B  2   -0.532197    0.700878    0.612074    11.00000   -1.20000
AFIX   0
C75   1   -0.288218    0.371374    0.696506    11.00000    0.05148    0.03670 =
         0.13197    0.02572   -0.03573   -0.02640
AFIX  23
H75A  2   -0.361907    0.412244    0.714960    11.00000   -1.20000
H75B  2   -0.284454    0.326117    0.724920    11.00000   -1.20000
AFIX   0
C76   1   -0.278264    0.347683    0.623426    11.00000    0.11155    0.07906 =
         0.18450    0.03547   -0.10285   -0.05140
AFIX 137
H76A  2   -0.334075    0.323871    0.624781    11.00000   -1.50000
H76B  2   -0.202872    0.310733    0.603532    11.00000   -1.50000
H76C  2   -0.291669    0.393747    0.596630    11.00000   -1.50000
AFIX   0
C77   1   -0.054157    0.277426    0.728162    11.00000    0.04703    0.03816 =
         0.05783    0.01377   -0.01812   -0.01694
AFIX  23
H77A  2   -0.118501    0.260020    0.748120    11.00000   -1.20000
H77B  2   -0.013128    0.272469    0.761865    11.00000   -1.20000
AFIX   0
C78   1    0.024177    0.224427    0.667581    11.00000    0.05917    0.03869 =
         0.06026   -0.00266   -0.01930   -0.01240
AFIX 137
H78A  2    0.051918    0.171273    0.681788    11.00000   -1.50000
H78B  2    0.087742    0.241593    0.647187    11.00000   -1.50000
H78C  2   -0.017101    0.226566    0.635080    11.00000   -1.50000
AFIX   0
C79   1    0.310493    0.345690    0.732282    11.00000    0.06110    0.03420 =
         0.17517    0.02624   -0.06150   -0.02011
AFIX  23
H79A  2    0.256781    0.324396    0.762965    11.00000   -1.20000
H79B  2    0.358766    0.353765    0.757370    11.00000   -1.20000
AFIX   0
C80   1    0.383469    0.287320    0.674872    11.00000    0.09031    0.04942 =
         0.23565    0.02513    0.01770    0.00594
AFIX 137
H80A  2    0.423927    0.238773    0.692484    11.00000   -1.50000
H80B  2    0.437481    0.307810    0.644614    11.00000   -1.50000
H80C  2    0.335858    0.277897    0.650657    11.00000   -1.50000
AFIX   0
C81   1    0.386531    0.492670    0.694432    11.00000    0.05217    0.04377 =
         0.20180    0.02511   -0.05690   -0.01755

part 1
AFIX   1
H81A  2    0.404670    0.529860    0.663090    21.00000   -1.20000
H81B  2    0.448060    0.444110    0.683280    21.00000   -1.20000
AFIX   1
part 2
H81C  2    0.425210    0.454810    0.721050   -21.00000   -1.20000
H81D  2    0.376130    0.543490    0.708920   -21.00000   -1.20000
AFIX   0
part 0
C82   1    0.366442    0.523794    0.774788    21.00000    0.09703    0.07127 =
         0.19130   -0.00781   -0.11580   -0.03021
AFIX 137
H82A  2    0.439410    0.514743    0.782381    21.00000   -1.50000
H82B  2    0.326465    0.495124    0.806738    21.00000   -1.50000
H82C  2    0.322109    0.579088    0.780615    21.00000   -1.50000
AFIX   0
C82A  1    0.464456    0.474224    0.603042   -21.00000    0.16308
AFIX 137
H82D  2    0.480522    0.420445    0.590504   -21.00000   -1.50000
H82E  2    0.535064    0.483902    0.594554   -21.00000   -1.50000
H82F  2    0.418196    0.508761    0.576671   -21.00000   -1.50000
AFIX   0
C83   1    0.203200    0.775868    0.610447    11.00000    0.03714    0.03833 =
         0.05937    0.00942   -0.01811   -0.01897
AFIX  23
H83A  2    0.205241    0.818844    0.579943    11.00000   -1.20000
H83B  2    0.277069    0.733874    0.596536    11.00000   -1.20000
AFIX   0
C84   1    0.183293    0.803863    0.681092    11.00000    0.06141    0.06260 =
         0.08611    0.00290   -0.03931   -0.03852
AFIX 137
H84A  2    0.243627    0.821968    0.682674    11.00000   -1.50000
H84B  2    0.182340    0.761286    0.711385    11.00000   -1.50000
H84C  2    0.111102    0.846349    0.694675    11.00000   -1.50000
AFIX   0
C85   1   -0.000162    0.868337    0.560527    11.00000    0.03707    0.04400 =
         0.04415    0.00751   -0.01486   -0.02614
AFIX  23
H85A  2    0.021871    0.897162    0.588994    11.00000   -1.20000
H85B  2   -0.081564    0.894144    0.566024    11.00000   -1.20000
AFIX   0
C86   1    0.062899    0.873048    0.488266    11.00000    0.05174    0.05635 =
         0.04775    0.01579   -0.01366   -0.03146
AFIX 137
H86A  2    0.055024    0.926929    0.478391    11.00000   -1.50000
H86B  2    0.031774    0.853325    0.459064    11.00000   -1.50000
H86C  2    0.142504    0.841923    0.480812    11.00000   -1.50000
AFIX   0
C87   1   -0.291658    0.732398    0.782591    11.00000    0.03500    0.04994 =
         0.04448   -0.01805   -0.00943   -0.01454
AFIX  23
H87A  2   -0.286102    0.740754    0.734787    11.00000   -1.20000
H87B  2   -0.372170    0.748344    0.807394    11.00000   -1.20000
AFIX   0
C88   1   -0.234908    0.648670    0.792401    11.00000    0.05374    0.04715 =
         0.04996   -0.00836   -0.00058   -0.02714
AFIX  23
H88A  2   -0.245796    0.639676    0.840553    11.00000   -1.20000
H88B  2   -0.269403    0.617733    0.774987    11.00000   -1.20000
AFIX   0
C89   1   -0.068607    0.671179    0.783652    11.00000    0.03837    0.04863 =
         0.03923   -0.00983   -0.01448   -0.00982
AFIX  23
H89A  2    0.012913    0.654661    0.761266    11.00000   -1.20000
H89B  2   -0.078772    0.664036    0.831979    11.00000   -1.20000
AFIX   0
C90   1   -0.122988    0.754445    0.771661    11.00000    0.03309    0.04652 =
         0.04513   -0.01331   -0.00499   -0.01819
AFIX  23
H90A  2   -0.088807    0.785917    0.788682    11.00000   -1.20000
H90B  2   -0.111476    0.762176    0.723313    11.00000   -1.20000
AFIX   0
C91   1   -0.458465    1.037881    0.944501    11.00000    0.04924    0.03221 =
         0.03309    0.00678   -0.01051   -0.01728
AFIX  23
H91A  2   -0.440451    1.044942    0.895870    11.00000   -1.20000
H91B  2   -0.440284    1.076478    0.965148    11.00000   -1.20000
AFIX   0
C92   1   -0.581099    1.050063    0.971917    11.00000    0.04280    0.03703 =
         0.03024   -0.00072   -0.01844   -0.00729
AFIX  23
H92A  2   -0.626154    1.103099    0.963113    11.00000   -1.20000
H92B  2   -0.600044    1.013262    0.949526    11.00000   -1.20000
AFIX   0
C93   1    0.022470    0.567777    0.490251    11.00000    0.09037    0.03277 =
         0.03247   -0.00375   -0.00904   -0.02956
AFIX  23
H93A  2    0.093315    0.551286    0.453825    11.00000   -1.20000
H93B  2    0.002068    0.623347    0.500634    11.00000   -1.20000
AFIX   0
C94   1    0.067854    0.444313    0.531537    11.00000    0.07501    0.03319 =
         0.04024   -0.00571   -0.02865    0.00811
AFIX  23
H94A  2    0.079409    0.413094    0.570768    11.00000   -1.20000
H94B  2    0.138973    0.427056    0.495359    11.00000   -1.20000
AFIX   0
C74   1   -0.547620    0.676742    0.728322    11.00000    0.06492    0.13915 =
         0.28790   -0.08072    0.04293   -0.04198
AFIX 137
H74A  2   -0.627367    0.683261    0.739805    11.00000   -1.50000
H74B  2   -0.539577    0.723154    0.742754    11.00000   -1.50000
H74C  2   -0.508476    0.631935    0.750685    11.00000   -1.50000

AFIX   0
HKLF    4

REM  22febc in P -1
REM R1 =  0.0856 for    8835 Fo > 4sig(Fo)  and  0.1460 for all   17732 data
REM    970 parameters refined using      0 restraints

END

WGHT      0.1375      0.0000

REM Highest difference peak  0.671,  deepest hole -0.535,  1-sigma level  0.071
Q1    1   0.0417  0.8881  1.0021  11.00000  0.05    0.67
Q2    1  -0.5472  0.6347  0.7760  11.00000  0.05    0.62
Q3    1   0.1755  0.6609  0.8266  11.00000  0.05    0.48
Q4    1  -0.7197  0.8479  0.8009  11.00000  0.05    0.47
Q5    1  -0.3567  0.3874  0.7726  11.00000  0.05    0.45
;
_shelx_res_checksum              27394
loop_
_space_group_symop_operation_xyz
'x, y, z'
'-x, -y, -z'
loop_
_atom_site_label
_atom_site_type_symbol
_atom_site_fract_x
_atom_site_fract_y
_atom_site_fract_z
_atom_site_U_iso_or_equiv
_atom_site_adp_type
_atom_site_occupancy
_atom_site_site_symmetry_order
_atom_site_calc_flag
_atom_site_refinement_flags_posn
_atom_site_refinement_flags_adp
_atom_site_refinement_flags_occupancy
_atom_site_disorder_assembly
_atom_site_disorder_group
Mg1 Mg -0.32071(9) 0.86649(7) 0.88427(6) 0.0292(3) Uani 1 1 d . . . . .
Mg2 Mg -0.04333(10) 0.57571(7) 0.65214(6) 0.0317(3) Uani 1 1 d . . . . .
O1 O -0.2415(2) 0.77842(14) 0.80525(13) 0.0394(6) Uani 1 1 d . . . . .
O2 O -0.1165(2) 0.62391(15) 0.75873(13) 0.0429(7) Uani 1 1 d . . . . .
O3 O -0.39231(19) 0.96121(14) 0.95803(11) 0.0331(6) Uani 1 1 d . . . . .
O4 O 0.0384(2) 0.52414(15) 0.54820(12) 0.0397(6) Uani 1 1 d . . . . .
N1 N -0.2424(2) 0.93423(16) 0.82168(14) 0.0298(7) Uani 1 1 d . . . . .
N2 N -0.1883(2) 0.82099(17) 0.92657(15) 0.0341(7) Uani 1 1 d . . . . .
N3 N -0.3992(2) 0.79817(16) 0.94654(15) 0.0328(7) Uani 1 1 d . . . . .
N4 N -0.4532(2) 0.90981(16) 0.84187(14) 0.0284(7) Uani 1 1 d . . . . .
N5 N -0.2871(2) 0.92105(16) 0.62503(14) 0.0311(7) Uani 1 1 d . . . . .
H5A H -0.2611 0.8926 0.6561 0.037 Uiso 1 1 calc R U . . .
N6 N -0.1913(2) 0.63721(16) 0.62892(14) 0.0312(7) Uani 1 1 d . . . . .
N7 N -0.0954(2) 0.48282(17) 0.68263(15) 0.0336(7) Uani 1 1 d . . . . .
N8 N 0.1043(2) 0.51543(17) 0.67628(15) 0.0332(7) Uani 1 1 d . . . . .
N9 N 0.0081(2) 0.66828(16) 0.62016(14) 0.0302(7) Uani 1 1 d . . . . .
C1 C -0.2741(3) 0.9784(2) 0.77127(17) 0.0278(8) Uani 1 1 d . . . . .
C2 C -0.1860(3) 1.0101(2) 0.73669(18) 0.0315(8) Uani 1 1 d . . . . .
C3 C -0.1060(3) 0.9856(2) 0.77007(18) 0.0317(8) Uani 1 1 d . . . . .
C4 C -0.1408(3) 0.9370(2) 0.82237(17) 0.0300(8) Uani 1 1 d . . . . .
C5 C -0.0755(3) 0.8951(2) 0.86426(18) 0.0325(8) Uani 1 1 d . . . . .
H5B H -0.0081 0.9049 0.8596 0.039 Uiso 1 1 calc R U . . .
C6 C -0.0955(3) 0.8422(2) 0.91082(19) 0.0358(9) Uani 1 1 d . . . . .
C7 C -0.0197(3) 0.7976(3) 0.9504(2) 0.0454(11) Uani 1 1 d . . . . .
C8 C -0.0697(3) 0.7518(3) 0.9883(2) 0.0460(11) Uani 1 1 d . . . . .
C9 C -0.1777(3) 0.7677(2) 0.97496(19) 0.0381(9) Uani 1 1 d . . . . .
C10 C -0.2578(3) 0.7347(2) 1.0052(2) 0.0444(10) Uani 1 1 d . . . . .
H10A H -0.2394 0.6973 1.0372 0.053 Uiso 1 1 calc R U . . .
C11 C -0.3629(3) 0.7503(2) 0.9940(2) 0.0419(10) Uani 1 1 d . . . . .
C12 C -0.4492(4) 0.7203(3) 1.0317(2) 0.0507(11) Uani 1 1 d . . . . .
C13 C -0.5383(3) 0.7508(2) 1.0057(2) 0.0455(10) Uani 1 1 d . . . . .
C14 C -0.5054(3) 0.7990(2) 0.95256(19) 0.0352(9) Uani 1 1 d . . . . .
C15 C -0.5714(3) 0.8430(2) 0.91321(19) 0.0372(9) Uani 1 1 d . . . . .
H15A H -0.6426 0.8378 0.9216 0.045 Uiso 1 1 calc R U . . .
C16 C -0.5496(3) 0.8935(2) 0.86356(18) 0.0317(8) Uani 1 1 d . . . . .
C17 C -0.6279(3) 0.9361(2) 0.8262(2) 0.0391(9) Uani 1 1 d . . . . .
C18 C -0.5753(3) 0.9771(2) 0.78057(19) 0.0379(9) Uani 1 1 d . . . . .
C19 C -0.4631(3) 0.9608(2) 0.79126(17) 0.0311(8) Uani 1 1 d . . . . .
C20 C -0.3791(3) 0.9908(2) 0.75761(17) 0.0310(8) Uani 1 1 d . . . . .
C21 C -0.1739(3) 1.0600(2) 0.67703(19) 0.0383(9) Uani 1 1 d . . . . .
H21A H -0.2105 1.0482 0.6461 0.046 Uiso 1 1 calc R U . . .
H21B H -0.0932 1.0468 0.6535 0.046 Uiso 1 1 calc R U . . .
C22 C -0.2253(4) 1.1469(2) 0.6950(2) 0.0471(11) Uani 1 1 d . . . . .
H22A H -0.2217 1.1760 0.6542 0.071 Uiso 1 1 calc R U . . .
H22B H -0.1832 1.1602 0.7210 0.071 Uiso 1 1 calc R U . . .
H22C H -0.3038 1.1598 0.7213 0.071 Uiso 1 1 calc R U . . .
C23 C -0.0001(3) 1.0043(2) 0.75726(19) 0.0378(9) Uani 1 1 d . . . . .
H23A H 0.0222 1.0184 0.7103 0.045 Uiso 1 1 calc R U . . .
H23B H 0.0611 0.9578 0.7643 0.045 Uiso 1 1 calc R U . . .
C24 C -0.0155(4) 1.0709(2) 0.8030(2) 0.0513(11) Uani 1 1 d . . . . .
H24A H 0.0547 1.0815 0.7930 0.077 Uiso 1 1 calc R U . . .
H24B H -0.0357 1.0566 0.8496 0.077 Uiso 1 1 calc R U . . .
H24C H -0.0754 1.1173 0.7958 0.077 Uiso 1 1 calc R U . . .
C25 C 0.0941(4) 0.8005(3) 0.9439(2) 0.0625(14) Uani 1 1 d . . . . .
H25A H 0.1145 0.7844 0.9859 0.075 Uiso 1 1 calc R U . . .
H25B H 0.0925 0.8541 0.9362 0.075 Uiso 1 1 calc R U . . .
C26 C 0.1870(5) 0.7445(4) 0.8832(3) 0.097(2) Uani 1 1 d . . . . .
H26A H 0.2619 0.7419 0.8836 0.146 Uiso 1 1 calc R U . . .
H26B H 0.1731 0.7649 0.8410 0.146 Uiso 1 1 calc R U . . .
H26C H 0.1824 0.6927 0.8882 0.146 Uiso 1 1 calc R U . . .
C27 C -0.0299(4) 0.6976(3) 1.0405(2) 0.0655(15) Uani 1 1 d . . . . .
H27A H -0.0523 0.6519 1.0407 0.079 Uiso 1 1 calc R U . . .
H27B H 0.0531 0.6793 1.0284 0.079 Uiso 1 1 calc R U . . .
C28 C -0.0757(5) 0.7340(4) 1.1090(3) 0.098(2) Uani 1 1 d . . . . .
H28A H -0.0445 0.6970 1.1401 0.148 Uiso 1 1 calc R U . . .
H28B H -0.1576 0.7491 1.1227 0.148 Uiso 1 1 calc R U . . .
H28C H -0.0551 0.7798 1.1092 0.148 Uiso 1 1 calc R U . . .
C29 C -0.4453(5) 0.6710(4) 1.0918(3) 0.095(2) Uani 1 1 d . . . . .
H29A H -0.3665 0.6385 1.0885 0.113 Uiso 1 1 calc R U . . .
H29B H -0.4880 0.6364 1.0929 0.113 Uiso 1 1 calc R U . . .
C30 C -0.4946(6) 0.7206(6) 1.1552(3) 0.176(5) Uani 1 1 d . . . . .
H30A H -0.5067 0.6882 1.1935 0.264 Uiso 1 1 calc R U . . .
H30B H -0.5663 0.7601 1.1541 0.264 Uiso 1 1 calc R U . . .
H30C H -0.4426 0.7457 1.1591 0.264 Uiso 1 1 calc R U . . .
C31 C -0.6490(4) 0.7396(3) 1.0277(2) 0.0602(13) Uani 1 1 d . . . . .
H31A H -0.6398 0.6903 1.0508 0.072 Uiso 1 1 calc R U . . .
H31B H -0.6730 0.7356 0.9879 0.072 Uiso 1 1 calc R U . . .
C32 C -0.7393(4) 0.8035(4) 1.0732(3) 0.0882(19) Uani 1 1 d . . . . .
H32A H -0.8085 0.7914 1.0874 0.132 Uiso 1 1 calc R U . . .
H32B H -0.7529 0.8520 1.0497 0.132 Uiso 1 1 calc R U . . .
H32C H -0.7156 0.8088 1.1123 0.132 Uiso 1 1 calc R U . . .
C33 C -0.7452(4) 0.9376(3) 0.8417(2) 0.0600(14) Uani 1 1 d . . . . .
H33A H -0.7459 0.8844 0.8487 0.072 Uiso 1 1 calc R U . . .
H33B H -0.7754 0.9579 0.8035 0.072 Uiso 1 1 calc R U . . .
C34 C -0.8216(4) 0.9893(4) 0.9055(3) 0.0846(18) Uani 1 1 d . . . . .
H34A H -0.8985 0.9898 0.9142 0.127 Uiso 1 1 calc R U . . .
H34B H -0.8213 1.0421 0.8985 0.127 Uiso 1 1 calc R U . . .
H34C H -0.7930 0.9684 0.9436 0.127 Uiso 1 1 calc R U . . .
C35 C -0.6323(3) 1.0271(3) 0.7326(2) 0.0508(12) Uani 1 1 d . . . . .
H35A H -0.6846 1.0047 0.7235 0.061 Uiso 1 1 calc R U . . .
H35B H -0.5749 1.0259 0.6901 0.061 Uiso 1 1 calc R U . . .
C36 C -0.6968(4) 1.1101(3) 0.7561(3) 0.0714(16) Uani 1 1 d . . . . .
H36A H -0.7309 1.1386 0.7220 0.107 Uiso 1 1 calc R U . . .
H36B H -0.6457 1.1334 0.7644 0.107 Uiso 1 1 calc R U . . .
H36C H -0.7559 1.1123 0.7974 0.107 Uiso 1 1 calc R U . . .
C37 C -0.3997(3) 1.0409(2) 0.69924(17) 0.0313(8) Uani 1 1 d . . . . .
H37A H -0.4812 1.0700 0.7085 0.038 Uiso 1 1 calc R U . . .
H37B H -0.3615 1.0789 0.6952 0.038 Uiso 1 1 calc R U . . .
C38 C -0.3600(3) 0.9969(2) 0.63460(18) 0.0304(8) Uani 1 1 d . . . . .
C39 C -0.3803(3) 1.0208(2) 0.57426(18) 0.0336(9) Uani 1 1 d . . . . .
C40 C -0.4507(3) 1.0998(2) 0.5605(2) 0.0360(9) Uani 1 1 d . . . . .
H40A H -0.5189 1.1186 0.5985 0.043 Uiso 1 1 calc R U . . .
H40B H -0.4750 1.0966 0.5206 0.043 Uiso 1 1 calc R U . . .
C41 C -0.3904(4) 1.1580(2) 0.5490(2) 0.0491(11) Uani 1 1 d . . . . .
H41A H -0.4406 1.2082 0.5395 0.074 Uiso 1 1 calc R U . . .
H41B H -0.3231 1.1401 0.5112 0.074 Uiso 1 1 calc R U . . .
H41C H -0.3689 1.1632 0.5890 0.074 Uiso 1 1 calc R U . . .
C42 C -0.3165(3) 0.9569(2) 0.52745(18) 0.0322(8) Uani 1 1 d . . . . .
C43 C -0.3095(3) 0.9554(2) 0.45385(18) 0.0369(9) Uani 1 1 d . . . . .
H43A H -0.2926 0.9018 0.4390 0.044 Uiso 1 1 calc R U . . .
H43B H -0.3833 0.9873 0.4475 0.044 Uiso 1 1 calc R U . . .
C44 C -0.2202(3) 0.9855(3) 0.41089(19) 0.0470(11) Uani 1 1 d . . . . .
H44A H -0.2188 0.9831 0.3641 0.071 Uiso 1 1 calc R U . . .
H44B H -0.1467 0.9535 0.4163 0.071 Uiso 1 1 calc R U . . .
H44C H -0.2375 1.0390 0.4246 0.071 Uiso 1 1 calc R U . . .
C45 C -0.2611(3) 0.8966(2) 0.56001(17) 0.0315(8) Uani 1 1 d . . . . .
C46 C -0.1814(3) 0.8176(2) 0.53286(18) 0.0346(9) Uani 1 1 d . . . . .
H46A H -0.1104 0.8234 0.5057 0.041 Uiso 1 1 calc R U . . .
H46B H -0.2132 0.8000 0.5021 0.041 Uiso 1 1 calc R U . . .
C51 C -0.2235(3) 0.7084(2) 0.60100(18) 0.0320(8) Uani 1 1 d . . . . .
C52 C -0.3373(3) 0.7275(2) 0.5954(2) 0.0403(10) Uani 1 1 d . . . . .
C53 C -0.3709(3) 0.6676(2) 0.6217(3) 0.0542(12) Uani 1 1 d . . . . .
C54 C -0.2790(3) 0.6106(2) 0.6403(2) 0.0397(10) Uani 1 1 d . . . . .
C55 C -0.2788(3) 0.5381(2) 0.6630(2) 0.0447(10) Uani 1 1 d . . . . .
H55A H -0.3463 0.5286 0.6674 0.054 Uiso 1 1 calc R U . . .
C56 C -0.1939(3) 0.4774(2) 0.6803(2) 0.0396(10) Uani 1 1 d . . . . .
C57 C -0.1968(3) 0.4001(2) 0.6981(2) 0.0435(10) Uani 1 1 d . . . . .
C58 C -0.0975(3) 0.3601(2) 0.7118(2) 0.0400(10) Uani 1 1 d . . . . .
C59 C -0.0352(3) 0.4127(2) 0.70231(18) 0.0347(9) Uani 1 1 d . . . . .
C60 C 0.0724(3) 0.3948(2) 0.71078(19) 0.0370(9) Uani 1 1 d . . . . .
H60A H 0.1048 0.3446 0.7258 0.044 Uiso 1 1 calc R U . . .
C61 C 0.1364(3) 0.4419(2) 0.6997(2) 0.0379(9) Uani 1 1 d . . . . .
C62 C 0.2466(4) 0.4219(2) 0.7090(3) 0.0542(12) Uani 1 1 d . . . . .
C63 C 0.2796(4) 0.4842(2) 0.6924(3) 0.0556(13) Uani 1 1 d . . . . .
C64 C 0.1899(3) 0.5422(2) 0.6710(2) 0.0391(9) Uani 1 1 d . . . . .
C65 C 0.1894(3) 0.6144(2) 0.64748(19) 0.0369(9) Uani 1 1 d . . . . .
H65A H 0.2545 0.6258 0.6460 0.044 Uiso 1 1 calc R U . . .
C66 C 0.1065(3) 0.6726(2) 0.62576(18) 0.0327(8) Uani 1 1 d . . . . .
C67 C 0.1145(3) 0.7471(2) 0.60469(18) 0.0352(9) Uani 1 1 d . . . . .
C68 C 0.0204(3) 0.7874(2) 0.58451(18) 0.0328(8) Uani 1 1 d . . . . .
C69 C -0.0476(3) 0.7361(2) 0.59455(17) 0.0321(8) Uani 1 1 d . . . . .
C70 C -0.1515(3) 0.7526(2) 0.58086(17) 0.0312(8) Uani 1 1 d . . . . .
C71 C -0.4177(4) 0.7980(2) 0.5730(2) 0.0491(11) Uani 1 1 d . . . . .
H71A H -0.4603 0.7811 0.5490 0.059 Uiso 1 1 calc R U . . .
H71B H -0.3741 0.8256 0.5415 0.059 Uiso 1 1 calc R U . . .
C72 C -0.5002(3) 0.8535(2) 0.6303(2) 0.0545(12) Uani 1 1 d . . . . .
H72A H -0.5465 0.8995 0.6125 0.082 Uiso 1 1 calc R U . . .
H72B H -0.4587 0.8687 0.6555 0.082 Uiso 1 1 calc R U . . .
H72C H -0.5484 0.8280 0.6596 0.082 Uiso 1 1 calc R U . . .
C73 C -0.4852(4) 0.6612(3) 0.6358(4) 0.114(3) Uani 1 1 d . . . . .
H73A H -0.4788 0.6095 0.6214 0.136 Uiso 1 1 calc R U . . .
H73B H -0.5322 0.7009 0.6121 0.136 Uiso 1 1 calc R U . . .
C75 C -0.2882(4) 0.3714(3) 0.6965(3) 0.0692(16) Uani 1 1 d . . . . .
H75A H -0.3619 0.4122 0.7150 0.083 Uiso 1 1 calc R U . . .
H75B H -0.2845 0.3261 0.7249 0.083 Uiso 1 1 calc R U . . .
C76 C -0.2783(6) 0.3477(4) 0.6234(4) 0.108(2) Uani 1 1 d . . . . .
H76A H -0.3341 0.3239 0.6248 0.162 Uiso 1 1 calc R U . . .
H76B H -0.2029 0.3107 0.6035 0.162 Uiso 1 1 calc R U . . .
H76C H -0.2917 0.3937 0.5966 0.162 Uiso 1 1 calc R U . . .
C77 C -0.0542(3) 0.2774(2) 0.7282(2) 0.0469(11) Uani 1 1 d . . . . .
H77A H -0.1185 0.2600 0.7481 0.056 Uiso 1 1 calc R U . . .
H77B H -0.0131 0.2725 0.7619 0.056 Uiso 1 1 calc R U . . .
C78 C 0.0242(4) 0.2244(2) 0.6676(2) 0.0532(12) Uani 1 1 d . . . . .
H78A H 0.0519 0.1713 0.6818 0.080 Uiso 1 1 calc R U . . .
H78B H 0.0877 0.2416 0.6472 0.080 Uiso 1 1 calc R U . . .
H78C H -0.0171 0.2266 0.6351 0.080 Uiso 1 1 calc R U . . .
C79 C 0.3105(4) 0.3457(3) 0.7323(3) 0.084(2) Uani 1 1 d . . . . .
H79A H 0.2568 0.3244 0.7630 0.101 Uiso 1 1 calc R U . . .
H79B H 0.3588 0.3538 0.7574 0.101 Uiso 1 1 calc R U . . .
C80 C 0.3835(6) 0.2873(4) 0.6749(5) 0.149(4) Uani 1 1 d . . . . .
H80A H 0.4239 0.2388 0.6925 0.223 Uiso 1 1 calc R U . . .
H80B H 0.4375 0.3078 0.6446 0.223 Uiso 1 1 calc R U . . .
H80C H 0.3359 0.2779 0.6507 0.223 Uiso 1 1 calc R U . . .
C81 C 0.3865(4) 0.4927(3) 0.6944(4) 0.095(2) Uani 1 1 d . . . . .
H81A H 0.4047 0.5299 0.6631 0.114 Uiso 0.58 1 d . U P A 1
H81B H 0.4481 0.4441 0.6833 0.114 Uiso 0.58 1 d . U P A 1
H81C H 0.4252 0.4548 0.7210 0.114 Uiso 0.42 1 d . U P A 2
H81D H 0.3761 0.5435 0.7089 0.114 Uiso 0.42 1 d . U P A 2
C82 C 0.3664(9) 0.5238(6) 0.7748(6) 0.102(5) Uani 0.580(12) 1 d . . P . .
H82A H 0.4394 0.5147 0.7824 0.153 Uiso 0.580(12) 1 calc R U P . .
H82B H 0.3265 0.4951 0.8067 0.153 Uiso 0.580(12) 1 calc R U P . .
H82C H 0.3221 0.5791 0.7806 0.153 Uiso 0.580(12) 1 calc R U P . .
C82A C 0.464(2) 0.4742(14) 0.6030(11) 0.163(10) Uiso 0.420(12) 1 d . . P . .
H82D H 0.4805 0.4204 0.5905 0.245 Uiso 0.420(12) 1 calc R U P . .
H82E H 0.5351 0.4839 0.5946 0.245 Uiso 0.420(12) 1 calc R U P . .
H82F H 0.4182 0.5088 0.5767 0.245 Uiso 0.420(12) 1 calc R U P . .
C83 C 0.2032(3) 0.7759(2) 0.6104(2) 0.0427(10) Uani 1 1 d . . . . .
H83A H 0.2052 0.8188 0.5799 0.051 Uiso 1 1 calc R U . . .
H83B H 0.2771 0.7339 0.5965 0.051 Uiso 1 1 calc R U . . .
C84 C 0.1833(4) 0.8039(3) 0.6811(3) 0.0612(13) Uani 1 1 d . . . . .
H84A H 0.2436 0.8220 0.6827 0.092 Uiso 1 1 calc R U . . .
H84B H 0.1823 0.7613 0.7114 0.092 Uiso 1 1 calc R U . . .
H84C H 0.1111 0.8463 0.6947 0.092 Uiso 1 1 calc R U . . .
C85 C -0.0002(3) 0.8683(2) 0.56053(19) 0.0379(9) Uani 1 1 d . . . . .
H85A H 0.0219 0.8972 0.5890 0.045 Uiso 1 1 calc R U . . .
H85B H -0.0816 0.8941 0.5660 0.045 Uiso 1 1 calc R U . . .
C86 C 0.0629(4) 0.8730(3) 0.4883(2) 0.0492(11) Uani 1 1 d . . . . .
H86A H 0.0550 0.9269 0.4784 0.074 Uiso 1 1 calc R U . . .
H86B H 0.0318 0.8533 0.4591 0.074 Uiso 1 1 calc R U . . .
H86C H 0.1425 0.8419 0.4808 0.074 Uiso 1 1 calc R U . . .
C87 C -0.2917(3) 0.7324(2) 0.7826(2) 0.0426(10) Uani 1 1 d . . . . .
H87A H -0.2861 0.7408 0.7348 0.051 Uiso 1 1 calc R U . . .
H87B H -0.3722 0.7483 0.8074 0.051 Uiso 1 1 calc R U . . .
C88 C -0.2349(4) 0.6487(2) 0.7924(2) 0.0502(11) Uani 1 1 d . . . . .
H88A H -0.2458 0.6397 0.8406 0.060 Uiso 1 1 calc R U . . .
H88B H -0.2694 0.6177 0.7750 0.060 Uiso 1 1 calc R U . . .
C89 C -0.0686(3) 0.6712(2) 0.7837(2) 0.0422(10) Uani 1 1 d . . . . .
H89A H 0.0129 0.6547 0.7613 0.051 Uiso 1 1 calc R U . . .
H89B H -0.0788 0.6640 0.8320 0.051 Uiso 1 1 calc R U . . .
C90 C -0.1230(3) 0.7544(2) 0.7717(2) 0.0409(10) Uani 1 1 d . . . . .
H90A H -0.0888 0.7859 0.7887 0.049 Uiso 1 1 calc R U . . .
H90B H -0.1115 0.7622 0.7233 0.049 Uiso 1 1 calc R U . . .
C91 C -0.4585(3) 1.0379(2) 0.94450(19) 0.0378(9) Uani 1 1 d . . . . .
H91A H -0.4405 1.0449 0.8959 0.045 Uiso 1 1 calc R U . . .
H91B H -0.4403 1.0765 0.9651 0.045 Uiso 1 1 calc R U . . .
C92 C -0.5811(3) 1.0501(2) 0.97192(17) 0.0366(9) Uani 1 1 d . . . . .
H92A H -0.6262 1.1031 0.9631 0.044 Uiso 1 1 calc R U . . .
H92B H -0.6000 1.0133 0.9495 0.044 Uiso 1 1 calc R U . . .
C93 C 0.0225(4) 0.5678(2) 0.4903(2) 0.0512(12) Uani 1 1 d . . . . .
H93A H 0.0933 0.5513 0.4538 0.061 Uiso 1 1 calc R U . . .
H93B H 0.0021 0.6233 0.5006 0.061 Uiso 1 1 calc R U . . .
C94 C 0.0679(4) 0.4443(2) 0.5315(2) 0.0539(13) Uani 1 1 d . . . . .
H94A H 0.0794 0.4131 0.5708 0.065 Uiso 1 1 calc R U . . .
H94B H 0.1390 0.4271 0.4954 0.065 Uiso 1 1 calc R U . . .
C74 C -0.5476(6) 0.6767(5) 0.7283(6) 0.178(5) Uani 1 1 d . . . . .
H74A H -0.6274 0.6833 0.7398 0.267 Uiso 1 1 calc R U . . .
H74B H -0.5396 0.7232 0.7428 0.267 Uiso 1 1 calc R U . . .
H74C H -0.5085 0.6319 0.7507 0.267 Uiso 1 1 calc R U . . .
loop_
_atom_site_aniso_label
_atom_site_aniso_U_11
_atom_site_aniso_U_22
_atom_site_aniso_U_33
_atom_site_aniso_U_23
_atom_site_aniso_U_13
_atom_site_aniso_U_12
Mg1 0.0297(6) 0.0303(6) 0.0313(7) 0.0013(5) -0.0125(5) -0.0115(5)
Mg2 0.0350(7) 0.0287(6) 0.0363(7) 0.0014(5) -0.0141(6) -0.0136(5)
O1 0.0339(14) 0.0406(15) 0.0459(16) -0.0130(12) -0.0088(12) -0.0150(12)
O2 0.0457(16) 0.0368(15) 0.0440(16) -0.0034(12) -0.0055(13) -0.0162(13)
O3 0.0361(14) 0.0363(14) 0.0265(13) 0.0002(11) -0.0084(11) -0.0121(11)
O4 0.0457(16) 0.0437(15) 0.0353(15) -0.0050(12) -0.0152(12) -0.0179(13)
N1 0.0269(16) 0.0326(16) 0.0345(17) 0.0006(13) -0.0112(13) -0.0137(13)
N2 0.0336(17) 0.0359(17) 0.0359(18) 0.0017(14) -0.0149(14) -0.0118(14)
N3 0.0311(17) 0.0291(16) 0.0413(18) 0.0005(14) -0.0130(14) -0.0116(13)
N4 0.0289(16) 0.0315(16) 0.0295(16) 0.0001(13) -0.0089(13) -0.0152(13)
N5 0.0365(17) 0.0338(17) 0.0289(17) 0.0102(13) -0.0168(14) -0.0148(14)
N6 0.0344(17) 0.0271(16) 0.0352(18) 0.0014(13) -0.0104(14) -0.0140(13)
N7 0.0317(17) 0.0297(16) 0.0431(19) 0.0011(14) -0.0118(14) -0.0141(14)
N8 0.0345(17) 0.0320(17) 0.0371(18) -0.0001(14) -0.0134(14) -0.0136(14)
N9 0.0356(17) 0.0311(16) 0.0276(16) -0.0006(13) -0.0112(13) -0.0140(14)
C1 0.0278(18) 0.0314(19) 0.0266(19) 0.0010(15) -0.0070(15) -0.0135(15)
C2 0.0312(19) 0.0320(19) 0.033(2) -0.0017(16) -0.0100(16) -0.0122(16)
C3 0.0266(19) 0.037(2) 0.033(2) -0.0018(16) -0.0067(16) -0.0139(16)
C4 0.0275(19) 0.035(2) 0.030(2) -0.0056(16) -0.0066(15) -0.0141(16)
C5 0.0286(19) 0.037(2) 0.038(2) -0.0009(17) -0.0139(16) -0.0141(16)
C6 0.035(2) 0.038(2) 0.037(2) -0.0010(17) -0.0174(17) -0.0107(17)
C7 0.037(2) 0.063(3) 0.044(2) 0.007(2) -0.0203(19) -0.020(2)
C8 0.039(2) 0.059(3) 0.044(2) 0.014(2) -0.0202(19) -0.017(2)
C9 0.035(2) 0.043(2) 0.039(2) 0.0056(18) -0.0167(18) -0.0136(18)
C10 0.041(2) 0.047(2) 0.048(3) 0.013(2) -0.021(2) -0.014(2)
C11 0.038(2) 0.044(2) 0.049(2) 0.015(2) -0.0188(19) -0.0172(19)
C12 0.048(3) 0.057(3) 0.051(3) 0.023(2) -0.020(2) -0.021(2)
C13 0.042(2) 0.047(2) 0.053(3) 0.015(2) -0.016(2) -0.022(2)
C14 0.034(2) 0.035(2) 0.042(2) 0.0003(17) -0.0126(17) -0.0162(17)
C15 0.036(2) 0.041(2) 0.040(2) -0.0041(18) -0.0124(18) -0.0174(18)
C16 0.033(2) 0.035(2) 0.035(2) 0.0002(16) -0.0129(16) -0.0186(17)
C17 0.039(2) 0.047(2) 0.044(2) 0.0107(19) -0.0227(19) -0.0222(19)
C18 0.037(2) 0.051(2) 0.038(2) 0.0092(19) -0.0193(18) -0.0255(19)
C19 0.0299(19) 0.036(2) 0.032(2) -0.0011(16) -0.0113(16) -0.0146(16)
C20 0.033(2) 0.035(2) 0.032(2) 0.0053(16) -0.0144(16) -0.0170(16)
C21 0.042(2) 0.044(2) 0.040(2) 0.0097(18) -0.0199(18) -0.0232(19)
C22 0.061(3) 0.044(2) 0.055(3) 0.014(2) -0.033(2) -0.029(2)
C23 0.038(2) 0.046(2) 0.039(2) 0.0040(18) -0.0135(18) -0.0243(19)
C24 0.050(3) 0.047(2) 0.076(3) 0.008(2) -0.036(2) -0.027(2)
C25 0.047(3) 0.089(4) 0.074(3) 0.032(3) -0.042(3) -0.035(3)
C26 0.055(3) 0.151(6) 0.084(4) -0.002(4) -0.018(3) -0.034(4)
C27 0.054(3) 0.092(4) 0.064(3) 0.038(3) -0.037(3) -0.031(3)
C28 0.102(5) 0.153(6) 0.071(4) 0.052(4) -0.052(4) -0.068(5)
C29 0.074(4) 0.131(5) 0.107(5) 0.080(5) -0.052(4) -0.062(4)
C30 0.111(6) 0.287(12) 0.053(4) 0.050(6) -0.023(4) 0.015(7)
C31 0.050(3) 0.077(3) 0.063(3) 0.032(3) -0.024(2) -0.032(3)
C32 0.050(3) 0.138(6) 0.078(4) 0.006(4) -0.011(3) -0.040(4)
C33 0.047(3) 0.083(3) 0.073(3) 0.041(3) -0.036(3) -0.043(3)
C34 0.050(3) 0.105(5) 0.092(4) 0.029(4) -0.017(3) -0.027(3)
C35 0.042(2) 0.065(3) 0.062(3) 0.023(2) -0.027(2) -0.032(2)
C36 0.044(3) 0.079(4) 0.082(4) 0.038(3) -0.019(3) -0.014(3)
C37 0.034(2) 0.035(2) 0.034(2) 0.0064(16) -0.0154(16) -0.0199(17)
C38 0.0281(19) 0.036(2) 0.036(2) 0.0092(16) -0.0161(16) -0.0167(16)
C39 0.033(2) 0.043(2) 0.036(2) 0.0085(17) -0.0150(17) -0.0240(17)
C40 0.037(2) 0.036(2) 0.044(2) 0.0104(17) -0.0229(18) -0.0167(17)
C41 0.054(3) 0.039(2) 0.068(3) 0.017(2) -0.028(2) -0.026(2)
C42 0.037(2) 0.039(2) 0.035(2) 0.0063(17) -0.0159(17) -0.0252(17)
C43 0.038(2) 0.045(2) 0.038(2) 0.0100(18) -0.0211(18) -0.0207(18)
C44 0.051(3) 0.067(3) 0.034(2) 0.010(2) -0.016(2) -0.033(2)
C45 0.033(2) 0.039(2) 0.031(2) 0.0101(16) -0.0118(16) -0.0217(17)
C46 0.047(2) 0.036(2) 0.032(2) 0.0060(16) -0.0190(18) -0.0215(18)
C51 0.036(2) 0.033(2) 0.034(2) 0.0058(16) -0.0165(17) -0.0166(17)
C52 0.038(2) 0.033(2) 0.057(3) 0.0078(19) -0.020(2) -0.0160(18)
C53 0.039(2) 0.035(2) 0.098(4) 0.009(2) -0.034(2) -0.0138(19)
C54 0.036(2) 0.029(2) 0.057(3) 0.0027(18) -0.0154(19) -0.0126(17)
C55 0.029(2) 0.038(2) 0.072(3) 0.004(2) -0.013(2) -0.0181(18)
C56 0.038(2) 0.0229(19) 0.052(3) 0.0035(17) -0.0077(19) -0.0091(17)
C57 0.040(2) 0.039(2) 0.056(3) 0.003(2) -0.011(2) -0.0200(19)
C58 0.042(2) 0.030(2) 0.045(2) 0.0044(17) -0.0090(19) -0.0118(18)
C59 0.037(2) 0.032(2) 0.036(2) -0.0030(16) -0.0077(17) -0.0147(17)
C60 0.040(2) 0.030(2) 0.045(2) -0.0009(17) -0.0182(18) -0.0109(17)
C61 0.036(2) 0.0257(19) 0.053(3) -0.0019(17) -0.0156(19) -0.0088(17)
C62 0.046(3) 0.034(2) 0.087(4) -0.001(2) -0.030(2) -0.010(2)
C63 0.042(2) 0.035(2) 0.096(4) 0.011(2) -0.033(3) -0.012(2)
C64 0.039(2) 0.028(2) 0.052(3) -0.0044(18) -0.0129(19) -0.0119(17)
C65 0.030(2) 0.035(2) 0.047(2) -0.0021(18) -0.0096(17) -0.0125(17)
C66 0.031(2) 0.038(2) 0.032(2) -0.0043(16) -0.0061(16) -0.0167(17)
C67 0.037(2) 0.034(2) 0.035(2) 0.0026(17) -0.0084(17) -0.0154(17)
C68 0.036(2) 0.035(2) 0.032(2) 0.0028(16) -0.0111(17) -0.0170(17)
C69 0.036(2) 0.033(2) 0.031(2) -0.0017(16) -0.0110(16) -0.0148(17)
C70 0.038(2) 0.0296(19) 0.031(2) 0.0030(15) -0.0134(16) -0.0151(16)
C71 0.053(3) 0.041(2) 0.073(3) 0.020(2) -0.041(2) -0.025(2)
C72 0.041(2) 0.039(2) 0.087(4) 0.018(2) -0.031(2) -0.011(2)
C73 0.045(3) 0.043(3) 0.269(10) 0.050(4) -0.069(5) -0.024(3)
C75 0.051(3) 0.037(3) 0.132(5) 0.026(3) -0.036(3) -0.026(2)
C76 0.112(5) 0.079(4) 0.185(8) 0.035(5) -0.103(5) -0.051(4)
C77 0.047(2) 0.038(2) 0.058(3) 0.014(2) -0.018(2) -0.0169(19)
C78 0.059(3) 0.039(2) 0.060(3) -0.003(2) -0.019(2) -0.012(2)
C79 0.061(3) 0.034(3) 0.175(6) 0.026(3) -0.062(4) -0.020(2)
C80 0.090(5) 0.049(4) 0.236(10) 0.025(5) 0.018(6) 0.006(4)
C81 0.052(3) 0.044(3) 0.202(8) 0.025(4) -0.057(4) -0.018(3)
C82 0.097(8) 0.071(7) 0.191(13) -0.008(7) -0.116(9) -0.030(6)
C83 0.037(2) 0.038(2) 0.059(3) 0.009(2) -0.018(2) -0.0190(18)
C84 0.061(3) 0.063(3) 0.086(4) 0.003(3) -0.039(3) -0.039(3)
C85 0.037(2) 0.044(2) 0.044(2) 0.0075(18) -0.0149(18) -0.0261(18)
C86 0.052(3) 0.056(3) 0.048(3) 0.016(2) -0.014(2) -0.031(2)
C87 0.035(2) 0.050(2) 0.044(2) -0.0180(19) -0.0094(18) -0.0145(19)
C88 0.054(3) 0.047(3) 0.050(3) -0.008(2) -0.001(2) -0.027(2)
C89 0.038(2) 0.049(2) 0.039(2) -0.0098(19) -0.0145(18) -0.0098(19)
C90 0.033(2) 0.047(2) 0.045(2) -0.0133(19) -0.0050(18) -0.0182(18)
C91 0.049(2) 0.032(2) 0.033(2) 0.0068(17) -0.0105(18) -0.0173(18)
C92 0.043(2) 0.037(2) 0.030(2) -0.0007(16) -0.0184(17) -0.0073(18)
C93 0.090(3) 0.033(2) 0.032(2) -0.0038(18) -0.009(2) -0.030(2)
C94 0.075(3) 0.033(2) 0.040(2) -0.0057(19) -0.029(2) 0.008(2)
C74 0.065(5) 0.139(7) 0.288(13) -0.081(8) 0.043(6) -0.042(5)
loop_
_atom_type_symbol
_atom_type_description
_atom_type_scat_dispersion_real
_atom_type_scat_dispersion_imag
_atom_type_scat_source
C C 0.0033 0.0016 'International Tables Vol C Tables 4.2.6.8 and 6.1.1.4'
H H 0.0000 0.0000 'International Tables Vol C Tables 4.2.6.8 and 6.1.1.4'
N N 0.0061 0.0033 'International Tables Vol C Tables 4.2.6.8 and 6.1.1.4'
Mg Mg 0.0486 0.0363 'International Tables Vol C Tables 4.2.6.8 and 6.1.1.4'
O O 0.0106 0.0060 'International Tables Vol C Tables 4.2.6.8 and 6.1.1.4'
Cl Cl 0.1484 0.1585 'International Tables Vol C Tables 4.2.6.8 and 6.1.1.4'
loop_
_geom_angle_atom_site_label_1
_geom_angle_atom_site_label_2
_geom_angle_atom_site_label_3
_geom_angle
_geom_angle_site_symmetry_1
_geom_angle_site_symmetry_3
N1 Mg1 N3 179.65(13) . .
N1 Mg1 N2 92.30(12) . .
N3 Mg1 N2 87.84(12) . .
N1 Mg1 N4 88.52(11) . .
N3 Mg1 N4 91.33(12) . .
N2 Mg1 N4 178.86(13) . .
N1 Mg1 O1 87.32(11) . .
N3 Mg1 O1 92.36(12) . .
N2 Mg1 O1 91.81(11) . .
N4 Mg1 O1 87.45(11) . .
N1 Mg1 O3 87.53(11) . .
N3 Mg1 O3 92.79(11) . .
N2 Mg1 O3 88.12(11) . .
N4 Mg1 O3 92.70(11) . .
O1 Mg1 O3 174.84(11) . .
N9 Mg2 N6 87.34(12) . .
N9 Mg2 N7 179.01(13) . .
N6 Mg2 N7 92.09(12) . .
N9 Mg2 N8 92.24(12) . .
N6 Mg2 N8 179.20(14) . .
N7 Mg2 N8 88.34(12) . .
N9 Mg2 O4 88.14(11) . .
N6 Mg2 O4 91.53(11) . .
N7 Mg2 O4 91.07(12) . .
N8 Mg2 O4 89.14(11) . .
N9 Mg2 O2 92.00(11) . .
N6 Mg2 O2 91.84(11) . .
N7 Mg2 O2 88.82(12) . .
N8 Mg2 O2 87.50(11) . .
O4 Mg2 O2 176.64(11) . .
C87 O1 C90 110.7(3) . .
C87 O1 Mg1 127.3(2) . .
C90 O1 Mg1 121.9(2) . .
C88 O2 C89 108.4(3) . .
C88 O2 Mg2 122.8(2) . .
C89 O2 Mg2 120.4(2) . .
C92 O3 C91 110.2(3) 2_477 .
C92 O3 Mg1 123.0(2) 2_477 .
C91 O3 Mg1 122.2(2) . .
C94 O4 C93 108.2(3) . .
C94 O4 Mg2 123.9(2) . .
C93 O4 Mg2 122.7(2) . .
C1 N1 C4 107.7(3) . .
C1 N1 Mg1 128.9(2) . .
C4 N1 Mg1 123.3(2) . .
C9 N2 C6 107.6(3) . .
C9 N2 Mg1 128.0(3) . .
C6 N2 Mg1 124.3(2) . .
C11 N3 C14 105.8(3) . .
C11 N3 Mg1 128.2(3) . .
C14 N3 Mg1 125.7(2) . .
C16 N4 C19 108.4(3) . .
C16 N4 Mg1 123.5(2) . .
C19 N4 Mg1 128.0(2) . .
C45 N5 C38 110.2(3) . .
C45 N5 H5A 124.9 . .
C38 N5 H5A 124.9 . .
C54 N6 C51 107.0(3) . .
C54 N6 Mg2 122.9(2) . .
C51 N6 Mg2 130.0(2) . .
C56 N7 C59 106.4(3) . .
C56 N7 Mg2 125.5(2) . .
C59 N7 Mg2 127.8(2) . .
C64 N8 C61 106.9(3) . .
C64 N8 Mg2 125.4(2) . .
C61 N8 Mg2 127.7(3) . .
C66 N9 C69 108.1(3) . .
C66 N9 Mg2 122.9(2) . .
C69 N9 Mg2 128.9(2) . .
N1 C1 C20 122.8(3) . .
N1 C1 C2 109.1(3) . .
C20 C1 C2 128.1(3) . .
C3 C2 C1 106.2(3) . .
C3 C2 C21 121.2(3) . .
C1 C2 C21 132.5(3) . .
C2 C3 C4 107.3(3) . .
C2 C3 C23 128.2(3) . .
C4 C3 C23 124.5(3) . .
N1 C4 C5 125.7(3) . .
N1 C4 C3 109.6(3) . .
C5 C4 C3 124.5(3) . .
C6 C5 C4 129.2(3) . .
C6 C5 H5B 115.4 . .
C4 C5 H5B 115.4 . .
N2 C6 C5 125.1(3) . .
N2 C6 C7 109.0(3) . .
C5 C6 C7 125.9(4) . .
C8 C7 C6 106.6(3) . .
C8 C7 C25 128.3(4) . .
C6 C7 C25 125.0(4) . .
C7 C8 C9 107.9(3) . .
C7 C8 C27 127.8(4) . .
C9 C8 C27 124.2(4) . .
N2 C9 C10 124.3(3) . .
N2 C9 C8 108.9(3) . .
C10 C9 C8 126.8(4) . .
C9 C10 C11 127.7(4) . .
C9 C10 H10A 116.2 . .
C11 C10 H10A 116.2 . .
N3 C11 C10 123.8(4) . .
N3 C11 C12 110.4(3) . .
C10 C11 C12 125.7(4) . .
C13 C12 C11 106.7(3) . .
C13 C12 C29 126.5(4) . .
C11 C12 C29 126.6(4) . .
C12 C13 C14 105.9(3) . .
C12 C13 C31 128.1(4) . .
C14 C13 C31 125.9(4) . .
N3 C14 C15 123.0(3) . .
N3 C14 C13 111.1(3) . .
C15 C14 C13 125.9(4) . .
C16 C15 C14 130.2(4) . .
C16 C15 H15A 114.9 . .
C14 C15 H15A 114.9 . .
N4 C16 C15 126.0(3) . .
N4 C16 C17 110.0(3) . .
C15 C16 C17 124.0(3) . .
C18 C17 C16 106.8(3) . .
C18 C17 C33 129.0(3) . .
C16 C17 C33 123.9(3) . .
C17 C18 C19 106.8(3) . .
C17 C18 C35 120.9(3) . .
C19 C18 C35 132.3(3) . .
N4 C19 C20 123.8(3) . .
N4 C19 C18 107.9(3) . .
C20 C19 C18 128.3(3) . .
C19 C20 C1 127.7(3) . .
C19 C20 C37 116.8(3) . .
C1 C20 C37 115.6(3) . .
C2 C21 C22 113.5(3) . .
C2 C21 H21A 108.9 . .
C22 C21 H21A 108.9 . .
C2 C21 H21B 108.9 . .
C22 C21 H21B 108.9 . .
H21A C21 H21B 107.7 . .
C21 C22 H22A 109.5 . .
C21 C22 H22B 109.5 . .
H22A C22 H22B 109.5 . .
C21 C22 H22C 109.5 . .
H22A C22 H22C 109.5 . .
H22B C22 H22C 109.5 . .
C3 C23 C24 112.0(3) . .
C3 C23 H23A 109.2 . .
C24 C23 H23A 109.2 . .
C3 C23 H23B 109.2 . .
C24 C23 H23B 109.2 . .
H23A C23 H23B 107.9 . .
C23 C24 H24A 109.5 . .
C23 C24 H24B 109.5 . .
H24A C24 H24B 109.5 . .
C23 C24 H24C 109.5 . .
H24A C24 H24C 109.5 . .
H24B C24 H24C 109.5 . .
C7 C25 C26 110.8(4) . .
C7 C25 H25A 109.5 . .
C26 C25 H25A 109.5 . .
C7 C25 H25B 109.5 . .
C26 C25 H25B 109.5 . .
H25A C25 H25B 108.1 . .
C25 C26 H26A 109.5 . .
C25 C26 H26B 109.5 . .
H26A C26 H26B 109.5 . .
C25 C26 H26C 109.5 . .
H26A C26 H26C 109.5 . .
H26B C26 H26C 109.5 . .
C28 C27 C8 113.3(4) . .
C28 C27 H27A 108.9 . .
C8 C27 H27A 108.9 . .
C28 C27 H27B 108.9 . .
C8 C27 H27B 108.9 . .
H27A C27 H27B 107.7 . .
C27 C28 H28A 109.5 . .
C27 C28 H28B 109.5 . .
H28A C28 H28B 109.5 . .
C27 C28 H28C 109.5 . .
H28A C28 H28C 109.5 . .
H28B C28 H28C 109.5 . .
C12 C29 C30 110.9(6) . .
C12 C29 H29A 109.5 . .
C30 C29 H29A 109.5 . .
C12 C29 H29B 109.5 . .
C30 C29 H29B 109.5 . .
H29A C29 H29B 108.1 . .
C29 C30 H30A 109.5 . .
C29 C30 H30B 109.5 . .
H30A C30 H30B 109.5 . .
C29 C30 H30C 109.5 . .
H30A C30 H30C 109.5 . .
H30B C30 H30C 109.5 . .
C13 C31 C32 113.6(4) . .
C13 C31 H31A 108.8 . .
C32 C31 H31A 108.8 . .
C13 C31 H31B 108.8 . .
C32 C31 H31B 108.8 . .
H31A C31 H31B 107.7 . .
C31 C32 H32A 109.5 . .
C31 C32 H32B 109.5 . .
H32A C32 H32B 109.5 . .
C31 C32 H32C 109.5 . .
H32A C32 H32C 109.5 . .
H32B C32 H32C 109.5 . .
C17 C33 C34 111.2(4) . .
C17 C33 H33A 109.4 . .
C34 C33 H33A 109.4 . .
C17 C33 H33B 109.4 . .
C34 C33 H33B 109.4 . .
H33A C33 H33B 108.0 . .
C33 C34 H34A 109.5 . .
C33 C34 H34B 109.5 . .
H34A C34 H34B 109.5 . .
C33 C34 H34C 109.5 . .
H34A C34 H34C 109.5 . .
H34B C34 H34C 109.5 . .
C18 C35 C36 114.7(4) . .
C18 C35 H35A 108.6 . .
C36 C35 H35A 108.6 . .
C18 C35 H35B 108.6 . .
C36 C35 H35B 108.6 . .
H35A C35 H35B 107.6 . .
C35 C36 H36A 109.5 . .
C35 C36 H36B 109.5 . .
H36A C36 H36B 109.5 . .
C35 C36 H36C 109.5 . .
H36A C36 H36C 109.5 . .
H36B C36 H36C 109.5 . .
C38 C37 C20 114.0(3) . .
C38 C37 H37A 108.8 . .
C20 C37 H37A 108.8 . .
C38 C37 H37B 108.8 . .
C20 C37 H37B 108.8 . .
H37A C37 H37B 107.6 . .
C39 C38 N5 107.1(3) . .
C39 C38 C37 129.9(3) . .
N5 C38 C37 123.0(3) . .
C38 C39 C42 107.0(3) . .
C38 C39 C40 125.8(4) . .
C42 C39 C40 127.1(3) . .
C39 C40 C41 113.5(3) . .
C39 C40 H40A 108.9 . .
C41 C40 H40A 108.9 . .
C39 C40 H40B 108.9 . .
C41 C40 H40B 108.9 . .
H40A C40 H40B 107.7 . .
C40 C41 H41A 109.5 . .
C40 C41 H41B 109.5 . .
H41A C41 H41B 109.5 . .
C40 C41 H41C 109.5 . .
H41A C41 H41C 109.5 . .
H41B C41 H41C 109.5 . .
C45 C42 C39 108.2(3) . .
C45 C42 C43 125.0(3) . .
C39 C42 C43 126.8(3) . .
C44 C43 C42 112.6(3) . .
C44 C43 H43A 109.1 . .
C42 C43 H43A 109.1 . .
C44 C43 H43B 109.1 . .
C42 C43 H43B 109.1 . .
H43A C43 H43B 107.8 . .
C43 C44 H44A 109.5 . .
C43 C44 H44B 109.5 . .
H44A C44 H44B 109.5 . .
C43 C44 H44C 109.5 . .
H44A C44 H44C 109.5 . .
H44B C44 H44C 109.5 . .
C42 C45 N5 107.5(3) . .
C42 C45 C46 128.9(3) . .
N5 C45 C46 123.5(3) . .
C45 C46 C70 119.6(3) . .
C45 C46 H46A 107.4 . .
C70 C46 H46A 107.4 . .
C45 C46 H46B 107.4 . .
C70 C46 H46B 107.4 . .
H46A C46 H46B 106.9 . .
N6 C51 C70 122.7(3) . .
N6 C51 C52 109.3(3) . .
C70 C51 C52 128.1(3) . .
C53 C52 C51 106.0(3) . .
C53 C52 C71 120.4(3) . .
C51 C52 C71 133.4(4) . .
C52 C53 C54 108.0(4) . .
C52 C53 C73 128.5(4) . .
C54 C53 C73 123.3(4) . .
N6 C54 C55 126.2(3) . .
N6 C54 C53 109.6(3) . .
C55 C54 C53 124.1(4) . .
C54 C55 C56 129.3(4) . .
C54 C55 H55A 115.3 . .
C56 C55 H55A 115.3 . .
N7 C56 C55 123.5(3) . .
N7 C56 C57 110.6(3) . .
C55 C56 C57 125.9(4) . .
C58 C57 C56 106.0(3) . .
C58 C57 C75 128.2(4) . .
C56 C57 C75 125.6(4) . .
C57 C58 C59 106.6(3) . .
C57 C58 C77 128.2(4) . .
C59 C58 C77 125.0(4) . .
N7 C59 C60 124.1(3) . .
N7 C59 C58 110.4(3) . .
C60 C59 C58 125.5(3) . .
C61 C60 C59 127.4(3) . .
C61 C60 H60A 116.3 . .
C59 C60 H60A 116.3 . .
N8 C61 C60 124.4(3) . .
N8 C61 C62 109.4(3) . .
C60 C61 C62 126.1(3) . .
C63 C62 C61 107.3(3) . .
C63 C62 C79 127.8(4) . .
C61 C62 C79 124.9(4) . .
C62 C63 C64 106.4(4) . .
C62 C63 C81 128.0(4) . .
C64 C63 C81 125.6(4) . .
N8 C64 C65 123.9(3) . .
N8 C64 C63 109.9(3) . .
C65 C64 C63 126.2(4) . .
C64 C65 C66 129.1(4) . .
C64 C65 H65A 115.5 . .
C66 C65 H65A 115.5 . .
N9 C66 C65 126.3(3) . .
N9 C66 C67 110.1(3) . .
C65 C66 C67 123.7(3) . .
C68 C67 C66 107.1(3) . .
C68 C67 C83 127.3(3) . .
C66 C67 C83 125.4(3) . .
C67 C68 C69 106.4(3) . .
C67 C68 C85 121.6(3) . .
C69 C68 C85 132.0(3) . .
N9 C69 C70 124.6(3) . .
N9 C69 C68 108.3(3) . .
C70 C69 C68 127.1(3) . .
C69 C70 C51 125.8(3) . .
C69 C70 C46 116.4(3) . .
C51 C70 C46 117.4(3) . .
C52 C71 C72 113.3(3) . .
C52 C71 H71A 108.9 . .
C72 C71 H71A 108.9 . .
C52 C71 H71B 108.9 . .
C72 C71 H71B 108.9 . .
H71A C71 H71B 107.7 . .
C71 C72 H72A 109.5 . .
C71 C72 H72B 109.5 . .
H72A C72 H72B 109.5 . .
C71 C72 H72C 109.5 . .
H72A C72 H72C 109.5 . .
H72B C72 H72C 109.5 . .
C53 C73 C74 105.5(5) . .
C53 C73 H73A 110.6 . .
C74 C73 H73A 110.6 . .
C53 C73 H73B 110.6 . .
C74 C73 H73B 110.6 . .
H73A C73 H73B 108.8 . .
C57 C75 C76 111.7(4) . .
C57 C75 H75A 109.3 . .
C76 C75 H75A 109.3 . .
C57 C75 H75B 109.3 . .
C76 C75 H75B 109.3 . .
H75A C75 H75B 107.9 . .
C75 C76 H76A 109.5 . .
C75 C76 H76B 109.5 . .
H76A C76 H76B 109.5 . .
C75 C76 H76C 109.5 . .
H76A C76 H76C 109.5 . .
H76B C76 H76C 109.5 . .
C58 C77 C78 113.4(3) . .
C58 C77 H77A 108.9 . .
C78 C77 H77A 108.9 . .
C58 C77 H77B 108.9 . .
C78 C77 H77B 108.9 . .
H77A C77 H77B 107.7 . .
C77 C78 H78A 109.5 . .
C77 C78 H78B 109.5 . .
H78A C78 H78B 109.5 . .
C77 C78 H78C 109.5 . .
H78A C78 H78C 109.5 . .
H78B C78 H78C 109.5 . .
C62 C79 C80 112.5(5) . .
C62 C79 H79A 109.1 . .
C80 C79 H79A 109.1 . .
C62 C79 H79B 109.1 . .
C80 C79 H79B 109.1 . .
H79A C79 H79B 107.8 . .
C79 C80 H80A 109.5 . .
C79 C80 H80B 109.5 . .
H80A C80 H80B 109.5 . .
C79 C80 H80C 109.5 . .
H80A C80 H80C 109.5 . .
H80B C80 H80C 109.5 . .
C63 C81 C82 107.0(6) . .
C63 C81 C82A 98.8(9) . .
C82 C81 C82A 153.4(9) . .
C63 C81 H81A 110.8 . .
C82 C81 H81A 110.0 . .
C82A C81 H81A 53.0 . .
C63 C81 H81B 110.8 . .
C82 C81 H81B 110.3 . .
C82A C81 H81B 64.7 . .
H81A C81 H81B 108.0 . .
C63 C81 H81C 112.7 . .
C82 C81 H81C 64.5 . .
C82A C81 H81C 111.2 . .
C63 C81 H81D 112.8 . .
C82 C81 H81D 52.9 . .
C82A C81 H81D 111.1 . .
H81C C81 H81D 109.8 . .
C81 C82 H81C 33.3 . .
C81 C82 H81D 33.5 . .
H81C C82 H81D 63.5 . .
C81 C82 H82A 109.5 . .
H81C C82 H82A 88.9 . .
H81D C82 H82A 106.9 . .
C81 C82 H82B 109.5 . .
H81C C82 H82B 93.5 . .
H81D C82 H82B 136.2 . .
H82A C82 H82B 109.5 . .
C81 C82 H82C 109.5 . .
H81C C82 H82C 142.5 . .
H81D C82 H82C 79.7 . .
H82A C82 H82C 109.5 . .
H82B C82 H82C 109.5 . .
C81 C82A H81A 30.5 . .
C81 C82A H82D 109.5 . .
H81A C82A H82D 139.8 . .
C81 C82A H82E 109.5 . .
H81A C82A H82E 94.3 . .
H82D C82A H82E 109.5 . .
C81 C82A H82F 109.5 . .
H81A C82A H82F 91.3 . .
H82D C82A H82F 109.5 . .
H82E C82A H82F 109.5 . .
C67 C83 C84 112.2(3) . .
C67 C83 H83A 109.2 . .
C84 C83 H83A 109.2 . .
C67 C83 H83B 109.2 . .
C84 C83 H83B 109.2 . .
H83A C83 H83B 107.9 . .
C83 C84 H84A 109.5 . .
C83 C84 H84B 109.5 . .
H84A C84 H84B 109.5 . .
C83 C84 H84C 109.5 . .
H84A C84 H84C 109.5 . .
H84B C84 H84C 109.5 . .
C68 C85 C86 114.3(3) . .
C68 C85 H85A 108.7 . .
C86 C85 H85A 108.7 . .
C68 C85 H85B 108.7 . .
C86 C85 H85B 108.7 . .
H85A C85 H85B 107.6 . .
C85 C86 H86A 109.5 . .
C85 C86 H86B 109.5 . .
H86A C86 H86B 109.5 . .
C85 C86 H86C 109.5 . .
H86A C86 H86C 109.5 . .
H86B C86 H86C 109.5 . .
O1 C87 C88 110.8(3) . .
O1 C87 H87A 109.5 . .
C88 C87 H87A 109.5 . .
O1 C87 H87B 109.5 . .
C88 C87 H87B 109.5 . .
H87A C87 H87B 108.1 . .
O2 C88 C87 111.1(3) . .
O2 C88 H88A 109.4 . .
C87 C88 H88A 109.4 . .
O2 C88 H88B 109.4 . .
C87 C88 H88B 109.4 . .
H88A C88 H88B 108.0 . .
O2 C89 C90 110.9(3) . .
O2 C89 H89A 109.5 . .
C90 C89 H89A 109.5 . .
O2 C89 H89B 109.5 . .
C90 C89 H89B 109.5 . .
H89A C89 H89B 108.0 . .
O1 C90 C89 109.2(3) . .
O1 C90 H90A 109.8 . .
C89 C90 H90A 109.8 . .
O1 C90 H90B 109.8 . .
C89 C90 H90B 109.8 . .
H90A C90 H90B 108.3 . .
O3 C91 C92 110.0(3) . .
O3 C91 H91A 109.7 . .
C92 C91 H91A 109.7 . .
O3 C91 H91B 109.7 . .
C92 C91 H91B 109.7 . .
H91A C91 H91B 108.2 . .
O3 C92 C91 110.1(3) 2_477 .
O3 C92 H92A 109.6 2_477 .
C91 C92 H92A 109.6 . .
O3 C92 H92B 109.6 2_477 .
C91 C92 H92B 109.6 . .
H92A C92 H92B 108.1 . .
O4 C93 C94 110.2(3) . 2_566
O4 C93 H93A 109.6 . .
C94 C93 H93A 109.6 2_566 .
O4 C93 H93B 109.6 . .
C94 C93 H93B 109.6 2_566 .
H93A C93 H93B 108.1 . .
O4 C94 C93 110.3(3) . 2_566
O4 C94 H94A 109.6 . .
C93 C94 H94A 109.6 2_566 .
O4 C94 H94B 109.6 . .
C93 C94 H94B 109.6 2_566 .
H94A C94 H94B 108.1 . .
C73 C74 H74A 109.5 . .
C73 C74 H74B 109.5 . .
H74A C74 H74B 109.5 . .
C73 C74 H74C 109.5 . .
H74A C74 H74C 109.5 . .
H74B C74 H74C 109.5 . .
loop_
_geom_bond_atom_site_label_1
_geom_bond_atom_site_label_2
_geom_bond_distance
_geom_bond_site_symmetry_2
Mg1 N1 2.073(3) .
Mg1 N3 2.079(3) .
Mg1 N2 2.080(3) .
Mg1 N4 2.080(3) .
Mg1 O1 2.163(3) .
Mg1 O3 2.174(3) .
Mg2 N9 2.065(3) .
Mg2 N6 2.069(3) .
Mg2 N7 2.070(3) .
Mg2 N8 2.070(3) .
Mg2 O4 2.246(3) .
Mg2 O2 2.272(3) .
O1 C87 1.425(4) .
O1 C90 1.443(4) .
O2 C88 1.443(5) .
O2 C89 1.444(5) .
O3 C92 1.429(4) 2_477
O3 C91 1.440(4) .
O4 C94 1.430(5) .
O4 C93 1.438(5) .
N1 C1 1.363(4) .
N1 C4 1.371(4) .
N2 C9 1.368(5) .
N2 C6 1.369(5) .
N3 C11 1.365(4) .
N3 C14 1.373(5) .
N4 C16 1.362(4) .
N4 C19 1.376(4) .
N5 C45 1.375(4) .
N5 C38 1.385(4) .
N5 H5A 0.8800 .
N6 C54 1.371(5) .
N6 C51 1.380(4) .
N7 C56 1.361(5) .
N7 C59 1.370(4) .
N8 C64 1.366(5) .
N8 C61 1.377(4) .
N9 C66 1.374(4) .
N9 C69 1.376(4) .
C1 C20 1.438(5) .
C1 C2 1.476(5) .
C2 C3 1.365(5) .
C2 C21 1.510(5) .
C3 C4 1.448(5) .
C3 C23 1.511(5) .
C4 C5 1.412(5) .
C5 C6 1.375(5) .
C5 H5B 0.9500 .
C6 C7 1.478(5) .
C7 C8 1.339(6) .
C7 C25 1.496(6) .
C8 C9 1.462(5) .
C8 C27 1.516(5) .
C9 C10 1.387(5) .
C10 C11 1.406(5) .
C10 H10A 0.9500 .
C11 C12 1.456(6) .
C12 C13 1.368(5) .
C12 C29 1.507(6) .
C13 C14 1.447(5) .
C13 C31 1.492(6) .
C14 C15 1.389(5) .
C15 C16 1.389(5) .
C15 H15A 0.9500 .
C16 C17 1.455(5) .
C17 C18 1.369(5) .
C17 C33 1.486(5) .
C18 C19 1.490(5) .
C18 C35 1.503(5) .
C19 C20 1.409(5) .
C20 C37 1.514(5) .
C21 C22 1.535(5) .
C21 H21A 0.9900 .
C21 H21B 0.9900 .
C22 H22A 0.9800 .
C22 H22B 0.9800 .
C22 H22C 0.9800 .
C23 C24 1.536(5) .
C23 H23A 0.9900 .
C23 H23B 0.9900 .
C24 H24A 0.9800 .
C24 H24B 0.9800 .
C24 H24C 0.9800 .
C25 C26 1.612(8) .
C25 H25A 0.9900 .
C25 H25B 0.9900 .
C26 H26A 0.9800 .
C26 H26B 0.9800 .
C26 H26C 0.9800 .
C27 C28 1.494(8) .
C27 H27A 0.9900 .
C27 H27B 0.9900 .
C28 H28A 0.9800 .
C28 H28B 0.9800 .
C28 H28C 0.9800 .
C29 C30 1.512(11) .
C29 H29A 0.9900 .
C29 H29B 0.9900 .
C30 H30A 0.9800 .
C30 H30B 0.9800 .
C30 H30C 0.9800 .
C31 C32 1.499(7) .
C31 H31A 0.9900 .
C31 H31B 0.9900 .
C32 H32A 0.9800 .
C32 H32B 0.9800 .
C32 H32C 0.9800 .
C33 C34 1.566(7) .
C33 H33A 0.9900 .
C33 H33B 0.9900 .
C34 H34A 0.9800 .
C34 H34B 0.9800 .
C34 H34C 0.9800 .
C35 C36 1.508(7) .
C35 H35A 0.9900 .
C35 H35B 0.9900 .
C36 H36A 0.9800 .
C36 H36B 0.9800 .
C36 H36C 0.9800 .
C37 C38 1.489(5) .
C37 H37A 0.9900 .
C37 H37B 0.9900 .
C38 C39 1.380(5) .
C39 C42 1.434(5) .
C39 C40 1.493(5) .
C40 C41 1.525(5) .
C40 H40A 0.9900 .
C40 H40B 0.9900 .
C41 H41A 0.9800 .
C41 H41B 0.9800 .
C41 H41C 0.9800 .
C42 C45 1.363(5) .
C42 C43 1.522(5) .
C43 C44 1.521(5) .
C43 H43A 0.9900 .
C43 H43B 0.9900 .
C44 H44A 0.9800 .
C44 H44B 0.9800 .
C44 H44C 0.9800 .
C45 C46 1.504(5) .
C46 C70 1.532(5) .
C46 H46A 0.9900 .
C46 H46B 0.9900 .
C51 C70 1.427(5) .
C51 C52 1.462(5) .
C52 C53 1.365(5) .
C52 C71 1.510(5) .
C53 C54 1.435(5) .
C53 C73 1.506(6) .
C54 C55 1.394(5) .
C55 C56 1.395(5) .
C55 H55A 0.9500 .
C56 C57 1.466(5) .
C57 C58 1.367(5) .
C57 C75 1.495(6) .
C58 C59 1.456(5) .
C58 C77 1.487(5) .
C59 C60 1.407(5) .
C60 C61 1.386(5) .
C60 H60A 0.9500 .
C61 C62 1.444(5) .
C62 C63 1.363(6) .
C62 C79 1.499(6) .
C63 C64 1.452(5) .
C63 C81 1.495(7) .
C64 C65 1.392(5) .
C65 C66 1.401(5) .
C65 H65A 0.9500 .
C66 C67 1.450(5) .
C67 C68 1.377(5) .
C67 C83 1.488(5) .
C68 C69 1.494(5) .
C68 C85 1.504(5) .
C69 C70 1.411(5) .
C71 C72 1.523(6) .
C71 H71A 0.9900 .
C71 H71B 0.9900 .
C72 H72A 0.9800 .
C72 H72B 0.9800 .
C72 H72C 0.9800 .
C73 C74 1.879(13) .
C73 H73A 0.9900 .
C73 H73B 0.9900 .
C75 C76 1.580(9) .
C75 H75A 0.9900 .
C75 H75B 0.9900 .
C76 H76A 0.9800 .
C76 H76B 0.9800 .
C76 H76C 0.9800 .
C77 C78 1.535(6) .
C77 H77A 0.9900 .
C77 H77B 0.9900 .
C78 H78A 0.9800 .
C78 H78B 0.9800 .
C78 H78C 0.9800 .
C79 C80 1.526(9) .
C79 H79A 0.9900 .
C79 H79B 0.9900 .
C80 H80A 0.9800 .
C80 H80B 0.9800 .
C80 H80C 0.9800 .
C81 C82 1.736(13) .
C81 C82A 1.89(2) .
C81 H81A 0.9644 .
C81 H81B 0.9650 .
C81 H81C 0.9608 .
C81 H81D 0.9594 .
C82 H81C 1.5818 .
C82 H81D 1.3866 .
C82 H82A 0.9800 .
C82 H82B 0.9800 .
C82 H82C 0.9800 .
C82A H81A 1.5190 .
C82A H82D 0.9800 .
C82A H82E 0.9800 .
C82A H82F 0.9800 .
C83 C84 1.523(6) .
C83 H83A 0.9900 .
C83 H83B 0.9900 .
C84 H84A 0.9800 .
C84 H84B 0.9800 .
C84 H84C 0.9800 .
C85 C86 1.522(5) .
C85 H85A 0.9900 .
C85 H85B 0.9900 .
C86 H86A 0.9800 .
C86 H86B 0.9800 .
C86 H86C 0.9800 .
C87 C88 1.495(6) .
C87 H87A 0.9900 .
C87 H87B 0.9900 .
C88 H88A 0.9900 .
C88 H88B 0.9900 .
C89 C90 1.492(5) .
C89 H89A 0.9900 .
C89 H89B 0.9900 .
C90 H90A 0.9900 .
C90 H90B 0.9900 .
C91 C92 1.501(5) .
C91 H91A 0.9900 .
C91 H91B 0.9900 .
C92 O3 1.429(4) 2_477
C92 H92A 0.9900 .
C92 H92B 0.9900 .
C93 C94 1.487(6) 2_566
C93 H93A 0.9900 .
C93 H93B 0.9900 .
C94 C93 1.487(6) 2_566
C94 H94A 0.9900 .
C94 H94B 0.9900 .
C74 H74A 0.9800 .
C74 H74B 0.9800 .
C74 H74C 0.9800 .
