#------------------------------------------------------------------------------
#$Date: 2015-09-02 11:28:22 +0300 (Wed, 02 Sep 2015) $
#$Revision: 153892 $
#$URL: svn://www.crystallography.net/cod/cif/7/11/77/7117732.cif $
#------------------------------------------------------------------------------
#
# This file is available in the Crystallography Open Database (COD),
# http://www.crystallography.net/
#
# All data on this site have been placed in the public domain by the
# contributors.
#
data_7117732
loop_
_publ_author_name
'Sk Asif Ikbal'
'Avinash Dhamija'
'Sankar Prasad Rath'
_publ_section_title
;
 Metal-coordination-driven mixed ligand binding in supramolecular
 bisporphyrin tweezers
;
_journal_name_full               Chem.Commun.
_journal_page_first              14107
_journal_paper_doi               10.1039/C5cc04882F
_journal_volume                  51
_journal_year                    2015
_chemical_formula_sum            'C177 H219 Cl3 Mg4 N26'
_chemical_formula_weight         2914.36
_chemical_name_systematic
;
 ?
;
_space_group_crystal_system      triclinic
_space_group_IT_number           2
_space_group_name_Hall           '-P 1'
_space_group_name_H-M_alt        'P -1'
_symmetry_space_group_name_Hall  '-P 1'
_symmetry_space_group_name_H-M   'P -1'
_atom_sites_solution_hydrogens   geom
_audit_creation_method           SHELXL-2014
_audit_update_record
;
2015-06-10 deposited with the CCDC.
2015-07-22 downloaded from the CCDC.
;
_cell_angle_alpha                96.237(5)
_cell_angle_beta                 97.714(5)
_cell_angle_gamma                105.938(5)
_cell_formula_units_Z            1
_cell_length_a                   13.848(5)
_cell_length_b                   16.029(5)
_cell_length_c                   19.255(5)
_cell_measurement_reflns_used    999
_cell_measurement_temperature    100(2)
_cell_measurement_theta_max      26.5
_cell_measurement_theta_min      2.5
_cell_volume                     4025(2)
_computing_cell_refinement       'Bruker SAINT'
_computing_data_collection       'Bruker APEX'
_computing_data_reduction        'Bruker SAINT'
_computing_molecular_graphics    'SHELXL 5.1, XP (Sheldrick, 1994)'
_computing_publication_material  SHELXS-97
_computing_structure_refinement  'SHELXL-2014 (Sheldrick, 2014)'
_computing_structure_solution    'SHELXS-97 (Sheldrick, 2008)'
_diffrn_ambient_temperature      100(2)
_diffrn_detector_area_resol_mean \w
_diffrn_measured_fraction_theta_full 0.987
_diffrn_measured_fraction_theta_max 0.987
_diffrn_measurement_device_type  graphite
_diffrn_measurement_method       'Bruker SMART APEX'
_diffrn_radiation_type           MoK\a
_diffrn_radiation_wavelength     0.71073
_diffrn_reflns_av_R_equivalents  0.0435
_diffrn_reflns_av_unetI/netI     0.0846
_diffrn_reflns_laue_measured_fraction_full 0.987
_diffrn_reflns_laue_measured_fraction_max 0.987
_diffrn_reflns_limit_h_max       16
_diffrn_reflns_limit_h_min       -16
_diffrn_reflns_limit_k_max       18
_diffrn_reflns_limit_k_min       -19
_diffrn_reflns_limit_l_max       19
_diffrn_reflns_limit_l_min       -22
_diffrn_reflns_number            26560
_diffrn_reflns_point_group_measured_fraction_full 0.987
_diffrn_reflns_point_group_measured_fraction_max 0.987
_diffrn_reflns_theta_full        25.000
_diffrn_reflns_theta_max         25.000
_diffrn_reflns_theta_min         2.038
_diffrn_source                   'fine-focus sealed tube'
_exptl_absorpt_coefficient_mu    0.134
_exptl_absorpt_correction_T_max  0.980
_exptl_absorpt_correction_T_min  0.975
_exptl_absorpt_correction_type   multi-scan
_exptl_absorpt_process_details   'SADABS 2.05 (Sheldrick, 2002)'
_exptl_crystal_colour            'dark brown'
_exptl_crystal_density_diffrn    1.202
_exptl_crystal_description       block
_exptl_crystal_F_000             1562
_exptl_crystal_size_max          0.220
_exptl_crystal_size_mid          0.160
_exptl_crystal_size_min          0.100
_refine_diff_density_max         1.533
_refine_diff_density_min         -0.910
_refine_diff_density_rms         0.095
_refine_ls_extinction_coef       .
_refine_ls_extinction_method     none
_refine_ls_goodness_of_fit_ref   1.040
_refine_ls_hydrogen_treatment    mixed
_refine_ls_matrix_type           full
_refine_ls_number_parameters     986
_refine_ls_number_reflns         14007
_refine_ls_number_restraints     6
_refine_ls_restrained_S_all      1.043
_refine_ls_R_factor_all          0.1418
_refine_ls_R_factor_gt           0.0914
_refine_ls_shift/su_max          0.000
_refine_ls_shift/su_mean         0.000
_refine_ls_structure_factor_coef Fsqd
_refine_ls_weighting_details
'w=1/[\s^2^(Fo^2^)+(0.1440P)^2^+6.8498P] where P=(Fo^2^+2Fc^2^)/3'
_refine_ls_weighting_scheme      calc
_refine_ls_wR_factor_gt          0.2430
_refine_ls_wR_factor_ref         0.2761
_reflns_Friedel_coverage         0.000
_reflns_friedel_fraction_full    .
_reflns_friedel_fraction_max     .
_reflns_number_gt                8837
_reflns_number_total             14007
_reflns_threshold_expression     'I > 2\s(I)'
_cod_data_source_file            c5cc04882f2.cif
_cod_data_source_block           12octb
_cod_database_code               7117732
_shelx_space_group_comment
;
The symmetry employed for this shelxl refinement is uniquely defined
by the following loop, which should always be used as a source of
symmetry information in preference to the above space-group names.
They are only intended as comments.
;
_shelx_estimated_absorpt_t_min   0.971
_shelx_estimated_absorpt_t_max   0.987
_shelxl_version_number           2014-3
_shelx_res_file
;
TITL 12octb_0m in P -1
CELL  0.71073  13.8480  16.0290  19.2550   96.237   97.714  105.938
ZERR     1.00   0.0050   0.0050   0.0050    0.005    0.005    0.005
LATT   1
SFAC  C    H    N    MG   CL
UNIT  177  219  26   4    3
MERG   2
omit -3 50.0
omit 1 -2 1
omit 1 -3 1
omit 2 -5 3
omit -1 -2 4
omit 0 -3 3
omit -2 1 0
omit 2 2 2
omit 3 2 2
omit -5 3 1
omit -3 3 1
omit -7 4 0
omit 3 -1 3
omit -2 4 6
omit -3 2 6
omit -2 1 6
omit -1 -1 6
omit -2 -2 10
omit 2 6 0
omit -2 -3 8
omit -4 1 4
omit 2 -2 1
omit -1 -1 2
omit 1 1 0
omit 2 0 1
omit 0 -3 1
omit 2 2 0
omit -2 2 1
omit -6 1 4
FMAP   2
PLAN   15
L.S.   40
TEMP -173.0
isor 0.005 c3s
bond $H
size 0.22 0.16 0.10 ! red block
acta 50

WGHT    0.144000    6.849800
FVAR       0.22209
MG1   4    0.243976    0.081513    0.622341    11.00000    0.03131    0.02891 =
         0.04228    0.00521    0.00942    0.00938
MG2   4    0.325176    0.234940    0.957981    11.00000    0.06043    0.04317 =
         0.03784    0.01066    0.01573    0.01255
N1    3    0.197303    0.191764    0.608418    11.00000    0.01561    0.00795 =
         0.01929    0.00195    0.00519    0.00259
C1S   1    0.050978    0.152302    0.779111    11.00000    0.06930    0.05273 =
         0.03100   -0.00018    0.00293    0.02100
AFIX 137
H1C   2    0.080615    0.213451    0.772972    11.00000    0.04227
H1B   2    0.044987    0.113585    0.734708    11.00000    0.05591
H1A   2    0.095045    0.137256    0.816925    11.00000    0.05475
AFIX   0
C2S   1   -0.047677    0.141541    0.797656    11.00000    0.06676    0.04502 =
         0.03418   -0.00587    0.00368    0.02417
N1S   3   -0.126544    0.131377    0.811242    11.00000    0.07085    0.07342 =
         0.07465   -0.02439    0.00695    0.01954
N2    3    0.094365   -0.001307    0.593984    11.00000    0.00994    0.01306 =
         0.02393    0.00019    0.00320    0.00253
N3    3    0.286897   -0.033229    0.605114    11.00000    0.01539    0.01219 =
         0.02384    0.00322    0.00620    0.00375
N4    3    0.389795    0.160017    0.621169    11.00000    0.01307    0.01054 =
         0.01969    0.00272    0.00457    0.00239
N5    3    0.266021    0.331800    0.920090    11.00000    0.03174    0.02245 =
         0.02427    0.00685    0.01076    0.00318
N6    3    0.193289    0.184690    1.000289    11.00000    0.04775    0.01728 =
         0.02366    0.00419    0.01202    0.00344
N7    3    0.391117    0.162883    1.021903    11.00000    0.05149    0.02407 =
         0.01688    0.00715    0.00534    0.00464
N8    3    0.465066    0.313974    0.946116    11.00000    0.03232    0.02501 =
         0.02432    0.00842    0.00370    0.00062
N9    3    0.434191    0.445964    0.740845    11.00000    0.02630    0.00669 =
         0.02207    0.00314    0.00814    0.00055
AFIX  43
H9A   2    0.411821    0.392392    0.750695    11.00000   -1.20000
AFIX   0
N10   3    0.255659    0.078183    0.738750    11.00000    0.03836    0.03139 =
         0.03595   -0.00052    0.01452    0.00077
N11   3    0.290920    0.133940    0.862983    11.00000    0.04192    0.03432 =
         0.02104    0.00428    0.01012    0.00462
N12   3    0.364080    0.215635    0.782987    11.00000    0.11064    0.04151 =
         0.03488   -0.00490    0.02899   -0.02774
AFIX  93
H12A  2    0.391379    0.259613    0.817910    11.00000   -1.20000
H12B  2    0.375409    0.221844    0.739682    11.00000   -1.20000
AFIX   0
C1    1    0.254277    0.278048    0.611131    11.00000    0.01747    0.01074 =
         0.01484   -0.00129    0.00483    0.00541
C2    1    0.184674    0.332871    0.606339    11.00000    0.01400    0.01614 =
         0.01666    0.00227    0.00434    0.00442
C3    1    0.088965    0.278080    0.599662    11.00000    0.01890    0.01693 =
         0.01957    0.00222    0.00568    0.00914
C4    1    0.096863    0.189624    0.600256    11.00000    0.01372    0.01610 =
         0.01707    0.00330    0.00107    0.00588
C5    1    0.012564    0.115207    0.591089    11.00000    0.01235    0.02004 =
         0.01579    0.00380    0.00303    0.00635
AFIX  43
H5A   2   -0.051981    0.125923    0.586162    11.00000   -1.20000
AFIX   0
C6    1    0.010174    0.027841    0.588194    11.00000    0.00906    0.01879 =
         0.01701    0.00081    0.00319    0.00293
C7    1   -0.082136   -0.046120    0.578536    11.00000    0.01422    0.01631 =
         0.02091   -0.00053    0.00036    0.00173
C8    1   -0.050623   -0.119796    0.578533    11.00000    0.01455    0.01803 =
         0.01770   -0.00199    0.00318    0.00232
C9    1    0.059804   -0.090632    0.587289    11.00000    0.01260    0.01410 =
         0.02468   -0.00292    0.00390    0.00235
C10   1    0.122585   -0.144998    0.588093    11.00000    0.01914    0.01241 =
         0.02576   -0.00027    0.00407    0.00197
AFIX  43
H10A  2    0.089893   -0.206352    0.582230    11.00000   -1.20000
AFIX   0
C11   1    0.229352   -0.118458    0.596686    11.00000    0.01667    0.01354 =
         0.02353    0.00198    0.00511    0.00318
C12   1    0.294296   -0.176013    0.600968    11.00000    0.01752    0.01414 =
         0.02492    0.00192    0.00532    0.00652
C13   1    0.391299   -0.123209    0.613334    11.00000    0.01825    0.01463 =
         0.01986    0.00457    0.00791    0.00584
C14   1    0.386179   -0.033956    0.615465    11.00000    0.01910    0.01303 =
         0.01738    0.00359    0.00560    0.00570
C15   1    0.469719    0.040475    0.627180    11.00000    0.01701    0.01748 =
         0.01771    0.00504    0.00578    0.00773
AFIX  43
H15A  2    0.534317    0.029934    0.634154    11.00000   -1.20000
AFIX   0
C16   1    0.472710    0.129383    0.630241    11.00000    0.01364    0.01387 =
         0.01635    0.00468    0.00515    0.00457
C17   1    0.565101    0.200256    0.642821    11.00000    0.01597    0.01689 =
         0.01692    0.00728    0.00526    0.00488
C18   1    0.538523    0.276412    0.640134    11.00000    0.01469    0.01598 =
         0.01683    0.00565    0.00765    0.00381
C19   1    0.426374    0.250473    0.625189    11.00000    0.01316    0.01453 =
         0.01160    0.00161    0.00431    0.00348
C20   1    0.362066    0.305229    0.617011    11.00000    0.01463    0.00896 =
         0.01330    0.00080    0.00274    0.00230
C21   1    0.203474    0.430324    0.606517    11.00000    0.01742    0.01282 =
         0.03136    0.00239    0.00689    0.00711
AFIX  23
H21A  2    0.272613    0.461619    0.633171    11.00000   -1.20000
H21B  2    0.153891    0.449763    0.631814    11.00000   -1.20000
AFIX   0
C22   1    0.194577    0.456190    0.532846    11.00000    0.03186    0.01641 =
         0.03983    0.00974    0.00181    0.00767
AFIX 137
H22A  2    0.210021    0.520139    0.536843    11.00000   -1.50000
H22B  2    0.125055    0.428411    0.507016    11.00000   -1.50000
H22C  2    0.242915    0.436706    0.507159    11.00000   -1.50000
AFIX   0
C23   1   -0.009492    0.301343    0.593003    11.00000    0.01570    0.01350 =
         0.03259    0.00136    0.00202    0.00425
AFIX  23
H23A  2   -0.062817    0.254211    0.560177    11.00000   -1.20000
H23B  2   -0.000607    0.356221    0.572181    11.00000   -1.20000
AFIX   0
C24   1   -0.045119    0.313761    0.664197    11.00000    0.02190    0.03268 =
         0.04363   -0.00638    0.00932    0.00823
AFIX 137
H24A  2   -0.108417    0.330296    0.657177    11.00000   -1.50000
H24B  2    0.007477    0.360196    0.697020    11.00000   -1.50000
H24C  2   -0.057250    0.258750    0.684019    11.00000   -1.50000
AFIX   0
C25   1   -0.188667   -0.039810    0.569767    11.00000    0.01056    0.01732 =
         0.03073   -0.00083    0.00347   -0.00016
AFIX  23
H25A  2   -0.235255   -0.094901    0.541540    11.00000   -1.20000
H25B  2   -0.192691    0.008807    0.542971    11.00000   -1.20000
AFIX   0
C26   1   -0.224428   -0.023933    0.640702    11.00000    0.01979    0.03703 =
         0.03440    0.00635    0.00946    0.01129
AFIX 137
H26A  2   -0.294880   -0.021469    0.631869    11.00000   -1.50000
H26B  2   -0.180348    0.031777    0.668118    11.00000   -1.50000
H26C  2   -0.220912   -0.071958    0.667457    11.00000   -1.50000
AFIX   0
C27   1   -0.114728   -0.212790    0.573759    11.00000    0.01555    0.01132 =
         0.03323   -0.00208    0.00407   -0.00112
AFIX  23
H27A  2   -0.085892   -0.251698    0.544811    11.00000   -1.20000
H27B  2   -0.184341   -0.218865    0.549072    11.00000   -1.20000
AFIX   0
C28   1   -0.121483   -0.242686    0.645020    11.00000    0.04028    0.02719 =
         0.03911    0.00245    0.00903   -0.00860
AFIX 137
H28A  2   -0.159389   -0.305179    0.638234    11.00000   -1.50000
H28B  2   -0.156801   -0.208725    0.672100    11.00000   -1.50000
H28C  2   -0.052651   -0.233583    0.671040    11.00000   -1.50000
AFIX   0
C29   1    0.257882   -0.274779    0.595521    11.00000    0.01397    0.01034 =
         0.04243   -0.00034    0.00291    0.00181
AFIX  23
H29A  2    0.307885   -0.299896    0.575567    11.00000   -1.20000
H29B  2    0.192198   -0.297526    0.562319    11.00000   -1.20000
AFIX   0
C30   1    0.243827   -0.305236    0.666437    11.00000    0.06091    0.01561 =
         0.05748    0.01242    0.02096    0.00265
AFIX 137
H30A  2    0.217530   -0.369426    0.659505    11.00000   -1.50000
H30B  2    0.195348   -0.279743    0.686945    11.00000   -1.50000
H30C  2    0.309533   -0.286200    0.698638    11.00000   -1.50000
AFIX   0
C31   1    0.487751   -0.150111    0.621549    11.00000    0.01717    0.01042 =
         0.02785    0.00441    0.00465    0.00459
AFIX  23
H31A  2    0.475888   -0.204239    0.643581    11.00000   -1.20000
H31B  2    0.542010   -0.103431    0.654096    11.00000   -1.20000
AFIX   0
C32   1    0.524576   -0.166654    0.551660    11.00000    0.02075    0.03272 =
         0.03024   -0.00403    0.00568    0.01140
AFIX 137
H32A  2    0.585043   -0.187076    0.560140    11.00000   -1.50000
H32B  2    0.541874   -0.112058    0.531357    11.00000   -1.50000
H32C  2    0.470492   -0.211467    0.518539    11.00000   -1.50000
AFIX   0
C33   1    0.669812    0.189822    0.653635    11.00000    0.01313    0.01400 =
         0.02663    0.00572    0.00214    0.00173
AFIX  23
H33A  2    0.671967    0.146227    0.686055    11.00000   -1.20000
H33B  2    0.718753    0.246548    0.677080    11.00000   -1.20000
AFIX   0
C34   1    0.704366    0.160459    0.585245    11.00000    0.01804    0.02532 =
         0.03381    0.00528    0.00809    0.00901
AFIX 137
H34A  2    0.772017    0.152395    0.596738    11.00000   -1.50000
H34B  2    0.707476    0.205305    0.554155    11.00000   -1.50000
H34C  2    0.655730    0.104876    0.561056    11.00000   -1.50000
AFIX   0
C35   1    0.616476    0.365101    0.653195    11.00000    0.01799    0.01384 =
         0.02685    0.00304    0.00341    0.00221
AFIX  23
H35A  2    0.671474    0.366127    0.692154    11.00000   -1.20000
H35B  2    0.583955    0.410043    0.668852    11.00000   -1.20000
AFIX   0
C36   1    0.663839    0.389474    0.587559    11.00000    0.02629    0.02019 =
         0.04494    0.01082    0.01991    0.00549
AFIX 137
H36A  2    0.714158    0.447598    0.599545    11.00000   -1.50000
H36B  2    0.610187    0.390446    0.549156    11.00000   -1.50000
H36C  2    0.697326    0.345897    0.572185    11.00000   -1.50000
AFIX   0
C37   1    0.412218    0.399536    0.608536    11.00000    0.01472    0.01499 =
         0.02117    0.00601    0.00575    0.00563
AFIX  23
H37A  2    0.473991    0.401191    0.587466    11.00000   -1.20000
H37B  2    0.364879    0.417327    0.574002    11.00000   -1.20000
AFIX   0
C38   1    0.442517    0.466718    0.673942    11.00000    0.01478    0.01345 =
         0.01958    0.00337    0.00161    0.00432
C39   1    0.480208    0.556839    0.680586    11.00000    0.02164    0.01248 =
         0.02446    0.00605    0.00755    0.00541
C40   1    0.496721    0.606910    0.619475    11.00000    0.03248    0.01044 =
         0.03265    0.00522    0.00651    0.00425
AFIX  23
H40A  2    0.497982    0.668241    0.634819    11.00000   -1.20000
H40B  2    0.437906    0.580946    0.580568    11.00000   -1.20000
AFIX   0
C41   1    0.593748    0.608088    0.590671    11.00000    0.04264    0.05162 =
         0.03594    0.02071    0.01898    0.01418
AFIX 137
H41A  2    0.603243    0.648364    0.555656    11.00000   -1.50000
H41B  2    0.588645    0.548861    0.568101    11.00000   -1.50000
H41C  2    0.652032    0.627801    0.629652    11.00000   -1.50000
AFIX   0
C42   1    0.494976    0.591424    0.753942    11.00000    0.01970    0.01211 =
         0.02824    0.00104    0.00621   -0.00015
C43   1    0.535079    0.686473    0.786835    11.00000    0.04549    0.01237 =
         0.02587    0.00148    0.01074    0.00396
AFIX  23
H43A  2    0.515984    0.692869    0.834437    11.00000   -1.20000
H43B  2    0.501880    0.721256    0.757531    11.00000   -1.20000
AFIX   0
C44   1    0.649516    0.723792    0.794016    11.00000    0.04651    0.02632 =
         0.06198   -0.01302    0.01059   -0.01459
AFIX 137
H44A  2    0.669839    0.786680    0.812383    11.00000   -1.50000
H44B  2    0.669603    0.715170    0.747483    11.00000   -1.50000
H44C  2    0.683201    0.693691    0.826833    11.00000   -1.50000
AFIX   0
C45   1    0.466078    0.521512    0.790305    11.00000    0.02345    0.01253 =
         0.02609    0.00015    0.00555    0.00049
C46   1    0.461950    0.520716    0.866939    11.00000    0.03275    0.02009 =
         0.02159    0.00189    0.00919    0.00381
AFIX  23
H46A  2    0.420604    0.559052    0.881248    11.00000   -1.20000
H46B  2    0.531989    0.547286    0.893792    11.00000   -1.20000
AFIX   0
C51   1    0.313141    0.402850    0.889223    11.00000    0.03690    0.02240 =
         0.02292    0.00608    0.01209    0.00851
C52   1    0.234338    0.440440    0.859087    11.00000    0.04040    0.02340 =
         0.02464    0.00291    0.01255    0.00833
C53   1    0.143763    0.392661    0.874878    11.00000    0.03517    0.02478 =
         0.02386    0.00382    0.01023    0.00453
C54   1    0.165995    0.326471    0.914371    11.00000    0.03582    0.02473 =
         0.02265    0.00282    0.01131    0.00669
C55   1    0.092542    0.269219    0.944317    11.00000    0.03884    0.02639 =
         0.02421    0.00330    0.01044    0.00176
AFIX  43
H55A  2    0.025516    0.274509    0.935084    11.00000   -1.20000
AFIX   0
C56   1    0.104827    0.205875    0.985645    11.00000    0.04022    0.02224 =
         0.02159   -0.00038    0.01223   -0.00456
C57   1    0.025887    0.154549    1.020094    11.00000    0.04367    0.02401 =
         0.02283    0.00134    0.01171   -0.00520
C58   1    0.070548    0.101602    1.055938    11.00000    0.06106    0.01875 =
         0.01905   -0.00395    0.01553   -0.00855
C59   1    0.174248    0.119939    1.042075    11.00000    0.05516    0.01750 =
         0.01697   -0.00041    0.01356    0.00309
C60   1    0.244162    0.077064    1.066137    11.00000    0.07217    0.01914 =
         0.01610    0.00255    0.01268    0.00795
AFIX  43
H60A  2    0.220409    0.030057    1.091547    11.00000   -1.20000
AFIX   0
C61   1    0.344685    0.096096    1.056728    11.00000    0.06292    0.02119 =
         0.01041    0.00177    0.00351    0.00888
C62   1    0.418379    0.053456    1.083505    11.00000    0.07288    0.02217 =
         0.01708    0.00013   -0.00020    0.01074
C63   1    0.509407    0.095246    1.065836    11.00000    0.06145    0.02572 =
         0.02185    0.00059   -0.00524    0.00826
C64   1    0.489730    0.163974    1.025936    11.00000    0.05361    0.02586 =
         0.01911    0.00452   -0.00306    0.01193
C65   1    0.561877    0.219888    0.996494    11.00000    0.03940    0.03142 =
         0.03167    0.00811   -0.00608    0.00370
AFIX  43
H65A  2    0.627159    0.210594    1.001330    11.00000   -1.20000
AFIX   0
C66   1    0.550868    0.288935    0.960211    11.00000    0.03699    0.03006 =
         0.02646    0.00476   -0.00381    0.00439
C67   1    0.633393    0.345227    0.932765    11.00000    0.03343    0.03864 =
         0.03486    0.00825   -0.00171    0.00682
C68   1    0.596950    0.406784    0.903579    11.00000    0.03157    0.02808 =
         0.02414    0.00147    0.00013    0.00152
C69   1    0.490426    0.387501    0.912562    11.00000    0.03195    0.01969 =
         0.01932    0.00079    0.00385   -0.00302
C70   1    0.418840    0.431937    0.889520    11.00000    0.03650    0.01861 =
         0.01970    0.00270    0.01131    0.00276
C71   1    0.240404    0.513795    0.814798    11.00000    0.04195    0.03035 =
         0.03831    0.01299    0.01915    0.01294
AFIX  23
H71A  2    0.179924    0.496548    0.776688    11.00000   -1.20000
H71B  2    0.301645    0.521737    0.792038    11.00000   -1.20000
AFIX   0
C72   1    0.245430    0.601398    0.858132    11.00000    0.07813    0.02458 =
         0.07449    0.01213    0.04452    0.01743
AFIX 137
H72A  2    0.248861    0.646044    0.826829    11.00000   -1.50000
H72B  2    0.306228    0.619802    0.895135    11.00000   -1.50000
H72C  2    0.184415    0.594364    0.880140    11.00000   -1.50000
AFIX   0
C73   1    0.040366    0.405775    0.857332    11.00000    0.04362    0.03319 =
         0.02653    0.00896    0.01215    0.00899
AFIX  23
H73A  2   -0.011620    0.347822    0.843313    11.00000   -1.20000
H73B  2    0.039140    0.438291    0.816509    11.00000   -1.20000
AFIX   0
C74   1    0.013451    0.456578    0.920217    11.00000    0.03962    0.04324 =
         0.04782    0.00603    0.01645    0.01186
AFIX 137
H74A  2   -0.051487    0.468345    0.905572    11.00000   -1.50000
H74B  2    0.067215    0.512275    0.936339    11.00000   -1.50000
H74C  2    0.007389    0.421649    0.959011    11.00000   -1.50000
AFIX   0
C75   1   -0.080238    0.161003    1.017434    11.00000    0.04328    0.04311 =
         0.03808    0.01108    0.01975   -0.00905
AFIX  23
H75A  2   -0.124527    0.105367    1.027638    11.00000   -1.20000
H75B  2   -0.106643    0.168854    0.968953    11.00000   -1.20000
AFIX   0
C76   1   -0.085819    0.236359    1.069869    11.00000    0.06406    0.07488 =
         0.04487    0.01393    0.02544    0.02702
AFIX 137
H76A  2   -0.156951    0.236421    1.067359    11.00000   -1.50000
H76B  2   -0.045384    0.291964    1.058281    11.00000   -1.50000
H76C  2   -0.058736    0.229476    1.117914    11.00000   -1.50000
AFIX   0
C77   1    0.028053    0.040220    1.105628    11.00000    0.07266    0.02586 =
         0.02554    0.00312    0.01959   -0.00569
AFIX  23
H77A  2    0.050273   -0.013289    1.098430    11.00000   -1.20000
H77B  2   -0.047361    0.022409    1.095067    11.00000   -1.20000
AFIX   0
C78   1    0.065049    0.085297    1.183611    11.00000    0.08836    0.03766 =
         0.02221    0.00794    0.01623   -0.00010
AFIX 137
H78A  2    0.040157    0.043365    1.215270    11.00000   -1.50000
H78B  2    0.038690    0.135729    1.191584    11.00000   -1.50000
H78C  2    0.139733    0.105351    1.193374    11.00000   -1.50000
AFIX   0
C79   1    0.393928   -0.023787    1.123437    11.00000    0.08081    0.02316 =
         0.02981    0.00859    0.00189    0.01224
AFIX  23
H79A  2    0.442669   -0.057935    1.117181    11.00000   -1.20000
H79B  2    0.324629   -0.062603    1.103039    11.00000   -1.20000
AFIX   0
C80   1    0.399137    0.004355    1.202660    11.00000    0.10771    0.04444 =
         0.02471    0.01588   -0.00432    0.00182
AFIX 137
H80A  2    0.377204   -0.047823    1.225454    11.00000   -1.50000
H80B  2    0.354197    0.041287    1.209131    11.00000   -1.50000
H80C  2    0.469347    0.037633    1.224164    11.00000   -1.50000
AFIX   0
C81   1    0.609435    0.083721    1.088182    11.00000    0.06463    0.03648 =
         0.05250    0.01629   -0.01548    0.00946
AFIX  23
H81A  2    0.650588    0.094597    1.050042    11.00000   -1.20000
H81B  2    0.601101    0.022557    1.096776    11.00000   -1.20000
AFIX   0
C82   1    0.664969    0.147313    1.156089    11.00000    0.08155    0.06371 =
         0.06291    0.01143   -0.03436   -0.01276
AFIX 137
H82A  2    0.732919    0.140496    1.169313    11.00000   -1.50000
H82B  2    0.625970    0.134351    1.194486    11.00000   -1.50000
H82C  2    0.671518    0.207745    1.147878    11.00000   -1.50000
AFIX   0
C83   1    0.736459    0.333330    0.932364    11.00000    0.03247    0.06897 =
         0.07782    0.04022    0.00557    0.01730
AFIX  23
H83A  2    0.755955    0.308250    0.974994    11.00000   -1.20000
H83B  2    0.786929    0.391274    0.934528    11.00000   -1.20000
AFIX   0
C84   1    0.739151    0.272267    0.865478    11.00000    0.05885    0.05230 =
         0.12442    0.03532    0.04661    0.02937
AFIX 137
H84A  2    0.805526    0.260873    0.869489    11.00000   -1.50000
H84B  2    0.728520    0.300433    0.823570    11.00000   -1.50000
H84C  2    0.685116    0.216684    0.860860    11.00000   -1.50000
AFIX   0
C85   1    0.663931    0.475389    0.868152    11.00000    0.03247    0.03279 =
         0.02963    0.00382    0.00642    0.00241
AFIX  23
H85A  2    0.620254    0.495645    0.832793    11.00000   -1.20000
H85B  2    0.708090    0.448437    0.842710    11.00000   -1.20000
AFIX   0
C86   1    0.730419    0.554016    0.921621    11.00000    0.04889    0.04135 =
         0.04738    0.00571   -0.00076   -0.00452
AFIX 137
H86A  2    0.774643    0.595376    0.897090    11.00000   -1.50000
H86B  2    0.772442    0.534025    0.957468    11.00000   -1.50000
H86C  2    0.686928    0.583209    0.944688    11.00000   -1.50000
AFIX   0
C87   1    0.304895    0.138739    0.795832    11.00000    0.05570    0.03537 =
         0.03124   -0.00515    0.01817    0.00052
C88   1    0.202973    0.002393    0.752757    11.00000    0.05876    0.03972 =
         0.03922    0.01006    0.01785    0.01411
AFIX  43
H88A  2    0.171234   -0.043647    0.714272    11.00000   -1.20000
AFIX   0
C89   1    0.191156   -0.014078    0.820715    11.00000    0.05500    0.04525 =
         0.04404    0.01009    0.01674    0.00937
AFIX  43
H89A  2    0.153920   -0.069785    0.830058    11.00000   -1.20000
AFIX   0
C90   1    0.236986    0.055678    0.873508    11.00000    0.06394    0.04648 =
         0.03912    0.00169    0.01091    0.01292
AFIX  43
H90A  2    0.229587    0.047360    0.920830    11.00000   -1.20000
AFIX   0
C3S   1   -0.080413    0.546336    0.725209    10.50000    0.05981    0.03701 =
         0.05165    0.00908   -0.03147    0.02626
AFIX  13
H3SA  2   -0.082132    0.488268    0.740314    10.50000   -1.20000
AFIX   0
CL1   5   -0.191453    0.561399    0.735676    10.50000    0.09160    0.05737 =
         0.05000    0.01212    0.03274   -0.00391
CL2   5   -0.053378    0.538620    0.636154    10.50000    0.08318    0.04574 =
         0.04354   -0.00162    0.01008    0.02567
CL3   5    0.025388    0.620959    0.777194    10.50000    0.06647    0.09738 =
         0.06252   -0.02174   -0.02067    0.01877

HKLF    4

REM  12octb_0m in P -1
REM R1 =  0.0914 for    8837 Fo > 4sig(Fo)  and  0.1418 for all   14007 data
REM    986 parameters refined using      6 restraints

END

WGHT      0.1440      6.8496

REM Highest difference peak  1.533,  deepest hole -0.910,  1-sigma level  0.095
Q1    1  -0.1440  0.5099  0.7479  11.00000  0.05    1.53
Q2    1  -0.0331  0.5474  0.6876  11.00000  0.05    1.34
Q3    1  -0.0020  0.5606  0.6238  11.00000  0.05    0.89
Q4    1   0.0286  0.7023  0.7305  11.00000  0.05    0.85
Q5    1   0.4240  0.1678  0.7972  11.00000  0.05    0.84
Q6    1  -0.0574  0.5659  0.6398  11.00000  0.05    0.63
Q7    1   0.2858  0.0442  0.7674  11.00000  0.05    0.60
Q8    1  -0.0438 -0.0017  0.5824  11.00000  0.05    0.44
Q9    1   0.5190  0.1376  1.0485  11.00000  0.05    0.41
Q10   1  -0.1389  0.6658  0.7997  11.00000  0.05    0.40
Q11   1   0.2596 -0.1562  0.5990  11.00000  0.05    0.40
Q12   1   0.5601  0.2465  0.6431  11.00000  0.05    0.40
Q13   1   0.0533  0.1219  1.0306  11.00000  0.05    0.39
Q14   1   0.7009  0.1084  1.1456  11.00000  0.05    0.38
Q15   1   0.2495  0.0017  0.6028  11.00000  0.05    0.37
;
_shelx_res_checksum              78399
loop_
_space_group_symop_operation_xyz
'x, y, z'
'-x, -y, -z'
loop_
_atom_site_label
_atom_site_type_symbol
_atom_site_fract_x
_atom_site_fract_y
_atom_site_fract_z
_atom_site_U_iso_or_equiv
_atom_site_adp_type
_atom_site_occupancy
_atom_site_site_symmetry_order
_atom_site_calc_flag
_atom_site_refinement_flags_posn
_atom_site_refinement_flags_adp
_atom_site_refinement_flags_occupancy
_atom_site_disorder_assembly
_atom_site_disorder_group
Mg1 Mg 0.24398(13) 0.08151(11) 0.62234(9) 0.0338(4) Uani 1 1 d . . . . .
Mg2 Mg 0.32518(16) 0.23494(13) 0.95798(10) 0.0466(5) Uani 1 1 d . . . . .
N1 N 0.1973(3) 0.1918(2) 0.60842(17) 0.0143(7) Uani 1 1 d . . . . .
C1S C 0.0510(5) 0.1523(4) 0.7791(3) 0.0514(16) Uani 1 1 d . . . . .
H1C H 0.0806 0.2135 0.7730 0.042(15) Uiso 1 1 calc R . . . .
H1B H 0.0450 0.1136 0.7347 0.056(17) Uiso 1 1 calc R . . . .
H1A H 0.0950 0.1373 0.8169 0.055(17) Uiso 1 1 calc R . . . .
C2S C -0.0477(6) 0.1415(4) 0.7977(3) 0.0485(15) Uani 1 1 d . . . . .
N1S N -0.1265(5) 0.1314(4) 0.8112(3) 0.0766(19) Uani 1 1 d . . . . .
N2 N 0.0944(3) -0.0013(2) 0.59398(17) 0.0160(7) Uani 1 1 d . . . . .
N3 N 0.2869(3) -0.0332(2) 0.60511(18) 0.0169(8) Uani 1 1 d . . . . .
N4 N 0.3898(3) 0.1600(2) 0.62117(17) 0.0145(7) Uani 1 1 d . . . . .
N5 N 0.2660(3) 0.3318(2) 0.92009(19) 0.0263(9) Uani 1 1 d . . . . .
N6 N 0.1933(3) 0.1847(2) 1.00029(19) 0.0302(10) Uani 1 1 d . . . . .
N7 N 0.3911(4) 0.1629(2) 1.02190(19) 0.0319(10) Uani 1 1 d . . . . .
N8 N 0.4651(3) 0.3140(2) 0.94612(19) 0.0286(9) Uani 1 1 d . . . . .
N9 N 0.4342(3) 0.4460(2) 0.74085(17) 0.0188(8) Uani 1 1 d . . . . .
H9A H 0.4118 0.3924 0.7507 0.023 Uiso 1 1 calc R U . . .
N10 N 0.2557(3) 0.0782(3) 0.7387(2) 0.0368(10) Uani 1 1 d . . . . .
N11 N 0.2909(3) 0.1339(3) 0.8630(2) 0.0333(10) Uani 1 1 d . . . . .
N12 N 0.3641(5) 0.2156(3) 0.7830(3) 0.0718(19) Uani 1 1 d . . . . .
H12A H 0.3914 0.2596 0.8179 0.086 Uiso 1 1 calc R U . . .
H12B H 0.3754 0.2218 0.7397 0.086 Uiso 1 1 calc R U . . .
C1 C 0.2543(3) 0.2780(2) 0.6111(2) 0.0141(9) Uani 1 1 d . . . . .
C2 C 0.1847(3) 0.3329(3) 0.6063(2) 0.0155(9) Uani 1 1 d . . . . .
C3 C 0.0890(3) 0.2781(3) 0.5997(2) 0.0175(9) Uani 1 1 d . . . . .
C4 C 0.0969(3) 0.1896(3) 0.6003(2) 0.0154(9) Uani 1 1 d . . . . .
C5 C 0.0126(3) 0.1152(3) 0.5911(2) 0.0156(9) Uani 1 1 d . . . . .
H5A H -0.0520 0.1259 0.5862 0.019 Uiso 1 1 calc R U . . .
C6 C 0.0102(3) 0.0278(3) 0.5882(2) 0.0152(9) Uani 1 1 d . . . . .
C7 C -0.0821(3) -0.0461(3) 0.5785(2) 0.0182(9) Uani 1 1 d . . . . .
C8 C -0.0506(3) -0.1198(3) 0.5785(2) 0.0176(9) Uani 1 1 d . . . . .
C9 C 0.0598(3) -0.0906(3) 0.5873(2) 0.0178(9) Uani 1 1 d . . . . .
C10 C 0.1226(3) -0.1450(3) 0.5881(2) 0.0199(9) Uani 1 1 d . . . . .
H10A H 0.0899 -0.2064 0.5822 0.024 Uiso 1 1 calc R U . . .
C11 C 0.2294(3) -0.1185(3) 0.5967(2) 0.0181(9) Uani 1 1 d . . . . .
C12 C 0.2943(3) -0.1760(3) 0.6010(2) 0.0184(9) Uani 1 1 d . . . . .
C13 C 0.3913(3) -0.1232(3) 0.6133(2) 0.0168(9) Uani 1 1 d . . . . .
C14 C 0.3862(3) -0.0340(3) 0.6155(2) 0.0160(9) Uani 1 1 d . . . . .
C15 C 0.4697(3) 0.0405(3) 0.6272(2) 0.0164(9) Uani 1 1 d . . . . .
H15A H 0.5343 0.0299 0.6342 0.020 Uiso 1 1 calc R U . . .
C16 C 0.4727(3) 0.1294(3) 0.6302(2) 0.0141(9) Uani 1 1 d . . . . .
C17 C 0.5651(3) 0.2003(3) 0.6428(2) 0.0160(9) Uani 1 1 d . . . . .
C18 C 0.5385(3) 0.2764(3) 0.6401(2) 0.0153(9) Uani 1 1 d . . . . .
C19 C 0.4264(3) 0.2505(3) 0.62519(19) 0.0130(8) Uani 1 1 d . . . . .
C20 C 0.3621(3) 0.3052(2) 0.61701(19) 0.0126(8) Uani 1 1 d . . . . .
C21 C 0.2035(3) 0.4303(3) 0.6065(2) 0.0198(9) Uani 1 1 d . . . . .
H21A H 0.2726 0.4616 0.6332 0.024 Uiso 1 1 calc R U . . .
H21B H 0.1539 0.4498 0.6318 0.024 Uiso 1 1 calc R U . . .
C22 C 0.1946(4) 0.4562(3) 0.5328(2) 0.0292(11) Uani 1 1 d . . . . .
H22A H 0.2100 0.5201 0.5368 0.044 Uiso 1 1 calc R U . . .
H22B H 0.1251 0.4284 0.5070 0.044 Uiso 1 1 calc R U . . .
H22C H 0.2429 0.4367 0.5072 0.044 Uiso 1 1 calc R U . . .
C23 C -0.0095(3) 0.3013(3) 0.5930(2) 0.0210(10) Uani 1 1 d . . . . .
H23A H -0.0628 0.2542 0.5602 0.025 Uiso 1 1 calc R U . . .
H23B H -0.0006 0.3562 0.5722 0.025 Uiso 1 1 calc R U . . .
C24 C -0.0451(4) 0.3138(3) 0.6642(3) 0.0333(12) Uani 1 1 d . . . . .
H24A H -0.1084 0.3303 0.6572 0.050 Uiso 1 1 calc R U . . .
H24B H 0.0075 0.3602 0.6970 0.050 Uiso 1 1 calc R U . . .
H24C H -0.0572 0.2588 0.6840 0.050 Uiso 1 1 calc R U . . .
C25 C -0.1887(3) -0.0398(3) 0.5698(2) 0.0208(9) Uani 1 1 d . . . . .
H25A H -0.2353 -0.0949 0.5415 0.025 Uiso 1 1 calc R U . . .
H25B H -0.1927 0.0088 0.5430 0.025 Uiso 1 1 calc R U . . .
C26 C -0.2244(4) -0.0239(3) 0.6407(2) 0.0293(11) Uani 1 1 d . . . . .
H26A H -0.2949 -0.0215 0.6319 0.044 Uiso 1 1 calc R U . . .
H26B H -0.1803 0.0318 0.6681 0.044 Uiso 1 1 calc R U . . .
H26C H -0.2209 -0.0720 0.6675 0.044 Uiso 1 1 calc R U . . .
C27 C -0.1147(3) -0.2128(3) 0.5738(2) 0.0215(10) Uani 1 1 d . . . . .
H27A H -0.0859 -0.2517 0.5448 0.026 Uiso 1 1 calc R U . . .
H27B H -0.1843 -0.2189 0.5491 0.026 Uiso 1 1 calc R U . . .
C28 C -0.1215(4) -0.2427(3) 0.6450(3) 0.0393(13) Uani 1 1 d . . . . .
H28A H -0.1594 -0.3052 0.6382 0.059 Uiso 1 1 calc R U . . .
H28B H -0.1568 -0.2087 0.6721 0.059 Uiso 1 1 calc R U . . .
H28C H -0.0527 -0.2336 0.6710 0.059 Uiso 1 1 calc R U . . .
C29 C 0.2579(3) -0.2748(3) 0.5955(2) 0.0231(10) Uani 1 1 d . . . . .
H29A H 0.3079 -0.2999 0.5756 0.028 Uiso 1 1 calc R U . . .
H29B H 0.1922 -0.2975 0.5623 0.028 Uiso 1 1 calc R U . . .
C30 C 0.2438(5) -0.3052(3) 0.6664(3) 0.0448(14) Uani 1 1 d . . . . .
H30A H 0.2175 -0.3694 0.6595 0.067 Uiso 1 1 calc R U . . .
H30B H 0.1953 -0.2797 0.6869 0.067 Uiso 1 1 calc R U . . .
H30C H 0.3095 -0.2862 0.6986 0.067 Uiso 1 1 calc R U . . .
C31 C 0.4878(3) -0.1501(3) 0.6215(2) 0.0182(9) Uani 1 1 d . . . . .
H31A H 0.4759 -0.2042 0.6436 0.022 Uiso 1 1 calc R U . . .
H31B H 0.5420 -0.1034 0.6541 0.022 Uiso 1 1 calc R U . . .
C32 C 0.5246(4) -0.1667(3) 0.5517(2) 0.0277(11) Uani 1 1 d . . . . .
H32A H 0.5850 -0.1871 0.5601 0.042 Uiso 1 1 calc R U . . .
H32B H 0.5419 -0.1121 0.5314 0.042 Uiso 1 1 calc R U . . .
H32C H 0.4705 -0.2115 0.5185 0.042 Uiso 1 1 calc R U . . .
C33 C 0.6698(3) 0.1898(3) 0.6536(2) 0.0183(9) Uani 1 1 d . . . . .
H33A H 0.6720 0.1462 0.6861 0.022 Uiso 1 1 calc R U . . .
H33B H 0.7188 0.2465 0.6771 0.022 Uiso 1 1 calc R U . . .
C34 C 0.7044(3) 0.1605(3) 0.5852(2) 0.0248(10) Uani 1 1 d . . . . .
H34A H 0.7720 0.1524 0.5967 0.037 Uiso 1 1 calc R U . . .
H34B H 0.7075 0.2053 0.5542 0.037 Uiso 1 1 calc R U . . .
H34C H 0.6557 0.1049 0.5611 0.037 Uiso 1 1 calc R U . . .
C35 C 0.6165(3) 0.3651(3) 0.6532(2) 0.0201(9) Uani 1 1 d . . . . .
H35A H 0.6715 0.3661 0.6922 0.024 Uiso 1 1 calc R U . . .
H35B H 0.5840 0.4100 0.6689 0.024 Uiso 1 1 calc R U . . .
C36 C 0.6638(4) 0.3895(3) 0.5876(3) 0.0290(11) Uani 1 1 d . . . . .
H36A H 0.7142 0.4476 0.5995 0.043 Uiso 1 1 calc R U . . .
H36B H 0.6102 0.3904 0.5492 0.043 Uiso 1 1 calc R U . . .
H36C H 0.6973 0.3459 0.5722 0.043 Uiso 1 1 calc R U . . .
C37 C 0.4122(3) 0.3995(3) 0.6085(2) 0.0162(9) Uani 1 1 d . . . . .
H37A H 0.4740 0.4012 0.5875 0.019 Uiso 1 1 calc R U . . .
H37B H 0.3649 0.4173 0.5740 0.019 Uiso 1 1 calc R U . . .
C38 C 0.4425(3) 0.4667(3) 0.6739(2) 0.0160(9) Uani 1 1 d . . . . .
C39 C 0.4802(3) 0.5568(3) 0.6806(2) 0.0189(9) Uani 1 1 d . . . . .
C40 C 0.4967(4) 0.6069(3) 0.6195(2) 0.0254(10) Uani 1 1 d . . . . .
H40A H 0.4980 0.6682 0.6348 0.030 Uiso 1 1 calc R U . . .
H40B H 0.4379 0.5809 0.5806 0.030 Uiso 1 1 calc R U . . .
C41 C 0.5937(4) 0.6081(4) 0.5907(3) 0.0411(13) Uani 1 1 d . . . . .
H41A H 0.6032 0.6484 0.5557 0.062 Uiso 1 1 calc R U . . .
H41B H 0.5886 0.5489 0.5681 0.062 Uiso 1 1 calc R U . . .
H41C H 0.6520 0.6278 0.6297 0.062 Uiso 1 1 calc R U . . .
C42 C 0.4950(3) 0.5914(3) 0.7539(2) 0.0210(10) Uani 1 1 d . . . . .
C43 C 0.5351(4) 0.6865(3) 0.7868(2) 0.0285(11) Uani 1 1 d . . . . .
H43A H 0.5160 0.6929 0.8344 0.034 Uiso 1 1 calc R U . . .
H43B H 0.5019 0.7213 0.7575 0.034 Uiso 1 1 calc R U . . .
C44 C 0.6495(5) 0.7238(4) 0.7940(3) 0.0515(16) Uani 1 1 d . . . . .
H44A H 0.6698 0.7867 0.8124 0.077 Uiso 1 1 calc R U . . .
H44B H 0.6696 0.7152 0.7475 0.077 Uiso 1 1 calc R U . . .
H44C H 0.6832 0.6937 0.8268 0.077 Uiso 1 1 calc R U . . .
C45 C 0.4661(3) 0.5215(3) 0.7903(2) 0.0218(10) Uani 1 1 d . . . . .
C46 C 0.4619(4) 0.5207(3) 0.8669(2) 0.0253(10) Uani 1 1 d . . . . .
H46A H 0.4206 0.5591 0.8812 0.030 Uiso 1 1 calc R U . . .
H46B H 0.5320 0.5473 0.8938 0.030 Uiso 1 1 calc R U . . .
C51 C 0.3131(4) 0.4028(3) 0.8892(2) 0.0266(11) Uani 1 1 d . . . . .
C52 C 0.2343(4) 0.4404(3) 0.8591(2) 0.0291(11) Uani 1 1 d . . . . .
C53 C 0.1438(4) 0.3927(3) 0.8749(2) 0.0283(11) Uani 1 1 d . . . . .
C54 C 0.1660(4) 0.3265(3) 0.9144(2) 0.0276(11) Uani 1 1 d . . . . .
C55 C 0.0925(4) 0.2692(3) 0.9443(2) 0.0310(11) Uani 1 1 d . . . . .
H55A H 0.0255 0.2745 0.9351 0.037 Uiso 1 1 calc R U . . .
C56 C 0.1048(4) 0.2059(3) 0.9856(2) 0.0304(12) Uani 1 1 d . . . . .
C57 C 0.0259(4) 0.1545(3) 1.0201(2) 0.0328(12) Uani 1 1 d . . . . .
C58 C 0.0705(4) 0.1016(3) 1.0559(2) 0.0368(13) Uani 1 1 d . . . . .
C59 C 0.1742(4) 0.1199(3) 1.0421(2) 0.0309(12) Uani 1 1 d . . . . .
C60 C 0.2442(5) 0.0771(3) 1.0661(2) 0.0364(13) Uani 1 1 d . . . . .
H60A H 0.2204 0.0301 1.0915 0.044 Uiso 1 1 calc R U . . .
C61 C 0.3447(4) 0.0961(3) 1.0567(2) 0.0325(12) Uani 1 1 d . . . . .
C62 C 0.4184(5) 0.0535(3) 1.0835(2) 0.0390(14) Uani 1 1 d . . . . .
C63 C 0.5094(5) 0.0952(3) 1.0658(3) 0.0387(13) Uani 1 1 d . . . . .
C64 C 0.4897(4) 0.1640(3) 1.0259(2) 0.0336(12) Uani 1 1 d . . . . .
C65 C 0.5619(4) 0.2199(3) 0.9965(3) 0.0364(12) Uani 1 1 d . . . . .
H65A H 0.6272 0.2106 1.0013 0.044 Uiso 1 1 calc R U . . .
C66 C 0.5509(4) 0.2889(3) 0.9602(2) 0.0331(12) Uani 1 1 d . . . . .
C67 C 0.6334(4) 0.3452(3) 0.9328(3) 0.0369(12) Uani 1 1 d . . . . .
C68 C 0.5969(4) 0.4068(3) 0.9036(2) 0.0300(11) Uani 1 1 d . . . . .
C69 C 0.4904(4) 0.3875(3) 0.9126(2) 0.0260(10) Uani 1 1 d . . . . .
C70 C 0.4188(4) 0.4319(3) 0.8895(2) 0.0254(11) Uani 1 1 d . . . . .
C71 C 0.2404(4) 0.5138(3) 0.8148(3) 0.0346(12) Uani 1 1 d . . . . .
H71A H 0.1799 0.4965 0.7767 0.042 Uiso 1 1 calc R U . . .
H71B H 0.3016 0.5217 0.7920 0.042 Uiso 1 1 calc R U . . .
C72 C 0.2454(5) 0.6014(3) 0.8581(3) 0.0552(18) Uani 1 1 d . . . . .
H72A H 0.2489 0.6460 0.8268 0.083 Uiso 1 1 calc R U . . .
H72B H 0.3062 0.6198 0.8951 0.083 Uiso 1 1 calc R U . . .
H72C H 0.1844 0.5944 0.8801 0.083 Uiso 1 1 calc R U . . .
C73 C 0.0404(4) 0.4058(3) 0.8573(2) 0.0340(12) Uani 1 1 d . . . . .
H73A H -0.0116 0.3478 0.8433 0.041 Uiso 1 1 calc R U . . .
H73B H 0.0391 0.4383 0.8165 0.041 Uiso 1 1 calc R U . . .
C74 C 0.0135(4) 0.4566(4) 0.9202(3) 0.0428(14) Uani 1 1 d . . . . .
H74A H -0.0515 0.4683 0.9056 0.064 Uiso 1 1 calc R U . . .
H74B H 0.0672 0.5123 0.9363 0.064 Uiso 1 1 calc R U . . .
H74C H 0.0074 0.4216 0.9590 0.064 Uiso 1 1 calc R U . . .
C75 C -0.0802(4) 0.1610(4) 1.0174(3) 0.0443(14) Uani 1 1 d . . . . .
H75A H -0.1245 0.1054 1.0276 0.053 Uiso 1 1 calc R U . . .
H75B H -0.1066 0.1689 0.9690 0.053 Uiso 1 1 calc R U . . .
C76 C -0.0858(5) 0.2364(4) 1.0699(3) 0.0580(17) Uani 1 1 d . . . . .
H76A H -0.1570 0.2364 1.0674 0.087 Uiso 1 1 calc R U . . .
H76B H -0.0454 0.2920 1.0583 0.087 Uiso 1 1 calc R U . . .
H76C H -0.0587 0.2295 1.1179 0.087 Uiso 1 1 calc R U . . .
C77 C 0.0281(5) 0.0402(3) 1.1056(3) 0.0444(15) Uani 1 1 d . . . . .
H77A H 0.0503 -0.0133 1.0984 0.053 Uiso 1 1 calc R U . . .
H77B H -0.0474 0.0224 1.0951 0.053 Uiso 1 1 calc R U . . .
C78 C 0.0650(5) 0.0853(4) 1.1836(3) 0.0523(17) Uani 1 1 d . . . . .
H78A H 0.0402 0.0434 1.2153 0.078 Uiso 1 1 calc R U . . .
H78B H 0.0387 0.1357 1.1916 0.078 Uiso 1 1 calc R U . . .
H78C H 0.1397 0.1054 1.1934 0.078 Uiso 1 1 calc R U . . .
C79 C 0.3939(5) -0.0238(3) 1.1234(3) 0.0456(15) Uani 1 1 d . . . . .
H79A H 0.4427 -0.0579 1.1172 0.055 Uiso 1 1 calc R U . . .
H79B H 0.3246 -0.0626 1.1030 0.055 Uiso 1 1 calc R U . . .
C80 C 0.3991(6) 0.0044(4) 1.2027(3) 0.064(2) Uani 1 1 d . . . . .
H80A H 0.3772 -0.0478 1.2255 0.096 Uiso 1 1 calc R U . . .
H80B H 0.3542 0.0413 1.2091 0.096 Uiso 1 1 calc R U . . .
H80C H 0.4693 0.0376 1.2242 0.096 Uiso 1 1 calc R U . . .
C81 C 0.6094(5) 0.0837(4) 1.0882(3) 0.0540(17) Uani 1 1 d . . . . .
H81A H 0.6506 0.0946 1.0500 0.065 Uiso 1 1 calc R U . . .
H81B H 0.6011 0.0226 1.0968 0.065 Uiso 1 1 calc R U . . .
C82 C 0.6650(6) 0.1473(5) 1.1561(4) 0.081(2) Uani 1 1 d . . . . .
H82A H 0.7329 0.1405 1.1693 0.121 Uiso 1 1 calc R U . . .
H82B H 0.6260 0.1344 1.1945 0.121 Uiso 1 1 calc R U . . .
H82C H 0.6715 0.2077 1.1479 0.121 Uiso 1 1 calc R U . . .
C83 C 0.7365(5) 0.3333(4) 0.9324(4) 0.0574(18) Uani 1 1 d . . . . .
H83A H 0.7560 0.3082 0.9750 0.069 Uiso 1 1 calc R U . . .
H83B H 0.7869 0.3913 0.9345 0.069 Uiso 1 1 calc R U . . .
C84 C 0.7392(6) 0.2723(4) 0.8655(4) 0.071(2) Uani 1 1 d . . . . .
H84A H 0.8055 0.2609 0.8695 0.107 Uiso 1 1 calc R U . . .
H84B H 0.7285 0.3004 0.8236 0.107 Uiso 1 1 calc R U . . .
H84C H 0.6851 0.2167 0.8609 0.107 Uiso 1 1 calc R U . . .
C85 C 0.6639(4) 0.4754(3) 0.8682(3) 0.0331(12) Uani 1 1 d . . . . .
H85A H 0.6203 0.4956 0.8328 0.040 Uiso 1 1 calc R U . . .
H85B H 0.7081 0.4484 0.8427 0.040 Uiso 1 1 calc R U . . .
C86 C 0.7304(5) 0.5540(4) 0.9216(3) 0.0504(15) Uani 1 1 d . . . . .
H86A H 0.7746 0.5954 0.8971 0.076 Uiso 1 1 calc R U . . .
H86B H 0.7724 0.5340 0.9575 0.076 Uiso 1 1 calc R U . . .
H86C H 0.6869 0.5832 0.9447 0.076 Uiso 1 1 calc R U . . .
C87 C 0.3049(5) 0.1387(4) 0.7958(3) 0.0431(14) Uani 1 1 d . . . . .
C88 C 0.2030(5) 0.0024(4) 0.7528(3) 0.0448(14) Uani 1 1 d . . . . .
H88A H 0.1712 -0.0436 0.7143 0.054 Uiso 1 1 calc R U . . .
C89 C 0.1912(5) -0.0141(4) 0.8207(3) 0.0481(15) Uani 1 1 d . . . . .
H89A H 0.1539 -0.0698 0.8301 0.058 Uiso 1 1 calc R U . . .
C90 C 0.2370(5) 0.0557(4) 0.8735(3) 0.0507(15) Uani 1 1 d . . . . .
H90A H 0.2296 0.0474 0.9208 0.061 Uiso 1 1 calc R U . . .
C3S C -0.0804(10) 0.5463(7) 0.7252(6) 0.051(3) Uani 0.5 1 d . U P . .
H3SA H -0.0821 0.4883 0.7403 0.061 Uiso 0.5 1 calc R U P . .
Cl1 Cl -0.1915(3) 0.5614(2) 0.73568(17) 0.0693(10) Uani 0.5 1 d . . P . .
Cl2 Cl -0.0534(3) 0.5386(2) 0.63615(15) 0.0568(8) Uani 0.5 1 d . . P . .
Cl3 Cl 0.0254(3) 0.6210(3) 0.7772(2) 0.0822(12) Uani 0.5 1 d . . P . .
loop_
_atom_site_aniso_label
_atom_site_aniso_U_11
_atom_site_aniso_U_22
_atom_site_aniso_U_33
_atom_site_aniso_U_23
_atom_site_aniso_U_13
_atom_site_aniso_U_12
Mg1 0.0313(10) 0.0289(9) 0.0423(10) 0.0052(7) 0.0094(8) 0.0094(8)
Mg2 0.0604(14) 0.0432(11) 0.0378(10) 0.0107(8) 0.0157(9) 0.0126(10)
N1 0.0156(19) 0.0080(17) 0.0193(18) 0.0019(13) 0.0052(14) 0.0026(14)
C1S 0.069(5) 0.053(4) 0.031(3) 0.000(3) 0.003(3) 0.021(3)
C2S 0.067(5) 0.045(4) 0.034(3) -0.006(3) 0.004(3) 0.024(3)
N1S 0.071(5) 0.073(4) 0.075(4) -0.024(3) 0.007(4) 0.020(4)
N2 0.0099(19) 0.0131(18) 0.0239(19) 0.0002(14) 0.0032(15) 0.0025(15)
N3 0.015(2) 0.0122(18) 0.0238(19) 0.0032(14) 0.0062(15) 0.0038(15)
N4 0.0131(19) 0.0105(17) 0.0197(18) 0.0027(14) 0.0046(14) 0.0024(15)
N5 0.032(2) 0.022(2) 0.024(2) 0.0068(16) 0.0108(17) 0.0032(18)
N6 0.048(3) 0.017(2) 0.024(2) 0.0042(16) 0.0120(19) 0.0034(19)
N7 0.051(3) 0.024(2) 0.0169(19) 0.0072(16) 0.0053(19) 0.005(2)
N8 0.032(2) 0.025(2) 0.024(2) 0.0084(17) 0.0037(18) 0.0006(19)
N9 0.026(2) 0.0067(17) 0.0221(19) 0.0031(14) 0.0081(16) 0.0006(15)
N10 0.038(3) 0.031(2) 0.036(2) -0.0005(19) 0.015(2) 0.001(2)
N11 0.042(3) 0.034(2) 0.021(2) 0.0043(17) 0.0101(18) 0.005(2)
N12 0.111(5) 0.042(3) 0.035(3) -0.005(2) 0.029(3) -0.028(3)
C1 0.017(2) 0.011(2) 0.015(2) -0.0013(16) 0.0048(17) 0.0054(18)
C2 0.014(2) 0.016(2) 0.017(2) 0.0023(16) 0.0043(17) 0.0044(18)
C3 0.019(2) 0.017(2) 0.020(2) 0.0022(17) 0.0057(18) 0.0091(19)
C4 0.014(2) 0.016(2) 0.017(2) 0.0033(16) 0.0011(17) 0.0059(18)
C5 0.012(2) 0.020(2) 0.016(2) 0.0038(17) 0.0030(17) 0.0064(18)
C6 0.009(2) 0.019(2) 0.017(2) 0.0008(17) 0.0032(16) 0.0029(18)
C7 0.014(2) 0.016(2) 0.021(2) -0.0005(17) 0.0004(18) 0.0017(18)
C8 0.015(2) 0.018(2) 0.018(2) -0.0020(17) 0.0032(17) 0.0023(18)
C9 0.013(2) 0.014(2) 0.025(2) -0.0029(17) 0.0039(18) 0.0023(18)
C10 0.019(2) 0.012(2) 0.026(2) -0.0003(17) 0.0041(19) 0.0020(19)
C11 0.017(2) 0.014(2) 0.024(2) 0.0020(17) 0.0051(18) 0.0032(18)
C12 0.018(2) 0.014(2) 0.025(2) 0.0019(17) 0.0053(18) 0.0065(19)
C13 0.018(2) 0.015(2) 0.020(2) 0.0046(17) 0.0079(18) 0.0058(19)
C14 0.019(2) 0.013(2) 0.017(2) 0.0036(16) 0.0056(17) 0.0057(18)
C15 0.017(2) 0.017(2) 0.018(2) 0.0050(17) 0.0058(17) 0.0077(19)
C16 0.014(2) 0.014(2) 0.016(2) 0.0047(16) 0.0051(17) 0.0046(18)
C17 0.016(2) 0.017(2) 0.017(2) 0.0073(17) 0.0053(17) 0.0049(18)
C18 0.015(2) 0.016(2) 0.017(2) 0.0056(16) 0.0077(17) 0.0038(18)
C19 0.013(2) 0.015(2) 0.0116(19) 0.0016(15) 0.0043(16) 0.0035(17)
C20 0.015(2) 0.0090(19) 0.0133(19) 0.0008(15) 0.0027(16) 0.0023(17)
C21 0.017(2) 0.013(2) 0.031(2) 0.0024(18) 0.0069(19) 0.0071(19)
C22 0.032(3) 0.016(2) 0.040(3) 0.010(2) 0.002(2) 0.008(2)
C23 0.016(2) 0.014(2) 0.033(2) 0.0014(18) 0.0020(19) 0.0042(19)
C24 0.022(3) 0.033(3) 0.044(3) -0.006(2) 0.009(2) 0.008(2)
C25 0.011(2) 0.017(2) 0.031(2) -0.0008(18) 0.0035(18) -0.0002(18)
C26 0.020(3) 0.037(3) 0.034(3) 0.006(2) 0.009(2) 0.011(2)
C27 0.016(2) 0.011(2) 0.033(2) -0.0021(18) 0.0041(19) -0.0011(18)
C28 0.040(3) 0.027(3) 0.039(3) 0.002(2) 0.009(2) -0.009(2)
C29 0.014(2) 0.010(2) 0.042(3) -0.0003(19) 0.003(2) 0.0018(18)
C30 0.061(4) 0.016(3) 0.057(4) 0.012(2) 0.021(3) 0.003(3)
C31 0.017(2) 0.010(2) 0.028(2) 0.0044(17) 0.0047(18) 0.0046(18)
C32 0.021(3) 0.033(3) 0.030(3) -0.004(2) 0.006(2) 0.011(2)
C33 0.013(2) 0.014(2) 0.027(2) 0.0057(17) 0.0021(18) 0.0017(18)
C34 0.018(3) 0.025(2) 0.034(3) 0.005(2) 0.008(2) 0.009(2)
C35 0.018(2) 0.014(2) 0.027(2) 0.0030(18) 0.0034(19) 0.0022(18)
C36 0.026(3) 0.020(2) 0.045(3) 0.011(2) 0.020(2) 0.005(2)
C37 0.015(2) 0.015(2) 0.021(2) 0.0060(17) 0.0057(17) 0.0056(18)
C38 0.015(2) 0.013(2) 0.020(2) 0.0034(17) 0.0016(17) 0.0043(18)
C39 0.022(2) 0.012(2) 0.024(2) 0.0060(17) 0.0075(19) 0.0054(19)
C40 0.032(3) 0.010(2) 0.033(3) 0.0052(18) 0.007(2) 0.004(2)
C41 0.043(3) 0.052(3) 0.036(3) 0.021(3) 0.019(3) 0.014(3)
C42 0.020(2) 0.012(2) 0.028(2) 0.0010(18) 0.0062(19) -0.0002(19)
C43 0.045(3) 0.012(2) 0.026(2) 0.0015(18) 0.011(2) 0.004(2)
C44 0.047(4) 0.026(3) 0.062(4) -0.013(3) 0.011(3) -0.015(3)
C45 0.023(3) 0.013(2) 0.026(2) 0.0001(18) 0.0055(19) 0.0005(19)
C46 0.033(3) 0.020(2) 0.022(2) 0.0019(18) 0.009(2) 0.004(2)
C51 0.037(3) 0.022(2) 0.023(2) 0.0061(19) 0.012(2) 0.009(2)
C52 0.040(3) 0.023(3) 0.025(2) 0.0029(19) 0.013(2) 0.008(2)
C53 0.035(3) 0.025(3) 0.024(2) 0.0038(19) 0.010(2) 0.005(2)
C54 0.036(3) 0.025(3) 0.023(2) 0.0028(19) 0.011(2) 0.007(2)
C55 0.039(3) 0.026(3) 0.024(2) 0.003(2) 0.010(2) 0.002(2)
C56 0.040(3) 0.022(3) 0.022(2) -0.0004(19) 0.012(2) -0.005(2)
C57 0.044(3) 0.024(3) 0.023(2) 0.001(2) 0.012(2) -0.005(2)
C58 0.061(4) 0.019(2) 0.019(2) -0.0039(19) 0.016(2) -0.009(2)
C59 0.055(4) 0.018(2) 0.017(2) -0.0004(18) 0.014(2) 0.003(2)
C60 0.072(4) 0.019(2) 0.016(2) 0.0025(19) 0.013(2) 0.008(3)
C61 0.063(4) 0.021(2) 0.010(2) 0.0018(18) 0.004(2) 0.009(3)
C62 0.073(4) 0.022(3) 0.017(2) 0.000(2) 0.000(3) 0.011(3)
C63 0.061(4) 0.026(3) 0.022(3) 0.001(2) -0.005(3) 0.008(3)
C64 0.054(4) 0.026(3) 0.019(2) 0.005(2) -0.003(2) 0.012(3)
C65 0.039(3) 0.031(3) 0.032(3) 0.008(2) -0.006(2) 0.004(2)
C66 0.037(3) 0.030(3) 0.026(3) 0.005(2) -0.004(2) 0.004(2)
C67 0.033(3) 0.039(3) 0.035(3) 0.008(2) -0.002(2) 0.007(3)
C68 0.032(3) 0.028(3) 0.024(2) 0.001(2) 0.000(2) 0.002(2)
C69 0.032(3) 0.020(2) 0.019(2) 0.0008(18) 0.004(2) -0.003(2)
C70 0.036(3) 0.019(2) 0.020(2) 0.0027(18) 0.011(2) 0.003(2)
C71 0.042(3) 0.030(3) 0.038(3) 0.013(2) 0.019(2) 0.013(2)
C72 0.078(5) 0.025(3) 0.074(4) 0.012(3) 0.045(4) 0.017(3)
C73 0.044(3) 0.033(3) 0.027(3) 0.009(2) 0.012(2) 0.009(3)
C74 0.040(3) 0.043(3) 0.048(3) 0.006(3) 0.016(3) 0.012(3)
C75 0.043(4) 0.043(3) 0.038(3) 0.011(3) 0.020(3) -0.009(3)
C76 0.064(5) 0.075(5) 0.045(3) 0.014(3) 0.025(3) 0.027(4)
C77 0.073(4) 0.026(3) 0.026(3) 0.003(2) 0.020(3) -0.006(3)
C78 0.088(5) 0.038(3) 0.022(3) 0.008(2) 0.016(3) 0.000(3)
C79 0.081(5) 0.023(3) 0.030(3) 0.009(2) 0.002(3) 0.012(3)
C80 0.108(6) 0.044(4) 0.025(3) 0.016(3) -0.004(3) 0.002(4)
C81 0.065(4) 0.036(3) 0.052(4) 0.016(3) -0.015(3) 0.009(3)
C82 0.082(6) 0.064(5) 0.063(5) 0.011(4) -0.034(4) -0.013(4)
C83 0.032(4) 0.069(4) 0.078(5) 0.040(4) 0.006(3) 0.017(3)
C84 0.059(5) 0.052(4) 0.124(7) 0.035(4) 0.047(4) 0.029(4)
C85 0.032(3) 0.033(3) 0.030(3) 0.004(2) 0.006(2) 0.002(2)
C86 0.049(4) 0.041(3) 0.047(3) 0.006(3) -0.001(3) -0.005(3)
C87 0.056(4) 0.035(3) 0.031(3) -0.005(2) 0.018(3) 0.001(3)
C88 0.059(4) 0.040(3) 0.039(3) 0.010(3) 0.018(3) 0.014(3)
C89 0.055(4) 0.045(3) 0.044(3) 0.010(3) 0.017(3) 0.009(3)
C90 0.064(4) 0.046(4) 0.039(3) 0.002(3) 0.011(3) 0.013(3)
C3S 0.060(5) 0.037(4) 0.052(5) 0.009(4) -0.031(4) 0.026(4)
Cl1 0.092(3) 0.057(2) 0.0500(18) 0.0121(15) 0.0327(18) -0.0039(19)
Cl2 0.083(2) 0.0457(17) 0.0435(16) -0.0016(13) 0.0101(16) 0.0257(17)
Cl3 0.066(3) 0.097(3) 0.063(2) -0.022(2) -0.0207(19) 0.019(2)
loop_
_atom_type_symbol
_atom_type_description
_atom_type_scat_dispersion_real
_atom_type_scat_dispersion_imag
_atom_type_scat_source
C C 0.0033 0.0016 'International Tables Vol C Tables 4.2.6.8 and 6.1.1.4'
H H 0.0000 0.0000 'International Tables Vol C Tables 4.2.6.8 and 6.1.1.4'
N N 0.0061 0.0033 'International Tables Vol C Tables 4.2.6.8 and 6.1.1.4'
Mg Mg 0.0486 0.0363 'International Tables Vol C Tables 4.2.6.8 and 6.1.1.4'
Cl Cl 0.1484 0.1585 'International Tables Vol C Tables 4.2.6.8 and 6.1.1.4'
loop_
_geom_angle_atom_site_label_1
_geom_angle_atom_site_label_2
_geom_angle_atom_site_label_3
_geom_angle
_geom_angle_site_symmetry_1
_geom_angle_site_symmetry_3
N4 Mg1 N1 86.26(14) . .
N4 Mg1 N3 92.11(15) . .
N1 Mg1 N3 163.72(16) . .
N4 Mg1 N2 164.58(15) . .
N1 Mg1 N2 91.94(15) . .
N3 Mg1 N2 85.33(14) . .
N4 Mg1 N10 99.10(16) . .
N1 Mg1 N10 104.00(15) . .
N3 Mg1 N10 92.27(15) . .
N2 Mg1 N10 96.19(16) . .
N8 Mg2 N7 92.27(18) . .
N8 Mg2 N6 161.13(18) . .
N7 Mg2 N6 86.03(18) . .
N8 Mg2 N5 85.90(17) . .
N7 Mg2 N5 163.88(18) . .
N6 Mg2 N5 90.55(17) . .
N8 Mg2 N11 100.79(17) . .
N7 Mg2 N11 93.38(17) . .
N6 Mg2 N11 98.07(17) . .
N5 Mg2 N11 102.70(17) . .
C4 N1 C1 107.4(3) . .
C4 N1 Mg1 122.3(3) . .
C1 N1 Mg1 130.1(3) . .
C2S C1S H1C 109.5 . .
C2S C1S H1B 109.5 . .
H1C C1S H1B 109.5 . .
C2S C1S H1A 109.5 . .
H1C C1S H1A 109.5 . .
H1B C1S H1A 109.5 . .
N1S C2S C1S 178.5(7) . .
C9 N2 C6 106.6(3) . .
C9 N2 Mg1 129.0(3) . .
C6 N2 Mg1 123.8(3) . .
C11 N3 C14 106.2(3) . .
C11 N3 Mg1 129.6(3) . .
C14 N3 Mg1 123.0(3) . .
C16 N4 C19 107.0(3) . .
C16 N4 Mg1 122.1(3) . .
C19 N4 Mg1 129.8(3) . .
C54 N5 C51 108.0(4) . .
C54 N5 Mg2 122.3(3) . .
C51 N5 Mg2 129.2(3) . .
C56 N6 C59 106.2(4) . .
C56 N6 Mg2 125.2(3) . .
C59 N6 Mg2 128.4(4) . .
C64 N7 C61 107.1(4) . .
C64 N7 Mg2 123.0(3) . .
C61 N7 Mg2 128.9(4) . .
C66 N8 C69 106.9(4) . .
C66 N8 Mg2 121.2(3) . .
C69 N8 Mg2 130.8(3) . .
C38 N9 C45 110.1(3) . .
C38 N9 H9A 124.9 . .
C45 N9 H9A 124.9 . .
C88 N10 C87 115.4(5) . .
C88 N10 Mg1 112.2(4) . .
C87 N10 Mg1 132.4(4) . .
C90 N11 C87 114.4(5) . .
C90 N11 Mg2 112.8(3) . .
C87 N11 Mg2 132.4(4) . .
C87 N12 H12A 120.0 . .
C87 N12 H12B 120.0 . .
H12A N12 H12B 120.0 . .
N1 C1 C20 123.5(3) . .
N1 C1 C2 108.6(3) . .
C20 C1 C2 127.9(4) . .
C3 C2 C1 106.8(3) . .
C3 C2 C21 121.2(4) . .
C1 C2 C21 132.1(4) . .
C2 C3 C4 107.6(3) . .
C2 C3 C23 127.9(4) . .
C4 C3 C23 124.5(4) . .
N1 C4 C5 126.9(4) . .
N1 C4 C3 109.5(3) . .
C5 C4 C3 123.6(4) . .
C6 C5 C4 128.9(4) . .
C6 C5 H5A 115.6 . .
C4 C5 H5A 115.6 . .
N2 C6 C5 124.7(4) . .
N2 C6 C7 110.2(3) . .
C5 C6 C7 125.1(4) . .
C8 C7 C6 106.2(4) . .
C8 C7 C25 128.3(4) . .
C6 C7 C25 125.5(4) . .
C7 C8 C9 106.6(4) . .
C7 C8 C27 127.9(4) . .
C9 C8 C27 125.4(4) . .
N2 C9 C10 124.1(4) . .
N2 C9 C8 110.4(3) . .
C10 C9 C8 125.5(4) . .
C9 C10 C11 126.6(4) . .
C9 C10 H10A 116.7 . .
C11 C10 H10A 116.7 . .
N3 C11 C10 123.7(4) . .
N3 C11 C12 110.4(4) . .
C10 C11 C12 125.9(4) . .
C13 C12 C11 106.3(4) . .
C13 C12 C29 128.0(4) . .
C11 C12 C29 125.7(4) . .
C12 C13 C14 106.9(4) . .
C12 C13 C31 127.6(4) . .
C14 C13 C31 125.5(4) . .
N3 C14 C15 124.6(4) . .
N3 C14 C13 110.2(4) . .
C15 C14 C13 125.2(4) . .
C14 C15 C16 129.4(4) . .
C14 C15 H15A 115.3 . .
C16 C15 H15A 115.3 . .
N4 C16 C15 125.6(4) . .
N4 C16 C17 110.8(3) . .
C15 C16 C17 123.7(4) . .
C18 C17 C16 107.3(4) . .
C18 C17 C33 127.9(4) . .
C16 C17 C33 124.7(3) . .
C17 C18 C19 106.3(4) . .
C17 C18 C35 122.3(4) . .
C19 C18 C35 131.3(4) . .
N4 C19 C20 123.3(4) . .
N4 C19 C18 108.6(3) . .
C20 C19 C18 128.2(4) . .
C19 C20 C1 125.7(4) . .
C19 C20 C37 116.9(4) . .
C1 C20 C37 117.2(3) . .
C2 C21 C22 113.7(3) . .
C2 C21 H21A 108.8 . .
C22 C21 H21A 108.8 . .
C2 C21 H21B 108.8 . .
C22 C21 H21B 108.8 . .
H21A C21 H21B 107.7 . .
C21 C22 H22A 109.5 . .
C21 C22 H22B 109.5 . .
H22A C22 H22B 109.5 . .
C21 C22 H22C 109.5 . .
H22A C22 H22C 109.5 . .
H22B C22 H22C 109.5 . .
C3 C23 C24 112.7(4) . .
C3 C23 H23A 109.1 . .
C24 C23 H23A 109.1 . .
C3 C23 H23B 109.1 . .
C24 C23 H23B 109.1 . .
H23A C23 H23B 107.8 . .
C23 C24 H24A 109.5 . .
C23 C24 H24B 109.5 . .
H24A C24 H24B 109.5 . .
C23 C24 H24C 109.5 . .
H24A C24 H24C 109.5 . .
H24B C24 H24C 109.5 . .
C7 C25 C26 112.9(4) . .
C7 C25 H25A 109.0 . .
C26 C25 H25A 109.0 . .
C7 C25 H25B 109.0 . .
C26 C25 H25B 109.0 . .
H25A C25 H25B 107.8 . .
C25 C26 H26A 109.5 . .
C25 C26 H26B 109.5 . .
H26A C26 H26B 109.5 . .
C25 C26 H26C 109.5 . .
H26A C26 H26C 109.5 . .
H26B C26 H26C 109.5 . .
C8 C27 C28 113.4(4) . .
C8 C27 H27A 108.9 . .
C28 C27 H27A 108.9 . .
C8 C27 H27B 108.9 . .
C28 C27 H27B 108.9 . .
H27A C27 H27B 107.7 . .
C27 C28 H28A 109.5 . .
C27 C28 H28B 109.5 . .
H28A C28 H28B 109.5 . .
C27 C28 H28C 109.5 . .
H28A C28 H28C 109.5 . .
H28B C28 H28C 109.5 . .
C12 C29 C30 113.0(4) . .
C12 C29 H29A 109.0 . .
C30 C29 H29A 109.0 . .
C12 C29 H29B 109.0 . .
C30 C29 H29B 109.0 . .
H29A C29 H29B 107.8 . .
C29 C30 H30A 109.5 . .
C29 C30 H30B 109.5 . .
H30A C30 H30B 109.5 . .
C29 C30 H30C 109.5 . .
H30A C30 H30C 109.5 . .
H30B C30 H30C 109.5 . .
C13 C31 C32 113.4(3) . .
C13 C31 H31A 108.9 . .
C32 C31 H31A 108.9 . .
C13 C31 H31B 108.9 . .
C32 C31 H31B 108.9 . .
H31A C31 H31B 107.7 . .
C31 C32 H32A 109.5 . .
C31 C32 H32B 109.5 . .
H32A C32 H32B 109.5 . .
C31 C32 H32C 109.5 . .
H32A C32 H32C 109.5 . .
H32B C32 H32C 109.5 . .
C17 C33 C34 114.2(3) . .
C17 C33 H33A 108.7 . .
C34 C33 H33A 108.7 . .
C17 C33 H33B 108.7 . .
C34 C33 H33B 108.7 . .
H33A C33 H33B 107.6 . .
C33 C34 H34A 109.5 . .
C33 C34 H34B 109.5 . .
H34A C34 H34B 109.5 . .
C33 C34 H34C 109.5 . .
H34A C34 H34C 109.5 . .
H34B C34 H34C 109.5 . .
C18 C35 C36 113.4(4) . .
C18 C35 H35A 108.9 . .
C36 C35 H35A 108.9 . .
C18 C35 H35B 108.9 . .
C36 C35 H35B 108.9 . .
H35A C35 H35B 107.7 . .
C35 C36 H36A 109.5 . .
C35 C36 H36B 109.5 . .
H36A C36 H36B 109.5 . .
C35 C36 H36C 109.5 . .
H36A C36 H36C 109.5 . .
H36B C36 H36C 109.5 . .
C38 C37 C20 117.2(3) . .
C38 C37 H37A 108.0 . .
C20 C37 H37A 108.0 . .
C38 C37 H37B 108.0 . .
C20 C37 H37B 108.0 . .
H37A C37 H37B 107.2 . .
N9 C38 C39 107.4(3) . .
N9 C38 C37 123.3(3) . .
C39 C38 C37 129.3(4) . .
C38 C39 C42 107.6(4) . .
C38 C39 C40 124.5(4) . .
C42 C39 C40 127.8(4) . .
C39 C40 C41 114.8(4) . .
C39 C40 H40A 108.6 . .
C41 C40 H40A 108.6 . .
C39 C40 H40B 108.6 . .
C41 C40 H40B 108.6 . .
H40A C40 H40B 107.5 . .
C40 C41 H41A 109.5 . .
C40 C41 H41B 109.5 . .
H41A C41 H41B 109.5 . .
C40 C41 H41C 109.5 . .
H41A C41 H41C 109.5 . .
H41B C41 H41C 109.5 . .
C45 C42 C39 107.6(4) . .
C45 C42 C43 125.5(4) . .
C39 C42 C43 126.9(4) . .
C42 C43 C44 113.7(4) . .
C42 C43 H43A 108.8 . .
C44 C43 H43A 108.8 . .
C42 C43 H43B 108.8 . .
C44 C43 H43B 108.8 . .
H43A C43 H43B 107.7 . .
C43 C44 H44A 109.5 . .
C43 C44 H44B 109.5 . .
H44A C44 H44B 109.5 . .
C43 C44 H44C 109.5 . .
H44A C44 H44C 109.5 . .
H44B C44 H44C 109.5 . .
C42 C45 N9 107.2(4) . .
C42 C45 C46 129.9(4) . .
N9 C45 C46 122.8(4) . .
C45 C46 C70 116.9(4) . .
C45 C46 H46A 108.1 . .
C70 C46 H46A 108.1 . .
C45 C46 H46B 108.1 . .
C70 C46 H46B 108.1 . .
H46A C46 H46B 107.3 . .
N5 C51 C70 123.9(4) . .
N5 C51 C52 107.9(4) . .
C70 C51 C52 128.2(4) . .
C53 C52 C51 107.0(4) . .
C53 C52 C71 121.9(5) . .
C51 C52 C71 131.0(4) . .
C52 C53 C54 106.7(4) . .
C52 C53 C73 128.1(4) . .
C54 C53 C73 125.2(4) . .
N5 C54 C55 126.8(4) . .
N5 C54 C53 110.2(4) . .
C55 C54 C53 122.9(5) . .
C56 C55 C54 128.6(5) . .
C56 C55 H55A 115.7 . .
C54 C55 H55A 115.7 . .
N6 C56 C55 124.1(4) . .
N6 C56 C57 111.1(4) . .
C55 C56 C57 124.8(5) . .
C58 C57 C56 105.5(5) . .
C58 C57 C75 128.1(4) . .
C56 C57 C75 126.5(5) . .
C57 C58 C59 107.0(4) . .
C57 C58 C77 129.0(5) . .
C59 C58 C77 123.9(5) . .
N6 C59 C60 124.5(5) . .
N6 C59 C58 110.2(4) . .
C60 C59 C58 125.3(4) . .
C61 C60 C59 126.5(4) . .
C61 C60 H60A 116.8 . .
C59 C60 H60A 116.8 . .
N7 C61 C60 123.9(5) . .
N7 C61 C62 109.4(5) . .
C60 C61 C62 126.6(5) . .
C63 C62 C61 107.7(4) . .
C63 C62 C79 128.2(5) . .
C61 C62 C79 124.1(6) . .
C62 C63 C81 128.4(5) . .
C62 C63 C64 105.6(5) . .
C81 C63 C64 125.6(5) . .
N7 C64 C65 125.6(4) . .
N7 C64 C63 110.2(5) . .
C65 C64 C63 124.2(5) . .
C64 C65 C66 128.0(5) . .
C64 C65 H65A 116.0 . .
C66 C65 H65A 116.0 . .
N8 C66 C65 126.7(5) . .
N8 C66 C67 110.1(4) . .
C65 C66 C67 123.2(5) . .
C68 C67 C66 107.3(5) . .
C68 C67 C83 126.9(5) . .
C66 C67 C83 125.7(5) . .
C67 C68 C69 106.4(4) . .
C67 C68 C85 120.9(5) . .
C69 C68 C85 132.6(4) . .
N8 C69 C70 122.8(4) . .
N8 C69 C68 109.2(4) . .
C70 C69 C68 127.9(4) . .
C51 C70 C69 125.8(4) . .
C51 C70 C46 117.6(4) . .
C69 C70 C46 116.5(4) . .
C52 C71 C72 113.1(4) . .
C52 C71 H71A 109.0 . .
C72 C71 H71A 109.0 . .
C52 C71 H71B 109.0 . .
C72 C71 H71B 109.0 . .
H71A C71 H71B 107.8 . .
C71 C72 H72A 109.5 . .
C71 C72 H72B 109.5 . .
H72A C72 H72B 109.5 . .
C71 C72 H72C 109.5 . .
H72A C72 H72C 109.5 . .
H72B C72 H72C 109.5 . .
C53 C73 C74 111.8(4) . .
C53 C73 H73A 109.2 . .
C74 C73 H73A 109.2 . .
C53 C73 H73B 109.2 . .
C74 C73 H73B 109.2 . .
H73A C73 H73B 107.9 . .
C73 C74 H74A 109.5 . .
C73 C74 H74B 109.5 . .
H74A C74 H74B 109.5 . .
C73 C74 H74C 109.5 . .
H74A C74 H74C 109.5 . .
H74B C74 H74C 109.5 . .
C57 C75 C76 112.6(5) . .
C57 C75 H75A 109.1 . .
C76 C75 H75A 109.1 . .
C57 C75 H75B 109.1 . .
C76 C75 H75B 109.1 . .
H75A C75 H75B 107.8 . .
C75 C76 H76A 109.5 . .
C75 C76 H76B 109.5 . .
H76A C76 H76B 109.5 . .
C75 C76 H76C 109.5 . .
H76A C76 H76C 109.5 . .
H76B C76 H76C 109.5 . .
C58 C77 C78 110.5(4) . .
C58 C77 H77A 109.5 . .
C78 C77 H77A 109.5 . .
C58 C77 H77B 109.5 . .
C78 C77 H77B 109.5 . .
H77A C77 H77B 108.1 . .
C77 C78 H78A 109.5 . .
C77 C78 H78B 109.5 . .
H78A C78 H78B 109.5 . .
C77 C78 H78C 109.5 . .
H78A C78 H78C 109.5 . .
H78B C78 H78C 109.5 . .
C62 C79 C80 112.5(4) . .
C62 C79 H79A 109.1 . .
C80 C79 H79A 109.1 . .
C62 C79 H79B 109.1 . .
C80 C79 H79B 109.1 . .
H79A C79 H79B 107.8 . .
C79 C80 H80A 109.5 . .
C79 C80 H80B 109.5 . .
H80A C80 H80B 109.5 . .
C79 C80 H80C 109.5 . .
H80A C80 H80C 109.5 . .
H80B C80 H80C 109.5 . .
C63 C81 C82 110.4(6) . .
C63 C81 H81A 109.6 . .
C82 C81 H81A 109.6 . .
C63 C81 H81B 109.6 . .
C82 C81 H81B 109.6 . .
H81A C81 H81B 108.1 . .
C81 C82 H82A 109.5 . .
C81 C82 H82B 109.5 . .
H82A C82 H82B 109.5 . .
C81 C82 H82C 109.5 . .
H82A C82 H82C 109.5 . .
H82B C82 H82C 109.5 . .
C67 C83 C84 111.8(5) . .
C67 C83 H83A 109.3 . .
C84 C83 H83A 109.3 . .
C67 C83 H83B 109.3 . .
C84 C83 H83B 109.3 . .
H83A C83 H83B 107.9 . .
C83 C84 H84A 109.5 . .
C83 C84 H84B 109.5 . .
H84A C84 H84B 109.5 . .
C83 C84 H84C 109.5 . .
H84A C84 H84C 109.5 . .
H84B C84 H84C 109.5 . .
C68 C85 C86 111.9(4) . .
C68 C85 H85A 109.2 . .
C86 C85 H85A 109.2 . .
C68 C85 H85B 109.2 . .
C86 C85 H85B 109.2 . .
H85A C85 H85B 107.9 . .
C85 C86 H86A 109.5 . .
C85 C86 H86B 109.5 . .
H86A C86 H86B 109.5 . .
C85 C86 H86C 109.5 . .
H86A C86 H86C 109.5 . .
H86B C86 H86C 109.5 . .
N11 C87 N12 116.8(5) . .
N11 C87 N10 126.1(5) . .
N12 C87 N10 116.6(5) . .
N10 C88 C89 123.4(6) . .
N10 C88 H88A 118.3 . .
C89 C88 H88A 118.3 . .
C90 C89 C88 115.2(6) . .
C90 C89 H89A 122.4 . .
C88 C89 H89A 122.4 . .
N11 C90 C89 124.4(5) . .
N11 C90 H90A 117.8 . .
C89 C90 H90A 117.8 . .
Cl1 C3S Cl3 115.8(7) . .
Cl1 C3S Cl2 116.8(5) . .
Cl3 C3S Cl2 106.2(8) . .
Cl1 C3S H3SA 105.7 . .
Cl3 C3S H3SA 105.7 . .
Cl2 C3S H3SA 105.7 . .
loop_
_geom_bond_atom_site_label_1
_geom_bond_atom_site_label_2
_geom_bond_distance
_geom_bond_site_symmetry_2
Mg1 N4 2.070(4) .
Mg1 N1 2.073(3) .
Mg1 N3 2.090(4) .
Mg1 N2 2.093(4) .
Mg1 N10 2.233(4) .
Mg2 N8 2.060(5) .
Mg2 N7 2.066(4) .
Mg2 N6 2.093(5) .
Mg2 N5 2.097(4) .
Mg2 N11 2.212(4) .
N1 C4 1.369(5) .
N1 C1 1.383(5) .
C1S C2S 1.428(9) .
C1S H1C 0.9800 .
C1S H1B 0.9800 .
C1S H1A 0.9800 .
C2S N1S 1.130(8) .
N2 C9 1.365(5) .
N2 C6 1.366(5) .
N3 C11 1.359(5) .
N3 C14 1.366(5) .
N4 C16 1.365(5) .
N4 C19 1.388(5) .
N5 C54 1.353(6) .
N5 C51 1.385(6) .
N6 C56 1.361(7) .
N6 C59 1.372(6) .
N7 C64 1.353(7) .
N7 C61 1.379(6) .
N8 C66 1.359(6) .
N8 C69 1.389(6) .
N9 C38 1.377(5) .
N9 C45 1.382(5) .
N9 H9A 0.8800 .
N10 C88 1.311(7) .
N10 C87 1.349(7) .
N11 C90 1.324(7) .
N11 C87 1.340(6) .
N12 C87 1.348(7) .
N12 H12A 0.8800 .
N12 H12B 0.8800 .
C1 C20 1.420(6) .
C1 C2 1.473(5) .
C2 C3 1.355(6) .
C2 C21 1.511(5) .
C3 C4 1.453(5) .
C3 C23 1.502(6) .
C4 C5 1.397(6) .
C5 C6 1.386(6) .
C5 H5A 0.9500 .
C6 C7 1.459(6) .
C7 C8 1.367(6) .
C7 C25 1.495(6) .
C8 C9 1.451(6) .
C8 C27 1.497(6) .
C9 C10 1.390(6) .
C10 C11 1.403(6) .
C10 H10A 0.9500 .
C11 C12 1.456(6) .
C12 C13 1.350(6) .
C12 C29 1.511(6) .
C13 C14 1.448(5) .
C13 C31 1.506(6) .
C14 C15 1.388(6) .
C15 C16 1.409(5) .
C15 H15A 0.9500 .
C16 C17 1.430(6) .
C17 C18 1.372(6) .
C17 C33 1.495(6) .
C18 C19 1.472(6) .
C18 C35 1.502(6) .
C19 C20 1.418(5) .
C20 C37 1.517(5) .
C21 C22 1.519(6) .
C21 H21A 0.9900 .
C21 H21B 0.9900 .
C22 H22A 0.9800 .
C22 H22B 0.9800 .
C22 H22C 0.9800 .
C23 C24 1.529(6) .
C23 H23A 0.9900 .
C23 H23B 0.9900 .
C24 H24A 0.9800 .
C24 H24B 0.9800 .
C24 H24C 0.9800 .
C25 C26 1.533(6) .
C25 H25A 0.9900 .
C25 H25B 0.9900 .
C26 H26A 0.9800 .
C26 H26B 0.9800 .
C26 H26C 0.9800 .
C27 C28 1.508(6) .
C27 H27A 0.9900 .
C27 H27B 0.9900 .
C28 H28A 0.9800 .
C28 H28B 0.9800 .
C28 H28C 0.9800 .
C29 C30 1.518(7) .
C29 H29A 0.9900 .
C29 H29B 0.9900 .
C30 H30A 0.9800 .
C30 H30B 0.9800 .
C30 H30C 0.9800 .
C31 C32 1.524(6) .
C31 H31A 0.9900 .
C31 H31B 0.9900 .
C32 H32A 0.9800 .
C32 H32B 0.9800 .
C32 H32C 0.9800 .
C33 C34 1.531(6) .
C33 H33A 0.9900 .
C33 H33B 0.9900 .
C34 H34A 0.9800 .
C34 H34B 0.9800 .
C34 H34C 0.9800 .
C35 C36 1.539(6) .
C35 H35A 0.9900 .
C35 H35B 0.9900 .
C36 H36A 0.9800 .
C36 H36B 0.9800 .
C36 H36C 0.9800 .
C37 C38 1.496(6) .
C37 H37A 0.9900 .
C37 H37B 0.9900 .
C38 C39 1.380(6) .
C39 C42 1.426(6) .
C39 C40 1.503(6) .
C40 C41 1.517(7) .
C40 H40A 0.9900 .
C40 H40B 0.9900 .
C41 H41A 0.9800 .
C41 H41B 0.9800 .
C41 H41C 0.9800 .
C42 C45 1.380(6) .
C42 C43 1.504(6) .
C43 C44 1.514(8) .
C43 H43A 0.9900 .
C43 H43B 0.9900 .
C44 H44A 0.9800 .
C44 H44B 0.9800 .
C44 H44C 0.9800 .
C45 C46 1.486(6) .
C46 C70 1.519(6) .
C46 H46A 0.9900 .
C46 H46B 0.9900 .
C51 C70 1.408(7) .
C51 C52 1.469(7) .
C52 C53 1.370(7) .
C52 C71 1.516(6) .
C53 C54 1.446(6) .
C53 C73 1.503(7) .
C54 C55 1.403(7) .
C55 C56 1.388(7) .
C55 H55A 0.9500 .
C56 C57 1.460(7) .
C57 C58 1.371(7) .
C57 C75 1.496(8) .
C58 C59 1.452(8) .
C58 C77 1.506(6) .
C59 C60 1.392(7) .
C60 C61 1.382(8) .
C60 H60A 0.9500 .
C61 C62 1.447(7) .
C62 C63 1.362(8) .
C62 C79 1.512(7) .
C63 C81 1.461(8) .
C63 C64 1.473(6) .
C64 C65 1.376(7) .
C65 C66 1.403(7) .
C65 H65A 0.9500 .
C66 C67 1.449(7) .
C67 C68 1.364(7) .
C67 C83 1.492(8) .
C68 C69 1.460(7) .
C68 C85 1.519(7) .
C69 C70 1.423(7) .
C71 C72 1.533(7) .
C71 H71A 0.9900 .
C71 H71B 0.9900 .
C72 H72A 0.9800 .
C72 H72B 0.9800 .
C72 H72C 0.9800 .
C73 C74 1.530(7) .
C73 H73A 0.9900 .
C73 H73B 0.9900 .
C74 H74A 0.9800 .
C74 H74B 0.9800 .
C74 H74C 0.9800 .
C75 C76 1.514(8) .
C75 H75A 0.9900 .
C75 H75B 0.9900 .
C76 H76A 0.9800 .
C76 H76B 0.9800 .
C76 H76C 0.9800 .
C77 C78 1.547(7) .
C77 H77A 0.9900 .
C77 H77B 0.9900 .
C78 H78A 0.9800 .
C78 H78B 0.9800 .
C78 H78C 0.9800 .
C79 C80 1.529(7) .
C79 H79A 0.9900 .
C79 H79B 0.9900 .
C80 H80A 0.9800 .
C80 H80B 0.9800 .
C80 H80C 0.9800 .
C81 C82 1.533(9) .
C81 H81A 0.9900 .
C81 H81B 0.9900 .
C82 H82A 0.9800 .
C82 H82B 0.9800 .
C82 H82C 0.9800 .
C83 C84 1.542(10) .
C83 H83A 0.9900 .
C83 H83B 0.9900 .
C84 H84A 0.9800 .
C84 H84B 0.9800 .
C84 H84C 0.9800 .
C85 C86 1.524(7) .
C85 H85A 0.9900 .
C85 H85B 0.9900 .
C86 H86A 0.9800 .
C86 H86B 0.9800 .
C86 H86C 0.9800 .
C88 C89 1.385(7) .
C88 H88A 0.9500 .
C89 C90 1.370(8) .
C89 H89A 0.9500 .
C90 H90A 0.9500 .
C3S Cl1 1.655(13) .
C3S Cl3 1.721(12) .
C3S Cl2 1.802(13) .
C3S H3SA 1.0000 .
