#------------------------------------------------------------------------------
#$Date: 2016-02-13 21:28:24 +0200 (Sat, 13 Feb 2016) $
#$Revision: 176429 $
#$URL: svn://www.crystallography.net/cod/cif/7/11/80/7118082.cif $
#------------------------------------------------------------------------------
#
# This file is available in the Crystallography Open Database (COD),
# http://www.crystallography.net/
#
# All data on this site have been placed in the public domain by the
# contributors.
#
data_7118082
loop_
_publ_author_name
'Dipankar Sahoo'
'Sankar Prasad Rath'
_publ_section_title
;
 Controlled generation of highly saddled (porphyrinato)iron(III) iodide,
 tri-iodide and one-electron oxidized complexes
;
_journal_name_full               Chem.Commun.
_journal_page_first              16790
_journal_paper_doi               10.1039/C5cc07111A
_journal_volume                  51
_journal_year                    2015
_chemical_formula_sum            'C68.25 H76.5 Cl0.5 Fe I N4'
_chemical_formula_weight         1153.30
_chemical_name_systematic
;
 ?
;
_space_group_crystal_system      orthorhombic
_space_group_IT_number           61
_space_group_name_Hall           '-P 2ac 2ab'
_space_group_name_H-M_alt        'P b c a'
_symmetry_space_group_name_Hall  '-P 2ac 2ab'
_symmetry_space_group_name_H-M   'P b c a'
_atom_sites_solution_hydrogens   geom
_audit_creation_method           SHELXL-2014
_audit_update_record
;
2015-08-21 deposited with the CCDC.
2015-09-21 downloaded from the CCDC.
;
_cell_angle_alpha                90.000(5)
_cell_angle_beta                 90.000(5)
_cell_angle_gamma                90.000(5)
_cell_formula_units_Z            8
_cell_length_a                   19.736(5)
_cell_length_b                   24.456(5)
_cell_length_c                   31.304(5)
_cell_measurement_reflns_used    999
_cell_measurement_temperature    100(2)
_cell_measurement_theta_max      27.0
_cell_measurement_theta_min      2.5
_cell_volume                     15109(5)
_computing_cell_refinement       'Bruker SAINT'
_computing_data_collection       'Bruker APEX'
_computing_data_reduction        'Bruker SAINT'
_computing_molecular_graphics    'SHELXL 5.1, XP (Sheldrick, 1994)'
_computing_publication_material  SHELXS-97
_computing_structure_refinement  'SHELXL-2014 (Sheldrick, 2014)'
_computing_structure_solution    'SHELXS-97 (Sheldrick, 2008)'
_diffrn_ambient_temperature      100(2)
_diffrn_measured_fraction_theta_full 0.998
_diffrn_measured_fraction_theta_max 0.998
_diffrn_measurement_device_type  'Bruker SMART APEX'
_diffrn_measurement_method       \W
_diffrn_radiation_type           MoK\a
_diffrn_radiation_wavelength     0.71073
_diffrn_reflns_av_R_equivalents  0.0779
_diffrn_reflns_av_unetI/netI     0.0550
_diffrn_reflns_Laue_measured_fraction_full 0.998
_diffrn_reflns_Laue_measured_fraction_max 0.998
_diffrn_reflns_limit_h_max       22
_diffrn_reflns_limit_h_min       -23
_diffrn_reflns_limit_k_max       29
_diffrn_reflns_limit_k_min       -28
_diffrn_reflns_limit_l_max       35
_diffrn_reflns_limit_l_min       -37
_diffrn_reflns_number            87734
_diffrn_reflns_point_group_measured_fraction_full 0.998
_diffrn_reflns_point_group_measured_fraction_max 0.998
_diffrn_reflns_theta_full        25.000
_diffrn_reflns_theta_max         25.000
_diffrn_reflns_theta_min         2.064
_diffrn_source                   'fine-focus sealed tube'
_exptl_absorpt_coefficient_mu    0.660
_exptl_absorpt_correction_T_max  0.894
_exptl_absorpt_correction_T_min  0.850
_exptl_absorpt_correction_type   multi-scan
_exptl_absorpt_process_details   'SADABS 2.05 (Sheldrick, 2002)'
_exptl_crystal_colour            'DARK RED'
_exptl_crystal_density_diffrn    1.014
_exptl_crystal_description       BLOCK
_exptl_crystal_F_000             4812
_exptl_crystal_size_max          0.260
_exptl_crystal_size_mid          0.200
_exptl_crystal_size_min          0.160
_refine_diff_density_max         1.387
_refine_diff_density_min         -2.177
_refine_diff_density_rms         0.141
_refine_ls_extinction_coef       .
_refine_ls_extinction_method     none
_refine_ls_goodness_of_fit_ref   1.034
_refine_ls_hydrogen_treatment    constr
_refine_ls_matrix_type           full
_refine_ls_number_parameters     684
_refine_ls_number_reflns         13271
_refine_ls_number_restraints     54
_refine_ls_restrained_S_all      1.035
_refine_ls_R_factor_all          0.1214
_refine_ls_R_factor_gt           0.0888
_refine_ls_shift/su_max          0.000
_refine_ls_shift/su_mean         0.000
_refine_ls_structure_factor_coef Fsqd
_refine_ls_weighting_details
'w=1/[\s^2^(Fo^2^)+(0.1499P)^2^+49.2763P] where P=(Fo^2^+2Fc^2^)/3'
_refine_ls_weighting_scheme      calc
_refine_ls_wR_factor_gt          0.2383
_refine_ls_wR_factor_ref         0.2583
_reflns_Friedel_coverage         0.000
_reflns_Friedel_fraction_full    .
_reflns_Friedel_fraction_max     .
_reflns_number_gt                9478
_reflns_number_total             13271
_reflns_threshold_expression     'I > 2\s(I)'
_cod_data_source_file            c5cc07111a2.cif
_cod_data_source_block           23JANA_0M
_cod_original_formula_sum        'C68.25 H76.50 Cl0.50 Fe I N4'
_cod_database_code               7118082
#BEGIN Tags that were not found in dictionaries:
_shelx_space_group_comment
;
The symmetry employed for this shelxl refinement is uniquely defined
by the following loop, which should always be used as a source of
symmetry information in preference to the above space-group names.
They are only intended as comments.
;
_shelx_estimated_absorpt_t_min   0.847
_shelx_estimated_absorpt_t_max   0.902
_shelxl_version_number           2014-3
_shelx_res_file
;
TITL 23jana_0m in P b c a
CELL  0.71073  19.7360  24.4560  31.3040   90.000   90.000   90.000
ZERR     8.00   0.0050   0.0050   0.0050    0.005    0.005    0.005
LATT   1
SYMM  1/2 - X, - Y, 1/2 + Z
SYMM  1/2 + X, 1/2 - Y, - Z
SYMM  - X, 1/2 + Y, 1/2 - Z
SFAC  C    H    N    FE   I Cl
UNIT  546  612  32   8    8 4
MERG   2
FMAP   2
PLAN   15
omit  2   2   0
omit  1   0   4
omit  1   2   4
omit  1   1   4
omit 4 0 4
omit 1 2 3
omit 4 2 4
omit 0 8 0
omit 2 1 4
omit 2 3 10
OMIT 2 1 5
OMIT 0 10 10
OMIT 3 1 2
OMIT 2 3 2
OMIT 5 3 2
OMIT 4 0 12
OMIT 6 7 4
omit -3 50.0
isor 0.02 c57 c64 c4
isor 0.015 n4
isor 0.01 c55 c16
isor 0.005 n1 c20
isor 0.003 c1
L.S. 40
acta 50
TEMP -173.0
bond $H
size 0.26 0.20 0.16 ! red block
WGHT    0.149900   49.276302
FVAR       0.37371   0.94260
FE1   4    0.016988    0.306960    0.096639    11.00000    0.01313    0.00503 =
         0.03067   -0.00339    0.01327   -0.00062
I1    5    0.103147    0.303706    0.156154    11.00000    0.05284    0.06462 =
         0.05376    0.01187   -0.03068   -0.01852
N1    3   -0.044564    0.251262    0.120878    11.00000    0.00192    0.00952 =
         0.02124   -0.00334   -0.00205    0.00206
N2    3   -0.050250    0.363833    0.114100    11.00000    0.00554    0.00639 =
         0.01885   -0.00382    0.00075    0.00191
N3    3    0.063175    0.363281    0.061987    11.00000    0.00374    0.01246 =
         0.01591   -0.00201    0.00180   -0.00158
N4    3    0.050306    0.250316    0.055590    11.00000    0.00136    0.01073 =
         0.02485   -0.00513    0.00391   -0.00185
C1    1   -0.025956    0.196802    0.124148    11.00000    0.00551    0.00704 =
         0.02121   -0.00229   -0.00486    0.00267
C2    1   -0.047486    0.174856    0.164580    11.00000    0.00562    0.01105 =
         0.03545    0.00017   -0.00642   -0.00117
C3    1   -0.083604    0.214783    0.184793    11.00000    0.00889    0.01071 =
         0.02699    0.00553   -0.00775   -0.00396
C4    1   -0.085078    0.261752    0.155989    11.00000    0.00772    0.00286 =
         0.02045   -0.00399    0.00167   -0.00361
C5    1   -0.124392    0.308475    0.158135    11.00000    0.01089    0.01325 =
         0.02046   -0.00587    0.00262   -0.00598
C6    1   -0.112525    0.355133    0.133370    11.00000    0.01112    0.00372 =
         0.01812   -0.00216    0.00360    0.00003
C7    1   -0.154556    0.402552    0.127775    11.00000    0.00964    0.00431 =
         0.02121   -0.00567    0.00347   -0.00225
C8    1   -0.116150    0.441780    0.108626    11.00000    0.01562    0.00185 =
         0.02108   -0.00138    0.00130    0.00278
C9    1   -0.049516    0.418665    0.102203    11.00000    0.01579    0.00495 =
         0.01170   -0.00016    0.00144   -0.00105
C10   1    0.010939    0.445197    0.090424    11.00000    0.01282    0.00656 =
         0.01612   -0.00025    0.00030   -0.00516
C11   1    0.067500    0.417537    0.075983    11.00000    0.01434    0.00812 =
         0.01150    0.00364   -0.00341   -0.00233
C12   1    0.136420    0.437648    0.068664    11.00000    0.00799    0.02005 =
         0.01355    0.00855   -0.00735   -0.00475
C13   1    0.170072    0.396975    0.047011    11.00000    0.01147    0.01673 =
         0.01788    0.00612   -0.00045   -0.00232
C14   1    0.123013    0.352092    0.040923    11.00000    0.00643    0.01317 =
         0.01867    0.00359    0.00182    0.00280
C15   1    0.130034    0.305331    0.015400    11.00000    0.00625    0.02188 =
         0.01961    0.00643    0.00160    0.00881
C16   1    0.088325    0.259696    0.019467    11.00000    0.00372    0.01629 =
         0.01962   -0.00552    0.00192    0.00603
C17   1    0.083010    0.212923   -0.008983    11.00000    0.01026    0.02476 =
         0.03151   -0.01443    0.00341    0.00787
C18   1    0.049260    0.173061    0.013267    11.00000    0.00611    0.01773 =
         0.04081   -0.01175    0.00691    0.00306
C19   1    0.030185    0.196004    0.053996    11.00000    0.00534    0.01537 =
         0.03162   -0.01266   -0.00034    0.00281
C20   1    0.002084    0.169320    0.089391    11.00000    0.00401    0.00801 =
         0.03186   -0.00263    0.00279   -0.00419
C21   1   -0.025376    0.122056    0.185383    11.00000    0.03253    0.02520 =
         0.05120    0.01475    0.01429    0.00927
AFIX  23
H21A  2   -0.030002    0.091674    0.164689    11.00000   -1.20000
H21B  2   -0.055114    0.114134    0.210088    11.00000   -1.20000
AFIX   0
C22   1    0.048793    0.125678    0.200597    11.00000    0.04549    0.06473 =
         0.04422    0.02086   -0.00698    0.02456
AFIX 137
H22A  2    0.060699    0.092267    0.216165    11.00000   -1.50000
H22B  2    0.054107    0.157349    0.219481    11.00000   -1.50000
H22C  2    0.078714    0.129721    0.175813    11.00000   -1.50000
AFIX   0
C23   1   -0.107614    0.213096    0.229978    11.00000    0.04299    0.01266 =
         0.02255    0.00556    0.00662   -0.00100
AFIX  23
H23A  2   -0.110215    0.174702    0.239866    11.00000   -1.20000
H23B  2   -0.153452    0.229336    0.231979    11.00000   -1.20000
AFIX   0
C24   1   -0.057402    0.245762    0.258672    11.00000    0.06619    0.04641 =
         0.03822   -0.00190   -0.01085    0.00390
AFIX 137
H24A  2   -0.073267    0.245006    0.288331    11.00000   -1.50000
H24B  2   -0.055036    0.283720    0.248751    11.00000   -1.50000
H24C  2   -0.012317    0.229108    0.256984    11.00000   -1.50000

AFIX   0

C25   1   -0.229925    0.405594    0.135125    11.00000    0.01623    0.00651 =
         0.03559   -0.00098   -0.00083    0.00151
AFIX  23
H25A  2   -0.244825    0.444130    0.132773    11.00000   -1.20000
H25B  2   -0.240236    0.392859    0.164432    11.00000   -1.20000
AFIX   0
C26   1   -0.269284    0.370967    0.103167    11.00000    0.01182    0.02285 =
         0.05199   -0.00466   -0.00195    0.00341
AFIX 137
H26A  2   -0.317807    0.373134    0.109595    11.00000   -1.50000
H26B  2   -0.254299    0.332848    0.105148    11.00000   -1.50000
H26C  2   -0.261061    0.384648    0.074202    11.00000   -1.50000
AFIX   0
C27   1   -0.142109    0.496190    0.092010    11.00000    0.02007    0.00743 =
         0.03264    0.00447    0.00584    0.00342
AFIX  23
H27A  2   -0.107755    0.524852    0.097458    11.00000   -1.20000
H27B  2   -0.183875    0.506297    0.107646    11.00000   -1.20000
AFIX   0
C28   1   -0.157291    0.493787    0.044250    11.00000    0.04414    0.02486 =
         0.04064    0.01472   -0.00431    0.00707
AFIX 137
H28A  2   -0.173602    0.529546    0.034562    11.00000   -1.50000
H28B  2   -0.192122    0.466075    0.038852    11.00000   -1.50000
H28C  2   -0.115899    0.484195    0.028665    11.00000   -1.50000
AFIX   0
C29   1    0.167877    0.488250    0.086498    11.00000    0.01531    0.01511 =
         0.02704    0.00029   -0.00073   -0.00499
AFIX  23
H29A  2    0.136763    0.519487    0.082046    11.00000   -1.20000
H29B  2    0.210434    0.496087    0.070916    11.00000   -1.20000
AFIX   0
C30   1    0.183251    0.482743    0.134012    11.00000    0.04136    0.02627 =
         0.03760   -0.00773   -0.01935   -0.00448
AFIX 137
H30A  2    0.196785    0.518391    0.145485    11.00000   -1.50000
H30B  2    0.220156    0.456448    0.138098    11.00000   -1.50000
H30C  2    0.142697    0.469848    0.149008    11.00000   -1.50000
AFIX   0
C31   1    0.245098    0.395984    0.038846    11.00000    0.00965    0.02252 =
         0.03153   -0.00123    0.00458   -0.00162
AFIX  23
H31A  2    0.263427    0.433609    0.040471    11.00000   -1.20000
H31B  2    0.253978    0.381647    0.009805    11.00000   -1.20000
AFIX   0
C32   1    0.280597    0.359598    0.072129    11.00000    0.01185    0.03994 =
         0.04384   -0.00032   -0.00237   -0.00084
AFIX 137
H32A  2    0.329617    0.360193    0.067158    11.00000   -1.50000
H32B  2    0.263874    0.322011    0.069552    11.00000   -1.50000
H32C  2    0.270907    0.373418    0.100872    11.00000   -1.50000
AFIX   0
C33   1    0.103701    0.209892   -0.055196    11.00000    0.02441    0.03784 =
         0.03406   -0.02018    0.00883    0.00231
AFIX  23
H33A  2    0.101302    0.171435   -0.064954    11.00000   -1.20000
H33B  2    0.151222    0.222306   -0.058107    11.00000   -1.20000
AFIX   0
C34   1    0.058494    0.244968   -0.083241    11.00000    0.04450    0.07873 =
         0.02677   -0.01022   -0.00083   -0.00530
AFIX 137
H34A  2    0.068966    0.237947   -0.113347    11.00000   -1.50000
H34B  2    0.066398    0.283662   -0.076804    11.00000   -1.50000
H34C  2    0.010923    0.235949   -0.077683    11.00000   -1.50000
AFIX   0
C35   1    0.025990    0.119135   -0.005623    11.00000    0.02015    0.02958 =
         0.05069   -0.02733    0.00987   -0.00662
AFIX  23
H35A  2    0.029213    0.090107    0.016326    11.00000   -1.20000
H35B  2    0.056004    0.108989   -0.029691    11.00000   -1.20000
AFIX   0
C36   1   -0.048399    0.123325   -0.021788    11.00000    0.02296    0.05709 =
         0.06018   -0.03638   -0.01027   -0.00606
AFIX 137
H36A  2   -0.063185    0.087606   -0.032487    11.00000   -1.50000
H36B  2   -0.050996    0.150332   -0.044858    11.00000   -1.50000
H36C  2   -0.077859    0.134676    0.001801    11.00000   -1.50000
AFIX   0
C37   1   -0.182801    0.309477    0.189064    11.00000    0.01553    0.01959 =
         0.02058    0.00390    0.00953    0.00487
C38   1   -0.237813    0.274203    0.182274    11.00000    0.02046    0.02197 =
         0.02957    0.00504    0.01057    0.00370
AFIX  43
H38A  2   -0.238274    0.251129    0.157861    11.00000   -1.20000
AFIX   0
C39   1   -0.291575    0.272646    0.210833    11.00000    0.02336    0.05358 =
         0.04588    0.00623    0.01663    0.00294
C40   1   -0.287916    0.305447    0.246492    11.00000    0.04184    0.08903 =
         0.03900    0.00072    0.03558    0.00134
AFIX  43
H40A  2   -0.324269    0.304483    0.266370    11.00000   -1.20000
AFIX   0
C41   1   -0.234057    0.339544    0.254661    11.00000    0.06046    0.06689 =
         0.03560   -0.01997    0.02028    0.01125
C42   1   -0.181586    0.341741    0.224787    11.00000    0.03704    0.02583 =
         0.03140   -0.00567    0.00935    0.00058
AFIX  43
H42A  2   -0.144599    0.365918    0.229310    11.00000   -1.20000
AFIX   0
C43   1    0.013773    0.505877    0.095140    11.00000    0.01351    0.00897 =
         0.02278   -0.00352   -0.00099   -0.00811
C44   1    0.009229    0.529344    0.135536    11.00000    0.03211    0.01017 =
         0.01657   -0.00047    0.00509   -0.00416
AFIX  43
H44A  2    0.002780    0.506591    0.159794    11.00000   -1.20000
AFIX   0
C45   1    0.014003    0.585631    0.140858    11.00000    0.04949    0.01286 =
         0.02398   -0.00521   -0.00151   -0.00527
C46   1    0.023974    0.617889    0.104789    11.00000    0.03823    0.00722 =
         0.04430   -0.00050   -0.01471   -0.00730
AFIX  43
H46A  2    0.028415    0.656321    0.108202    11.00000   -1.20000
AFIX   0
C47   1    0.027625    0.596042    0.064333    11.00000    0.01904    0.01122 =
         0.02556    0.00469   -0.00732   -0.00687
C48   1    0.022456    0.539545    0.060035    11.00000    0.01406    0.01392 =
         0.01554    0.00029    0.00064   -0.00673
AFIX  43
H48A  2    0.024945    0.523733    0.032360    11.00000   -1.20000
AFIX   0
C49   1    0.187533    0.303467   -0.016632    11.00000    0.01202    0.01603 =
         0.02314   -0.00257    0.00882   -0.00291
C50   1    0.187206    0.337649   -0.052019    11.00000    0.01424    0.01093 =
         0.02852   -0.00105    0.00124    0.00670
AFIX  43
H50A  2    0.150405    0.362036   -0.056455    11.00000   -1.20000
AFIX   0
C51   1    0.241113    0.336306   -0.081297    11.00000    0.02574    0.00760 =
         0.02255   -0.00031    0.00715   -0.00194
C52   1    0.294823    0.300701   -0.073331    11.00000    0.01286    0.01277 =
         0.02317   -0.00057    0.00425    0.00005
AFIX  43
H52A  2    0.331624    0.299402   -0.092867    11.00000   -1.20000
AFIX   0
C53   1    0.295920    0.267123   -0.037618    11.00000    0.01108    0.01348 =
         0.02766   -0.00313    0.00648    0.00198
C54   1    0.240969    0.268428   -0.009813    11.00000    0.01171    0.01317 =
         0.02401    0.00625    0.00200    0.00171
AFIX  43
H54A  2    0.240334    0.244762    0.014249    11.00000   -1.20000
AFIX   0
C55   1    0.000554    0.107451    0.089891    11.00000    0.01358    0.00924 =
         0.05259   -0.01292    0.01587    0.00123
C56   1    0.058329    0.077919    0.096443    11.00000    0.01202    0.02190 =
         0.04655   -0.00853    0.00891   -0.00127
AFIX  43
H56A  2    0.100363    0.096481    0.099339    11.00000   -1.20000
AFIX   0
C57   1    0.056757    0.020863    0.098969    11.00000    0.03505    0.01030 =
         0.06502   -0.00638    0.01624    0.01117
C58   1   -0.005197   -0.004955    0.093995    11.00000    0.04848    0.00782 =
         0.09036   -0.01214    0.02259    0.00200
AFIX  43
H58A  2   -0.007153   -0.043699    0.095804    11.00000   -1.20000
AFIX   0
C59   1   -0.064153    0.023775    0.086499    11.00000    0.02705    0.01802 =
         0.09737   -0.02655    0.02922   -0.00984
C60   1   -0.061552    0.080950    0.084981    11.00000    0.01307    0.01653 =
         0.06882   -0.01345    0.01162   -0.00459
AFIX  43
H60A  2   -0.101779    0.101546    0.080641    11.00000   -1.20000
AFIX   0
C61   1   -0.351183    0.233883    0.202875    11.00000    0.03254    0.09696 =
         0.05878    0.00264    0.02487   -0.02448
AFIX 137
H61A  2   -0.357254    0.210025    0.227734    11.00000   -1.50000
H61B  2   -0.341916    0.211546    0.177549    11.00000   -1.50000
H61C  2   -0.392529    0.255270    0.198248    11.00000   -1.50000
AFIX   0
C62   1   -0.231525    0.374712    0.294042    11.00000    0.10723    0.14646 =
         0.05914   -0.05937    0.04869   -0.01126
AFIX 137
H62A  2   -0.257942    0.357443    0.316860    11.00000   -1.50000
H62B  2   -0.250604    0.410778    0.287603    11.00000   -1.50000
H62C  2   -0.184377    0.378829    0.303323    11.00000   -1.50000
AFIX   0
C63   1    0.010010    0.610489    0.185054    11.00000    0.12233    0.02461 =
         0.03272   -0.01547   -0.00372   -0.00169
AFIX 137
H63A  2    0.026173    0.648357    0.184048    11.00000   -1.50000
H63B  2    0.038343    0.589335    0.204747    11.00000   -1.50000
H63C  2   -0.037074    0.609875    0.194987    11.00000   -1.50000
AFIX   0
C64   1    0.039580    0.631960    0.025675    11.00000    0.03669    0.02122 =
         0.03736    0.01935   -0.00650   -0.01054
AFIX 137
H64A  2    0.046805    0.669783    0.034958    11.00000   -1.50000
H64B  2   -0.000009    0.630314    0.006822    11.00000   -1.50000
H64C  2    0.079682    0.619034    0.010220    11.00000   -1.50000
AFIX   0
C65   1    0.241540    0.372622   -0.119984    11.00000    0.03931    0.02336 =
         0.02804    0.00384    0.01022    0.01062
AFIX 137
H65A  2    0.195500    0.375464   -0.131499    11.00000   -1.50000
H65B  2    0.271594    0.357032   -0.141726    11.00000   -1.50000
H65C  2    0.257805    0.409068   -0.111973    11.00000   -1.50000
AFIX   0
C66   1    0.354454    0.228941   -0.029081    11.00000    0.01740    0.03171 =
         0.03408    0.00697    0.00709    0.01299
AFIX 137
H66A  2    0.364369    0.207784   -0.054923    11.00000   -1.50000
H66B  2    0.342517    0.203969   -0.005782    11.00000   -1.50000
H66C  2    0.394482    0.250276   -0.020995    11.00000   -1.50000
AFIX   0
C67   1    0.120864   -0.010472    0.107723    11.00000    0.05538    0.01948 =
         0.08543   -0.00956    0.00578    0.02332
AFIX 137
H67A  2    0.144514    0.005962    0.132073    11.00000   -1.50000
H67B  2    0.150171   -0.009204    0.082470    11.00000   -1.50000
H67C  2    0.109669   -0.048586    0.114328    11.00000   -1.50000
AFIX   0
C68   1   -0.132131   -0.004463    0.079692    11.00000    0.03605    0.02760 =
         0.19312   -0.03862    0.02465   -0.02498
AFIX 137
H68A  2   -0.128526   -0.042933    0.088156    11.00000   -1.50000
H68B  2   -0.144749   -0.002216    0.049465    11.00000   -1.50000
H68C  2   -0.166833    0.013600    0.097078    11.00000   -1.50000

AFIX   0
HKLF    4

REM  23jana_0m in P b c a
REM R1 =  0.0888 for    9478 Fo > 4sig(Fo)  and  0.1214 for all   13271 data
REM    684 parameters refined using     54 restraints

END

WGHT      0.1498     49.2821

REM Highest difference peak  1.387,  deepest hole -2.177,  1-sigma level  0.141
Q1    1   0.0170  0.3256  0.0864  11.00000  0.05    1.39
Q2    1   0.0407  0.3090  0.1087  11.00000  0.05    1.30
Q3    1   0.0036  0.2909  0.0934  11.00000  0.05    1.29
Q4    1  -0.0141  0.3082  0.1010  11.00000  0.05    1.27
Q5    1   0.1041  0.3052  0.1159  11.00000  0.05    0.75
Q6    1   0.1174  0.3021  0.1928  11.00000  0.05    0.74
Q7    1  -0.1560  0.3065  0.1723  11.00000  0.05    0.73
Q8    1   0.0620  0.3226  0.1779  11.00000  0.05    0.68
Q9    1  -0.1654  0.1690  0.2336  11.00000  0.05    0.65
Q10   1   0.1609  0.3044 -0.0019  11.00000  0.05    0.64
Q11   1   0.0492  0.1908 -0.0002  11.00000  0.05    0.64
Q12   1   0.0545  0.3025  0.1388  11.00000  0.05    0.62
Q13   1   0.0005  0.1789  0.0672  11.00000  0.05    0.61
Q14   1   0.0010  0.1373  0.0909  11.00000  0.05    0.61
Q15   1   0.0250  0.5690  0.0596  11.00000  0.05    0.60
;
_shelx_res_checksum              64258
#END Tags that were not found in dictionaries
loop_
_space_group_symop_operation_xyz
'x, y, z'
'-x+1/2, -y, z+1/2'
'x+1/2, -y+1/2, -z'
'-x, y+1/2, -z+1/2'
'-x, -y, -z'
'x-1/2, y, -z-1/2'
'-x-1/2, y-1/2, z'
'x, -y-1/2, z-1/2'
loop_
_atom_site_label
_atom_site_type_symbol
_atom_site_fract_x
_atom_site_fract_y
_atom_site_fract_z
_atom_site_U_iso_or_equiv
_atom_site_adp_type
_atom_site_occupancy
_atom_site_site_symmetry_order
_atom_site_calc_flag
_atom_site_refinement_flags_posn
_atom_site_refinement_flags_adp
_atom_site_refinement_flags_occupancy
_atom_site_disorder_assembly
_atom_site_disorder_group
Fe1 Fe 0.01699(4) 0.30696(3) 0.09664(3) 0.0163(2) Uani 1 1 d . . . . .
I1 I 0.10315(3) 0.30371(2) 0.15615(2) 0.0571(2) Uani 1 1 d . . . . .
N1 N -0.04456(19) 0.25126(16) 0.12088(13) 0.0109(9) Uani 1 1 d . U . . .
N2 N -0.05025(19) 0.36383(16) 0.11410(13) 0.0103(8) Uani 1 1 d . . . . .
N3 N 0.06317(19) 0.36328(16) 0.06199(13) 0.0107(9) Uani 1 1 d . . . . .
N4 N 0.05031(19) 0.25032(16) 0.05559(13) 0.0123(9) Uani 1 1 d . U . . .
C1 C -0.0260(2) 0.19680(19) 0.12415(16) 0.0113(10) Uani 1 1 d . U . . .
C2 C -0.0475(2) 0.1749(2) 0.16458(18) 0.0174(12) Uani 1 1 d . . . . .
C3 C -0.0836(3) 0.2148(2) 0.18479(17) 0.0155(11) Uani 1 1 d . . . . .
C4 C -0.0851(2) 0.26175(18) 0.15599(15) 0.0103(10) Uani 1 1 d . U . . .
C5 C -0.1244(3) 0.3085(2) 0.15813(16) 0.0149(11) Uani 1 1 d . . . . .
C6 C -0.1125(2) 0.35513(19) 0.13337(16) 0.0110(10) Uani 1 1 d . . . . .
C7 C -0.1546(2) 0.40255(19) 0.12778(16) 0.0117(10) Uani 1 1 d . . . . .
C8 C -0.1161(3) 0.44178(19) 0.10863(16) 0.0129(10) Uani 1 1 d . . . . .
C9 C -0.0495(3) 0.41866(19) 0.10220(15) 0.0108(10) Uani 1 1 d . . . . .
C10 C 0.0109(2) 0.44520(19) 0.09042(15) 0.0118(10) Uani 1 1 d . . . . .
C11 C 0.0675(2) 0.41754(19) 0.07598(15) 0.0113(10) Uani 1 1 d . . . . .
C12 C 0.1364(2) 0.4376(2) 0.06866(16) 0.0139(11) Uani 1 1 d . . . . .
C13 C 0.1701(3) 0.3970(2) 0.04701(16) 0.0154(11) Uani 1 1 d . . . . .
C14 C 0.1230(2) 0.3521(2) 0.04092(16) 0.0128(10) Uani 1 1 d . . . . .
C15 C 0.1300(3) 0.3053(2) 0.01540(16) 0.0159(11) Uani 1 1 d . . . . .
C16 C 0.0883(2) 0.2597(2) 0.01947(16) 0.0132(11) Uani 1 1 d . U . . .
C17 C 0.0830(3) 0.2129(2) -0.00898(19) 0.0222(13) Uani 1 1 d . . . . .
C18 C 0.0493(3) 0.1731(2) 0.01327(19) 0.0216(12) Uani 1 1 d . . . . .
C19 C 0.0302(2) 0.1960(2) 0.05400(18) 0.0174(11) Uani 1 1 d . . . . .
C20 C 0.0021(2) 0.1693(2) 0.08939(17) 0.0146(11) Uani 1 1 d . U . . .
C21 C -0.0254(3) 0.1221(3) 0.1854(2) 0.0363(16) Uani 1 1 d . . . . .
H21A H -0.0300 0.0917 0.1647 0.044 Uiso 1 1 calc R U . . .
H21B H -0.0551 0.1141 0.2101 0.044 Uiso 1 1 calc R U . . .
C22 C 0.0488(4) 0.1257(3) 0.2006(2) 0.051(2) Uani 1 1 d . . . . .
H22A H 0.0607 0.0923 0.2162 0.077 Uiso 1 1 calc R U . . .
H22B H 0.0541 0.1573 0.2195 0.077 Uiso 1 1 calc R U . . .
H22C H 0.0787 0.1297 0.1758 0.077 Uiso 1 1 calc R U . . .
C23 C -0.1076(3) 0.2131(2) 0.22998(18) 0.0261(13) Uani 1 1 d . . . . .
H23A H -0.1102 0.1747 0.2399 0.031 Uiso 1 1 calc R U . . .
H23B H -0.1535 0.2293 0.2320 0.031 Uiso 1 1 calc R U . . .
C24 C -0.0574(4) 0.2458(3) 0.2587(2) 0.050(2) Uani 1 1 d . . . . .
H24A H -0.0733 0.2450 0.2883 0.075 Uiso 1 1 calc R U . . .
H24B H -0.0550 0.2837 0.2488 0.075 Uiso 1 1 calc R U . . .
H24C H -0.0123 0.2291 0.2570 0.075 Uiso 1 1 calc R U . . .
C25 C -0.2299(3) 0.4056(2) 0.13512(19) 0.0194(12) Uani 1 1 d . . . . .
H25A H -0.2448 0.4441 0.1328 0.023 Uiso 1 1 calc R U . . .
H25B H -0.2402 0.3929 0.1644 0.023 Uiso 1 1 calc R U . . .
C26 C -0.2693(3) 0.3710(2) 0.1032(2) 0.0289(14) Uani 1 1 d . . . . .
H26A H -0.3178 0.3731 0.1096 0.043 Uiso 1 1 calc R U . . .
H26B H -0.2543 0.3328 0.1051 0.043 Uiso 1 1 calc R U . . .
H26C H -0.2611 0.3846 0.0742 0.043 Uiso 1 1 calc R U . . .
C27 C -0.1421(3) 0.4962(2) 0.09201(18) 0.0200(12) Uani 1 1 d . . . . .
H27A H -0.1078 0.5249 0.0975 0.024 Uiso 1 1 calc R U . . .
H27B H -0.1839 0.5063 0.1076 0.024 Uiso 1 1 calc R U . . .
C28 C -0.1573(4) 0.4938(3) 0.0443(2) 0.0365(16) Uani 1 1 d . . . . .
H28A H -0.1736 0.5295 0.0346 0.055 Uiso 1 1 calc R U . . .
H28B H -0.1921 0.4661 0.0389 0.055 Uiso 1 1 calc R U . . .
H28C H -0.1159 0.4842 0.0287 0.055 Uiso 1 1 calc R U . . .
C29 C 0.1679(3) 0.4882(2) 0.08650(17) 0.0192(12) Uani 1 1 d . . . . .
H29A H 0.1368 0.5195 0.0820 0.023 Uiso 1 1 calc R U . . .
H29B H 0.2104 0.4961 0.0709 0.023 Uiso 1 1 calc R U . . .
C30 C 0.1833(3) 0.4827(3) 0.1340(2) 0.0351(16) Uani 1 1 d . . . . .
H30A H 0.1968 0.5184 0.1455 0.053 Uiso 1 1 calc R U . . .
H30B H 0.2202 0.4564 0.1381 0.053 Uiso 1 1 calc R U . . .
H30C H 0.1427 0.4698 0.1490 0.053 Uiso 1 1 calc R U . . .
C31 C 0.2451(3) 0.3960(2) 0.03885(18) 0.0212(12) Uani 1 1 d . . . . .
H31A H 0.2634 0.4336 0.0405 0.025 Uiso 1 1 calc R U . . .
H31B H 0.2540 0.3816 0.0098 0.025 Uiso 1 1 calc R U . . .
C32 C 0.2806(3) 0.3596(3) 0.0721(2) 0.0319(15) Uani 1 1 d . . . . .
H32A H 0.3296 0.3602 0.0672 0.048 Uiso 1 1 calc R U . . .
H32B H 0.2639 0.3220 0.0696 0.048 Uiso 1 1 calc R U . . .
H32C H 0.2709 0.3734 0.1009 0.048 Uiso 1 1 calc R U . . .
C33 C 0.1037(3) 0.2099(3) -0.0552(2) 0.0321(15) Uani 1 1 d . . . . .
H33A H 0.1013 0.1714 -0.0650 0.039 Uiso 1 1 calc R U . . .
H33B H 0.1512 0.2223 -0.0581 0.039 Uiso 1 1 calc R U . . .
C34 C 0.0585(4) 0.2450(4) -0.0832(2) 0.050(2) Uani 1 1 d . . . . .
H34A H 0.0690 0.2379 -0.1133 0.075 Uiso 1 1 calc R U . . .
H34B H 0.0664 0.2837 -0.0768 0.075 Uiso 1 1 calc R U . . .
H34C H 0.0109 0.2359 -0.0777 0.075 Uiso 1 1 calc R U . . .
C35 C 0.0260(3) 0.1191(3) -0.0056(2) 0.0335(16) Uani 1 1 d . . . . .
H35A H 0.0292 0.0901 0.0163 0.040 Uiso 1 1 calc R U . . .
H35B H 0.0560 0.1090 -0.0297 0.040 Uiso 1 1 calc R U . . .
C36 C -0.0484(3) 0.1233(3) -0.0218(2) 0.047(2) Uani 1 1 d . . . . .
H36A H -0.0632 0.0876 -0.0325 0.070 Uiso 1 1 calc R U . . .
H36B H -0.0510 0.1503 -0.0449 0.070 Uiso 1 1 calc R U . . .
H36C H -0.0779 0.1347 0.0018 0.070 Uiso 1 1 calc R U . . .
C37 C -0.1828(3) 0.3095(2) 0.18906(17) 0.0186(12) Uani 1 1 d . . . . .
C38 C -0.2378(3) 0.2742(2) 0.18227(19) 0.0240(13) Uani 1 1 d . . . . .
H38A H -0.2383 0.2511 0.1579 0.029 Uiso 1 1 calc R U . . .
C39 C -0.2916(3) 0.2726(3) 0.2108(2) 0.0409(17) Uani 1 1 d . . . . .
C40 C -0.2879(4) 0.3054(4) 0.2465(2) 0.057(2) Uani 1 1 d . . . . .
H40A H -0.3243 0.3045 0.2664 0.068 Uiso 1 1 calc R U . . .
C41 C -0.2341(4) 0.3395(4) 0.2547(2) 0.054(2) Uani 1 1 d . . . . .
C42 C -0.1816(3) 0.3417(3) 0.22479(19) 0.0314(15) Uani 1 1 d . . . . .
H42A H -0.1446 0.3659 0.2293 0.038 Uiso 1 1 calc R U . . .
C43 C 0.0138(3) 0.5059(2) 0.09514(17) 0.0151(11) Uani 1 1 d . . . . .
C44 C 0.0092(3) 0.5293(2) 0.13554(17) 0.0196(12) Uani 1 1 d . . . . .
H44A H 0.0028 0.5066 0.1598 0.024 Uiso 1 1 calc R U . . .
C45 C 0.0140(3) 0.5856(2) 0.14086(19) 0.0288(14) Uani 1 1 d . . . . .
C46 C 0.0240(3) 0.6179(2) 0.1048(2) 0.0299(15) Uani 1 1 d . . . . .
H46A H 0.0284 0.6563 0.1082 0.036 Uiso 1 1 calc R U . . .
C47 C 0.0276(3) 0.5960(2) 0.06433(17) 0.0186(12) Uani 1 1 d . . . . .
C48 C 0.0225(2) 0.5395(2) 0.06004(16) 0.0145(11) Uani 1 1 d . . . . .
H48A H 0.0249 0.5237 0.0324 0.017 Uiso 1 1 calc R U . . .
C49 C 0.1875(3) 0.3035(2) -0.01663(17) 0.0171(11) Uani 1 1 d . . . . .
C50 C 0.1872(3) 0.3376(2) -0.05202(17) 0.0179(11) Uani 1 1 d . . . . .
H50A H 0.1504 0.3620 -0.0565 0.021 Uiso 1 1 calc R U . . .
C51 C 0.2411(3) 0.3363(2) -0.08130(17) 0.0186(12) Uani 1 1 d . . . . .
C52 C 0.2948(3) 0.3007(2) -0.07333(17) 0.0163(11) Uani 1 1 d . . . . .
H52A H 0.3316 0.2994 -0.0929 0.020 Uiso 1 1 calc R U . . .
C53 C 0.2959(3) 0.2671(2) -0.03762(17) 0.0174(11) Uani 1 1 d . . . . .
C54 C 0.2410(3) 0.2684(2) -0.00981(17) 0.0163(11) Uani 1 1 d . . . . .
H54A H 0.2403 0.2448 0.0142 0.020 Uiso 1 1 calc R U . . .
C55 C 0.0006(3) 0.1075(2) 0.0899(2) 0.0251(13) Uani 1 1 d . U . . .
C56 C 0.0583(3) 0.0779(2) 0.0964(2) 0.0268(14) Uani 1 1 d . . . . .
H56A H 0.1004 0.0965 0.0993 0.032 Uiso 1 1 calc R U . . .
C57 C 0.0568(3) 0.0209(2) 0.0990(2) 0.0368(16) Uani 1 1 d . U . . .
C58 C -0.0052(4) -0.0050(3) 0.0940(3) 0.049(2) Uani 1 1 d . . . . .
H58A H -0.0072 -0.0437 0.0958 0.059 Uiso 1 1 calc R U . . .
C59 C -0.0642(3) 0.0238(3) 0.0865(3) 0.047(2) Uani 1 1 d . . . . .
C60 C -0.0616(3) 0.0810(2) 0.0850(2) 0.0328(16) Uani 1 1 d . . . . .
H60A H -0.1018 0.1015 0.0806 0.039 Uiso 1 1 calc R U . . .
C61 C -0.3512(4) 0.2339(4) 0.2029(3) 0.063(3) Uani 1 1 d . . . . .
H61A H -0.3573 0.2100 0.2277 0.094 Uiso 1 1 calc R U . . .
H61B H -0.3419 0.2115 0.1775 0.094 Uiso 1 1 calc R U . . .
H61C H -0.3925 0.2553 0.1982 0.094 Uiso 1 1 calc R U . . .
C62 C -0.2315(6) 0.3747(5) 0.2940(3) 0.104(4) Uani 1 1 d . . . . .
H62A H -0.2579 0.3574 0.3169 0.156 Uiso 1 1 calc R U . . .
H62B H -0.2506 0.4108 0.2876 0.156 Uiso 1 1 calc R U . . .
H62C H -0.1844 0.3788 0.3033 0.156 Uiso 1 1 calc R U . . .
C63 C 0.0100(5) 0.6105(3) 0.1851(2) 0.060(3) Uani 1 1 d . . . . .
H63A H 0.0262 0.6484 0.1840 0.090 Uiso 1 1 calc R U . . .
H63B H 0.0383 0.5893 0.2047 0.090 Uiso 1 1 calc R U . . .
H63C H -0.0371 0.6099 0.1950 0.090 Uiso 1 1 calc R U . . .
C64 C 0.0396(3) 0.6320(2) 0.0257(2) 0.0318(15) Uani 1 1 d . U . . .
H64A H 0.0468 0.6698 0.0350 0.048 Uiso 1 1 calc R U . . .
H64B H 0.0000 0.6303 0.0068 0.048 Uiso 1 1 calc R U . . .
H64C H 0.0797 0.6190 0.0102 0.048 Uiso 1 1 calc R U . . .
C65 C 0.2415(3) 0.3726(2) -0.11998(19) 0.0302(14) Uani 1 1 d . . . . .
H65A H 0.1955 0.3755 -0.1315 0.045 Uiso 1 1 calc R U . . .
H65B H 0.2716 0.3570 -0.1417 0.045 Uiso 1 1 calc R U . . .
H65C H 0.2578 0.4091 -0.1120 0.045 Uiso 1 1 calc R U . . .
C66 C 0.3545(3) 0.2289(2) -0.0291(2) 0.0277(14) Uani 1 1 d . . . . .
H66A H 0.3644 0.2078 -0.0549 0.042 Uiso 1 1 calc R U . . .
H66B H 0.3425 0.2040 -0.0058 0.042 Uiso 1 1 calc R U . . .
H66C H 0.3945 0.2503 -0.0210 0.042 Uiso 1 1 calc R U . . .
C67 C 0.1209(4) -0.0105(3) 0.1077(3) 0.053(2) Uani 1 1 d . . . . .
H67A H 0.1445 0.0060 0.1321 0.080 Uiso 1 1 calc R U . . .
H67B H 0.1502 -0.0092 0.0825 0.080 Uiso 1 1 calc R U . . .
H67C H 0.1097 -0.0486 0.1143 0.080 Uiso 1 1 calc R U . . .
C68 C -0.1321(4) -0.0045(3) 0.0797(4) 0.086(4) Uani 1 1 d . . . . .
H68A H -0.1285 -0.0429 0.0882 0.128 Uiso 1 1 calc R U . . .
H68B H -0.1447 -0.0022 0.0495 0.128 Uiso 1 1 calc R U . . .
H68C H -0.1668 0.0136 0.0971 0.128 Uiso 1 1 calc R U . . .
loop_
_atom_site_aniso_label
_atom_site_aniso_U_11
_atom_site_aniso_U_22
_atom_site_aniso_U_33
_atom_site_aniso_U_23
_atom_site_aniso_U_13
_atom_site_aniso_U_12
Fe1 0.0131(4) 0.0050(3) 0.0307(5) -0.0034(3) 0.0133(3) -0.0006(3)
I1 0.0528(4) 0.0646(4) 0.0538(4) 0.0119(3) -0.0307(3) -0.0185(3)
N1 0.0019(18) 0.0095(19) 0.021(2) -0.0033(16) -0.0021(16) 0.0021(15)
N2 0.006(2) 0.0064(19) 0.019(2) -0.0038(16) 0.0008(17) 0.0019(16)
N3 0.004(2) 0.012(2) 0.016(2) -0.0020(17) 0.0018(16) -0.0016(16)
N4 0.0014(19) 0.011(2) 0.025(2) -0.0051(17) 0.0039(17) -0.0018(16)
C1 0.0055(19) 0.0070(18) 0.021(2) -0.0023(17) -0.0049(16) 0.0027(16)
C2 0.006(2) 0.011(3) 0.035(3) 0.000(2) -0.006(2) -0.001(2)
C3 0.009(3) 0.011(2) 0.027(3) 0.006(2) -0.008(2) -0.004(2)
C4 0.008(2) 0.003(2) 0.020(3) -0.0040(19) 0.002(2) -0.0036(18)
C5 0.011(3) 0.013(3) 0.020(3) -0.006(2) 0.003(2) -0.006(2)
C6 0.011(3) 0.004(2) 0.018(3) -0.0022(19) 0.004(2) 0.0000(19)
C7 0.010(2) 0.004(2) 0.021(3) -0.0057(19) 0.003(2) -0.0023(19)
C8 0.016(3) 0.002(2) 0.021(3) -0.001(2) 0.001(2) 0.0028(19)
C9 0.016(3) 0.005(2) 0.012(2) -0.0002(19) 0.001(2) -0.0011(19)
C10 0.013(3) 0.007(2) 0.016(3) 0.000(2) 0.000(2) -0.0052(19)
C11 0.014(3) 0.008(2) 0.012(2) 0.0036(19) -0.003(2) -0.002(2)
C12 0.008(2) 0.020(3) 0.014(3) 0.009(2) -0.007(2) -0.005(2)
C13 0.011(3) 0.017(3) 0.018(3) 0.006(2) 0.000(2) -0.002(2)
C14 0.006(2) 0.013(2) 0.019(3) 0.004(2) 0.002(2) 0.003(2)
C15 0.006(2) 0.022(3) 0.020(3) 0.006(2) 0.002(2) 0.009(2)
C16 0.004(2) 0.016(2) 0.020(3) -0.006(2) 0.0019(19) 0.006(2)
C17 0.010(3) 0.025(3) 0.032(3) -0.014(3) 0.003(2) 0.008(2)
C18 0.006(3) 0.018(3) 0.041(3) -0.012(3) 0.007(2) 0.003(2)
C19 0.005(2) 0.015(3) 0.032(3) -0.013(2) 0.000(2) 0.003(2)
C20 0.004(2) 0.008(2) 0.032(3) -0.003(2) 0.0028(19) -0.0042(18)
C21 0.033(4) 0.025(3) 0.051(4) 0.015(3) 0.014(3) 0.009(3)
C22 0.045(5) 0.065(5) 0.044(4) 0.021(4) -0.007(3) 0.025(4)
C23 0.043(4) 0.013(3) 0.023(3) 0.006(2) 0.007(3) -0.001(3)
C24 0.066(5) 0.046(4) 0.038(4) -0.002(3) -0.011(4) 0.004(4)
C25 0.016(3) 0.007(2) 0.036(3) -0.001(2) -0.001(2) 0.002(2)
C26 0.012(3) 0.023(3) 0.052(4) -0.005(3) -0.002(3) 0.003(2)
C27 0.020(3) 0.007(2) 0.033(3) 0.004(2) 0.006(2) 0.003(2)
C28 0.044(4) 0.025(3) 0.041(4) 0.015(3) -0.004(3) 0.007(3)
C29 0.015(3) 0.015(3) 0.027(3) 0.000(2) -0.001(2) -0.005(2)
C30 0.041(4) 0.026(3) 0.038(4) -0.008(3) -0.019(3) -0.004(3)
C31 0.010(3) 0.023(3) 0.032(3) -0.001(2) 0.005(2) -0.002(2)
C32 0.012(3) 0.040(4) 0.044(4) 0.000(3) -0.002(3) -0.001(3)
C33 0.024(3) 0.038(4) 0.034(4) -0.020(3) 0.009(3) 0.002(3)
C34 0.045(4) 0.079(6) 0.027(4) -0.010(4) -0.001(3) -0.005(4)
C35 0.020(3) 0.030(3) 0.051(4) -0.027(3) 0.010(3) -0.007(3)
C36 0.023(4) 0.057(5) 0.060(5) -0.036(4) -0.010(3) -0.006(3)
C37 0.016(3) 0.020(3) 0.021(3) 0.004(2) 0.010(2) 0.005(2)
C38 0.020(3) 0.022(3) 0.030(3) 0.005(2) 0.011(2) 0.004(2)
C39 0.023(4) 0.054(4) 0.046(4) 0.006(3) 0.017(3) 0.003(3)
C40 0.042(5) 0.089(6) 0.039(4) 0.001(4) 0.036(4) 0.001(4)
C41 0.060(5) 0.067(5) 0.036(4) -0.020(4) 0.020(4) 0.011(4)
C42 0.037(4) 0.026(3) 0.031(3) -0.006(3) 0.009(3) 0.001(3)
C43 0.014(3) 0.009(2) 0.023(3) -0.004(2) -0.001(2) -0.008(2)
C44 0.032(3) 0.010(3) 0.017(3) 0.000(2) 0.005(2) -0.004(2)
C45 0.049(4) 0.013(3) 0.024(3) -0.005(2) -0.002(3) -0.005(3)
C46 0.038(4) 0.007(3) 0.044(4) -0.001(2) -0.015(3) -0.007(2)
C47 0.019(3) 0.011(3) 0.026(3) 0.005(2) -0.007(2) -0.007(2)
C48 0.014(3) 0.014(3) 0.016(3) 0.000(2) 0.001(2) -0.007(2)
C49 0.012(3) 0.016(3) 0.023(3) -0.003(2) 0.009(2) -0.003(2)
C50 0.014(3) 0.011(3) 0.029(3) -0.001(2) 0.001(2) 0.007(2)
C51 0.026(3) 0.008(2) 0.023(3) 0.000(2) 0.007(2) -0.002(2)
C52 0.013(3) 0.013(3) 0.023(3) -0.001(2) 0.004(2) 0.000(2)
C53 0.011(3) 0.013(3) 0.028(3) -0.003(2) 0.006(2) 0.002(2)
C54 0.012(3) 0.013(3) 0.024(3) 0.006(2) 0.002(2) 0.002(2)
C55 0.014(3) 0.009(3) 0.053(4) -0.013(2) 0.016(3) 0.001(2)
C56 0.012(3) 0.022(3) 0.047(4) -0.009(3) 0.009(3) -0.001(2)
C57 0.035(4) 0.010(3) 0.065(5) -0.006(3) 0.016(3) 0.011(3)
C58 0.048(5) 0.008(3) 0.090(6) -0.012(3) 0.023(4) 0.002(3)
C59 0.027(4) 0.018(3) 0.097(6) -0.027(4) 0.029(4) -0.010(3)
C60 0.013(3) 0.017(3) 0.069(5) -0.013(3) 0.012(3) -0.005(2)
C61 0.033(4) 0.097(7) 0.059(5) 0.003(5) 0.025(4) -0.024(4)
C62 0.107(9) 0.146(11) 0.059(6) -0.059(7) 0.049(6) -0.011(8)
C63 0.122(8) 0.025(4) 0.033(4) -0.015(3) -0.004(4) -0.002(4)
C64 0.037(4) 0.021(3) 0.037(4) 0.019(3) -0.006(3) -0.011(3)
C65 0.039(4) 0.023(3) 0.028(3) 0.004(3) 0.010(3) 0.011(3)
C66 0.017(3) 0.032(3) 0.034(3) 0.007(3) 0.007(3) 0.013(3)
C67 0.055(5) 0.019(3) 0.085(6) -0.010(4) 0.006(4) 0.023(3)
C68 0.036(5) 0.028(4) 0.193(12) -0.039(6) 0.025(6) -0.025(4)
loop_
_atom_type_symbol
_atom_type_description
_atom_type_scat_dispersion_real
_atom_type_scat_dispersion_imag
_atom_type_scat_source
C C 0.0033 0.0016 'International Tables Vol C Tables 4.2.6.8 and 6.1.1.4'
H H 0.0000 0.0000 'International Tables Vol C Tables 4.2.6.8 and 6.1.1.4'
N N 0.0061 0.0033 'International Tables Vol C Tables 4.2.6.8 and 6.1.1.4'
Fe Fe 0.3463 0.8444 'International Tables Vol C Tables 4.2.6.8 and 6.1.1.4'
I I -0.4742 1.8119 'International Tables Vol C Tables 4.2.6.8 and 6.1.1.4'
Cl Cl 0.1484 0.1585 'International Tables Vol C Tables 4.2.6.8 and 6.1.1.4'
loop_
_geom_angle_atom_site_label_1
_geom_angle_atom_site_label_2
_geom_angle_atom_site_label_3
_geom_angle
_geom_angle_site_symmetry_1
_geom_angle_site_symmetry_3
N3 Fe1 N1 167.06(17) . .
N3 Fe1 N2 88.36(17) . .
N1 Fe1 N2 88.08(16) . .
N3 Fe1 N4 88.76(17) . .
N1 Fe1 N4 88.36(16) . .
N2 Fe1 N4 151.14(17) . .
N3 Fe1 I1 96.69(12) . .
N1 Fe1 I1 96.26(12) . .
N2 Fe1 I1 105.51(12) . .
N4 Fe1 I1 103.35(12) . .
C4 N1 C1 105.8(4) . .
C4 N1 Fe1 122.2(3) . .
C1 N1 Fe1 121.9(3) . .
C6 N2 C9 105.9(4) . .
C6 N2 Fe1 127.0(3) . .
C9 N2 Fe1 126.2(3) . .
C14 N3 C11 106.6(4) . .
C14 N3 Fe1 121.3(3) . .
C11 N3 Fe1 121.1(3) . .
C16 N4 C19 106.6(4) . .
C16 N4 Fe1 126.3(3) . .
C19 N4 Fe1 126.3(3) . .
N1 C1 C20 120.7(5) . .
N1 C1 C2 110.2(4) . .
C20 C1 C2 128.6(5) . .
C3 C2 C1 107.2(4) . .
C3 C2 C21 124.2(5) . .
C1 C2 C21 127.8(5) . .
C2 C3 C4 106.7(5) . .
C2 C3 C23 125.8(5) . .
C4 C3 C23 126.9(5) . .
C5 C4 N1 121.1(4) . .
C5 C4 C3 129.1(5) . .
N1 C4 C3 109.5(4) . .
C4 C5 C6 123.6(5) . .
C4 C5 C37 118.3(4) . .
C6 C5 C37 118.1(4) . .
N2 C6 C5 121.0(4) . .
N2 C6 C7 109.6(4) . .
C5 C6 C7 129.0(4) . .
C8 C7 C6 107.5(4) . .
C8 C7 C25 125.6(4) . .
C6 C7 C25 126.2(4) . .
C7 C8 C9 107.0(4) . .
C7 C8 C27 125.5(5) . .
C9 C8 C27 127.0(4) . .
N2 C9 C10 121.5(4) . .
N2 C9 C8 109.3(4) . .
C10 C9 C8 128.9(4) . .
C11 C10 C9 123.0(4) . .
C11 C10 C43 119.3(4) . .
C9 C10 C43 117.7(4) . .
C10 C11 N3 121.2(4) . .
C10 C11 C12 129.6(4) . .
N3 C11 C12 109.0(4) . .
C13 C12 C11 106.4(4) . .
C13 C12 C29 125.7(5) . .
C11 C12 C29 127.3(5) . .
C12 C13 C14 107.6(4) . .
C12 C13 C31 124.9(5) . .
C14 C13 C31 126.6(5) . .
N3 C14 C15 121.2(4) . .
N3 C14 C13 109.6(4) . .
C15 C14 C13 129.0(5) . .
C16 C15 C14 122.9(5) . .
C16 C15 C49 118.6(4) . .
C14 C15 C49 118.4(4) . .
N4 C16 C15 122.1(4) . .
N4 C16 C17 109.4(4) . .
C15 C16 C17 128.1(5) . .
C18 C17 C16 106.5(5) . .
C18 C17 C33 125.8(5) . .
C16 C17 C33 127.5(5) . .
C17 C18 C19 107.4(5) . .
C17 C18 C35 124.6(5) . .
C19 C18 C35 127.1(5) . .
N4 C19 C20 122.1(5) . .
N4 C19 C18 109.2(5) . .
C20 C19 C18 128.4(5) . .
C1 C20 C19 123.4(5) . .
C1 C20 C55 117.8(5) . .
C19 C20 C55 118.8(5) . .
C2 C21 C22 111.0(5) . .
C2 C21 H21A 109.4 . .
C22 C21 H21A 109.4 . .
C2 C21 H21B 109.4 . .
C22 C21 H21B 109.4 . .
H21A C21 H21B 108.0 . .
C21 C22 H22A 109.5 . .
C21 C22 H22B 109.5 . .
H22A C22 H22B 109.5 . .
C21 C22 H22C 109.5 . .
H22A C22 H22C 109.5 . .
H22B C22 H22C 109.5 . .
C3 C23 C24 109.3(5) . .
C3 C23 H23A 109.8 . .
C24 C23 H23A 109.8 . .
C3 C23 H23B 109.8 . .
C24 C23 H23B 109.8 . .
H23A C23 H23B 108.3 . .
C23 C24 H24A 109.5 . .
C23 C24 H24B 109.5 . .
H24A C24 H24B 109.5 . .
C23 C24 H24C 109.5 . .
H24A C24 H24C 109.5 . .
H24B C24 H24C 109.5 . .
C7 C25 C26 112.1(4) . .
C7 C25 H25A 109.2 . .
C26 C25 H25A 109.2 . .
C7 C25 H25B 109.2 . .
C26 C25 H25B 109.2 . .
H25A C25 H25B 107.9 . .
C25 C26 H26A 109.5 . .
C25 C26 H26B 109.5 . .
H26A C26 H26B 109.5 . .
C25 C26 H26C 109.5 . .
H26A C26 H26C 109.5 . .
H26B C26 H26C 109.5 . .
C8 C27 C28 111.6(4) . .
C8 C27 H27A 109.3 . .
C28 C27 H27A 109.3 . .
C8 C27 H27B 109.3 . .
C28 C27 H27B 109.3 . .
H27A C27 H27B 108.0 . .
C27 C28 H28A 109.5 . .
C27 C28 H28B 109.5 . .
H28A C28 H28B 109.5 . .
C27 C28 H28C 109.5 . .
H28A C28 H28C 109.5 . .
H28B C28 H28C 109.5 . .
C12 C29 C30 112.0(4) . .
C12 C29 H29A 109.2 . .
C30 C29 H29A 109.2 . .
C12 C29 H29B 109.2 . .
C30 C29 H29B 109.2 . .
H29A C29 H29B 107.9 . .
C29 C30 H30A 109.5 . .
C29 C30 H30B 109.5 . .
H30A C30 H30B 109.5 . .
C29 C30 H30C 109.5 . .
H30A C30 H30C 109.5 . .
H30B C30 H30C 109.5 . .
C13 C31 C32 110.0(4) . .
C13 C31 H31A 109.7 . .
C32 C31 H31A 109.7 . .
C13 C31 H31B 109.7 . .
C32 C31 H31B 109.7 . .
H31A C31 H31B 108.2 . .
C31 C32 H32A 109.5 . .
C31 C32 H32B 109.5 . .
H32A C32 H32B 109.5 . .
C31 C32 H32C 109.5 . .
H32A C32 H32C 109.5 . .
H32B C32 H32C 109.5 . .
C17 C33 C34 111.6(5) . .
C17 C33 H33A 109.3 . .
C34 C33 H33A 109.3 . .
C17 C33 H33B 109.3 . .
C34 C33 H33B 109.3 . .
H33A C33 H33B 108.0 . .
C33 C34 H34A 109.5 . .
C33 C34 H34B 109.5 . .
H34A C34 H34B 109.5 . .
C33 C34 H34C 109.5 . .
H34A C34 H34C 109.5 . .
H34B C34 H34C 109.5 . .
C18 C35 C36 110.8(5) . .
C18 C35 H35A 109.5 . .
C36 C35 H35A 109.5 . .
C18 C35 H35B 109.5 . .
C36 C35 H35B 109.5 . .
H35A C35 H35B 108.1 . .
C35 C36 H36A 109.5 . .
C35 C36 H36B 109.5 . .
H36A C36 H36B 109.5 . .
C35 C36 H36C 109.5 . .
H36A C36 H36C 109.5 . .
H36B C36 H36C 109.5 . .
C42 C37 C38 119.5(5) . .
C42 C37 C5 121.4(5) . .
C38 C37 C5 119.0(5) . .
C39 C38 C37 120.7(6) . .
C39 C38 H38A 119.6 . .
C37 C38 H38A 119.6 . .
C40 C39 C38 117.8(7) . .
C40 C39 C61 122.2(6) . .
C38 C39 C61 120.0(7) . .
C41 C40 C39 123.0(6) . .
C41 C40 H40A 118.5 . .
C39 C40 H40A 118.5 . .
C40 C41 C42 118.2(6) . .
C40 C41 C62 121.7(7) . .
C42 C41 C62 120.2(8) . .
C37 C42 C41 120.8(6) . .
C37 C42 H42A 119.6 . .
C41 C42 H42A 119.6 . .
C48 C43 C44 119.0(5) . .
C48 C43 C10 121.2(5) . .
C44 C43 C10 119.8(5) . .
C45 C44 C43 120.9(5) . .
C45 C44 H44A 119.6 . .
C43 C44 H44A 119.6 . .
C44 C45 C46 118.3(5) . .
C44 C45 C63 120.3(6) . .
C46 C45 C63 121.4(5) . .
C47 C46 C45 122.3(5) . .
C47 C46 H46A 118.9 . .
C45 C46 H46A 118.9 . .
C46 C47 C48 118.1(5) . .
C46 C47 C64 121.2(5) . .
C48 C47 C64 120.7(5) . .
C43 C48 C47 121.5(5) . .
C43 C48 H48A 119.2 . .
C47 C48 H48A 119.2 . .
C54 C49 C50 120.2(5) . .
C54 C49 C15 119.4(5) . .
C50 C49 C15 120.4(5) . .
C49 C50 C51 120.2(5) . .
C49 C50 H50A 119.9 . .
C51 C50 H50A 119.9 . .
C52 C51 C50 118.3(5) . .
C52 C51 C65 120.6(5) . .
C50 C51 C65 121.1(5) . .
C53 C52 C51 121.7(5) . .
C53 C52 H52A 119.1 . .
C51 C52 H52A 119.1 . .
C52 C53 C54 118.6(5) . .
C52 C53 C66 121.4(5) . .
C54 C53 C66 120.0(5) . .
C49 C54 C53 121.0(5) . .
C49 C54 H54A 119.5 . .
C53 C54 H54A 119.5 . .
C56 C55 C60 120.3(5) . .
C56 C55 C20 120.9(5) . .
C60 C55 C20 118.7(5) . .
C55 C56 C57 121.2(6) . .
C55 C56 H56A 119.4 . .
C57 C56 H56A 119.4 . .
C58 C57 C56 117.9(6) . .
C58 C57 C67 122.1(6) . .
C56 C57 C67 120.0(6) . .
C59 C58 C57 122.1(6) . .
C59 C58 H58A 118.9 . .
C57 C58 H58A 118.9 . .
C58 C59 C60 118.9(6) . .
C58 C59 C68 122.4(6) . .
C60 C59 C68 118.7(7) . .
C55 C60 C59 119.5(6) . .
C55 C60 H60A 120.2 . .
C59 C60 H60A 120.2 . .
C39 C61 H61A 109.5 . .
C39 C61 H61B 109.5 . .
H61A C61 H61B 109.5 . .
C39 C61 H61C 109.5 . .
H61A C61 H61C 109.5 . .
H61B C61 H61C 109.5 . .
C41 C62 H62A 109.5 . .
C41 C62 H62B 109.5 . .
H62A C62 H62B 109.5 . .
C41 C62 H62C 109.5 . .
H62A C62 H62C 109.5 . .
H62B C62 H62C 109.5 . .
C45 C63 H63A 109.5 . .
C45 C63 H63B 109.5 . .
H63A C63 H63B 109.5 . .
C45 C63 H63C 109.5 . .
H63A C63 H63C 109.5 . .
H63B C63 H63C 109.5 . .
C47 C64 H64A 109.5 . .
C47 C64 H64B 109.5 . .
H64A C64 H64B 109.5 . .
C47 C64 H64C 109.5 . .
H64A C64 H64C 109.5 . .
H64B C64 H64C 109.5 . .
C51 C65 H65A 109.5 . .
C51 C65 H65B 109.5 . .
H65A C65 H65B 109.5 . .
C51 C65 H65C 109.5 . .
H65A C65 H65C 109.5 . .
H65B C65 H65C 109.5 . .
C53 C66 H66A 109.5 . .
C53 C66 H66B 109.5 . .
H66A C66 H66B 109.5 . .
C53 C66 H66C 109.5 . .
H66A C66 H66C 109.5 . .
H66B C66 H66C 109.5 . .
C57 C67 H67A 109.5 . .
C57 C67 H67B 109.5 . .
H67A C67 H67B 109.5 . .
C57 C67 H67C 109.5 . .
H67A C67 H67C 109.5 . .
H67B C67 H67C 109.5 . .
C59 C68 H68A 109.5 . .
C59 C68 H68B 109.5 . .
H68A C68 H68B 109.5 . .
C59 C68 H68C 109.5 . .
H68A C68 H68C 109.5 . .
H68B C68 H68C 109.5 . .
loop_
_geom_bond_atom_site_label_1
_geom_bond_atom_site_label_2
_geom_bond_distance
_geom_bond_site_symmetry_2
Fe1 N3 1.976(4) .
Fe1 N1 1.977(4) .
Fe1 N2 1.999(4) .
Fe1 N4 2.001(4) .
Fe1 I1 2.5236(10) .
N1 C4 1.383(6) .
N1 C1 1.385(6) .
N2 C6 1.386(6) .
N2 C9 1.392(6) .
N3 C14 1.380(6) .
N3 C11 1.400(6) .
N4 C16 1.376(6) .
N4 C19 1.387(6) .
C1 C20 1.393(7) .
C1 C2 1.439(8) .
C2 C3 1.365(8) .
C2 C21 1.511(8) .
C3 C4 1.461(7) .
C3 C23 1.492(8) .
C4 C5 1.383(7) .
C5 C6 1.399(7) .
C5 C37 1.506(7) .
C6 C7 1.437(7) .
C7 C8 1.362(7) .
C7 C25 1.507(7) .
C8 C9 1.445(7) .
C8 C27 1.518(7) .
C9 C10 1.407(7) .
C10 C11 1.381(7) .
C10 C43 1.492(6) .
C11 C12 1.464(7) .
C12 C13 1.375(7) .
C12 C29 1.493(7) .
C13 C14 1.450(7) .
C13 C31 1.503(7) .
C14 C15 1.402(7) .
C15 C16 1.393(7) .
C15 C49 1.515(7) .
C16 C17 1.453(7) .
C17 C18 1.371(8) .
C17 C33 1.505(8) .
C18 C19 1.443(8) .
C18 C35 1.517(7) .
C19 C20 1.400(8) .
C20 C55 1.513(7) .
C21 C22 1.542(10) .
C21 H21A 0.9900 .
C21 H21B 0.9900 .
C22 H22A 0.9800 .
C22 H22B 0.9800 .
C22 H22C 0.9800 .
C23 C24 1.558(9) .
C23 H23A 0.9900 .
C23 H23B 0.9900 .
C24 H24A 0.9800 .
C24 H24B 0.9800 .
C24 H24C 0.9800 .
C25 C26 1.524(8) .
C25 H25A 0.9900 .
C25 H25B 0.9900 .
C26 H26A 0.9800 .
C26 H26B 0.9800 .
C26 H26C 0.9800 .
C27 C28 1.526(8) .
C27 H27A 0.9900 .
C27 H27B 0.9900 .
C28 H28A 0.9800 .
C28 H28B 0.9800 .
C28 H28C 0.9800 .
C29 C30 1.524(8) .
C29 H29A 0.9900 .
C29 H29B 0.9900 .
C30 H30A 0.9800 .
C30 H30B 0.9800 .
C30 H30C 0.9800 .
C31 C32 1.539(8) .
C31 H31A 0.9900 .
C31 H31B 0.9900 .
C32 H32A 0.9800 .
C32 H32B 0.9800 .
C32 H32C 0.9800 .
C33 C34 1.517(10) .
C33 H33A 0.9900 .
C33 H33B 0.9900 .
C34 H34A 0.9800 .
C34 H34B 0.9800 .
C34 H34C 0.9800 .
C35 C36 1.556(9) .
C35 H35A 0.9900 .
C35 H35B 0.9900 .
C36 H36A 0.9800 .
C36 H36B 0.9800 .
C36 H36C 0.9800 .
C37 C42 1.369(8) .
C37 C38 1.403(8) .
C38 C39 1.388(8) .
C38 H38A 0.9500 .
C39 C40 1.377(11) .
C39 C61 1.531(10) .
C40 C41 1.375(12) .
C40 H40A 0.9500 .
C41 C42 1.396(9) .
C41 C62 1.504(11) .
C42 H42A 0.9500 .
C43 C48 1.384(7) .
C43 C44 1.392(7) .
C44 C45 1.390(7) .
C44 H44A 0.9500 .
C45 C46 1.391(8) .
C45 C63 1.513(9) .
C46 C47 1.376(8) .
C46 H46A 0.9500 .
C47 C48 1.392(7) .
C47 C64 1.514(7) .
C48 H48A 0.9500 .
C49 C54 1.376(7) .
C49 C50 1.388(7) .
C50 C51 1.405(7) .
C50 H50A 0.9500 .
C51 C52 1.394(7) .
C51 C65 1.502(8) .
C52 C53 1.387(7) .
C52 H52A 0.9500 .
C53 C54 1.391(7) .
C53 C66 1.509(7) .
C54 H54A 0.9500 .
C55 C56 1.365(8) .
C55 C60 1.395(8) .
C56 C57 1.398(8) .
C56 H56A 0.9500 .
C57 C58 1.385(10) .
C57 C67 1.504(9) .
C58 C59 1.379(10) .
C58 H58A 0.9500 .
C59 C60 1.400(9) .
C59 C68 1.524(10) .
C60 H60A 0.9500 .
C61 H61A 0.9800 .
C61 H61B 0.9800 .
C61 H61C 0.9800 .
C62 H62A 0.9800 .
C62 H62B 0.9800 .
C62 H62C 0.9800 .
C63 H63A 0.9800 .
C63 H63B 0.9800 .
C63 H63C 0.9800 .
C64 H64A 0.9800 .
C64 H64B 0.9800 .
C64 H64C 0.9800 .
C65 H65A 0.9800 .
C65 H65B 0.9800 .
C65 H65C 0.9800 .
C66 H66A 0.9800 .
C66 H66B 0.9800 .
C66 H66C 0.9800 .
C67 H67A 0.9800 .
C67 H67B 0.9800 .
C67 H67C 0.9800 .
C68 H68A 0.9800 .
C68 H68B 0.9800 .
C68 H68C 0.9800 .
