#------------------------------------------------------------------------------
#$Date: 2019-11-17 05:39:34 +0200 (Sun, 17 Nov 2019) $
#$Revision: 228183 $
#$URL: file:///home/coder/svn-repositories/cod/cif/7/12/09/7120965.cif $
#------------------------------------------------------------------------------
#
# This file is available in the Crystallography Open Database (COD),
# http://www.crystallography.net/
#
# All data on this site have been placed in the public domain by the
# contributors.
#
data_7120965
loop_
_publ_author_name
'Rhauderwiek, Timo'
'Wolkersd\"orfer, Konrad'
'\/Oien-\/Odegaard, Sigurd'
'Lillerud, Karl-Petter'
'Wark, Michael'
'Stock, Norbert'
_publ_section_title
;
 Crystalline and permanently porous porphyrin-based metal
 tetraphosphonates.
;
_journal_issue                   4
_journal_name_full
'Chemical communications (Cambridge, England)'
_journal_page_first              389
_journal_page_last               392
_journal_paper_doi               10.1039/c7cc07766a
_journal_volume                  54
_journal_year                    2018
_chemical_formula_moiety         'C44 H24 N4 Ni2 O13 P4, O, 1.5(C)'
_chemical_formula_sum            'C45.5 H24 N4 Ni2 O14 P4'
_chemical_formula_weight         1091.95
_chemical_name_common            Ni-CAU-29
_space_group_crystal_system      triclinic
_space_group_IT_number           2
_space_group_name_Hall           '-P 1'
_space_group_name_H-M_alt        'P -1'
_symmetry_space_group_name_Hall  '-P 1'
_symmetry_space_group_name_H-M   'P -1'
_atom_sites_solution_hydrogens   mixed
_audit_creation_date             2017-12-06
_audit_creation_method
;
Olex2 1.2
(compiled 2017.08.10 svn.r3458 for OlexSys, GUI svn.r5381)
;
_audit_update_record
;
2017-12-08 deposited with the CCDC.
2017-12-08 downloaded from the CCDC.
;
_cell_angle_alpha                94.723(9)
_cell_angle_beta                 97.602(9)
_cell_angle_gamma                97.880(9)
_cell_formula_units_Z            2
_cell_length_a                   9.561(5)
_cell_length_b                   15.086(9)
_cell_length_c                   16.722(9)
_cell_measurement_reflns_used    1296
_cell_measurement_temperature    100(2)
_cell_measurement_theta_max      14.156
_cell_measurement_theta_min      2.48
_cell_volume                     2356(2)
_computing_cell_refinement       'APEX3 (Bruker AXS, 2016)'
_computing_data_collection       'APEX3 (Bruker AXS, 2016)'
_computing_data_reduction        'APEX3 (Bruker AXS, 2016)'
_computing_molecular_graphics    'Diamond v4 (Brandenburg, 2012)'
_computing_publication_material  'Olex2 (Dolomanov et al., 2009)'
_computing_structure_refinement  'SHELXL (Sheldrick, 2015b)'
_computing_structure_solution    'SHELXT (Sheldrick, 2015a)'
_diffrn_ambient_temperature      100.15
_diffrn_detector                 'CCD area detector'
_diffrn_detector_area_resol_mean 13.6986
_diffrn_detector_type            'Marmosaic 225'
_diffrn_measured_fraction_theta_full 0.993
_diffrn_measured_fraction_theta_max 0.993
_diffrn_measurement_device       '\k-geometry diffractometer'
_diffrn_measurement_device_type  'MD2 microdiffractometer with MK3 mini-kappa'
_diffrn_measurement_method       '\f scans'
_diffrn_radiation_collimation    'Rh-coated Si focusing mirrors'
_diffrn_radiation_monochromator  'Silicon 111'
_diffrn_radiation_probe          x-ray
_diffrn_radiation_type           synchrotron
_diffrn_radiation_wavelength     0.76000
_diffrn_reflns_av_R_equivalents  0.1182
_diffrn_reflns_av_unetI/netI     0.1096
_diffrn_reflns_Laue_measured_fraction_full 0.993
_diffrn_reflns_Laue_measured_fraction_max 0.993
_diffrn_reflns_limit_h_max       6
_diffrn_reflns_limit_h_min       -6
_diffrn_reflns_limit_k_max       10
_diffrn_reflns_limit_k_min       -10
_diffrn_reflns_limit_l_max       12
_diffrn_reflns_limit_l_min       -12
_diffrn_reflns_number            6040
_diffrn_reflns_point_group_measured_fraction_full 0.993
_diffrn_reflns_point_group_measured_fraction_max 0.993
_diffrn_reflns_theta_full        14.857
_diffrn_reflns_theta_max         14.857
_diffrn_reflns_theta_min         2.174
_diffrn_source                   synchrotron
_diffrn_source_type              'Wiggler, Station I911-3, MAX II, MAXLAB'
_diffrn_standards_number         0
_exptl_absorpt_coefficient_mu    1.006
_exptl_absorpt_correction_T_max  0.7438
_exptl_absorpt_correction_T_min  0.5770
_exptl_absorpt_correction_type   multi-scan
_exptl_absorpt_process_details
'SADABS-2016/2 (Bruker,2016/2) was used for absorption correction. wR2(int) was 0.1163 before and 0.0915 after correction. The Ratio of minimum to maximum transmission is 0.7757. The \l/2 correction factor is Not present.'
_exptl_crystal_colour            red
_exptl_crystal_density_diffrn    1.539
_exptl_crystal_description       plate
_exptl_crystal_F_000             1106
_exptl_crystal_recrystallization_method 'solvothermal synthesis'
_exptl_crystal_size_max          0.02
_exptl_crystal_size_mid          0.01
_exptl_crystal_size_min          0.005
_exptl_transmission_factor_max   1.000
_exptl_transmission_factor_min   0.7757
_refine_diff_density_max         0.598
_refine_diff_density_min         -0.613
_refine_diff_density_rms         0.126
_refine_ls_extinction_method     none
_refine_ls_goodness_of_fit_ref   1.134
_refine_ls_hydrogen_treatment    constr
_refine_ls_matrix_type           full
_refine_ls_number_parameters     324
_refine_ls_number_reflns         1832
_refine_ls_number_restraints     0
_refine_ls_restrained_S_all      1.134
_refine_ls_R_factor_all          0.1615
_refine_ls_R_factor_gt           0.0997
_refine_ls_shift/su_max          0.000
_refine_ls_shift/su_mean         0.000
_refine_ls_structure_factor_coef Fsqd
_refine_ls_weighting_details
'w=1/[\s^2^(Fo^2^)+(0.1018P)^2^+84.9111P] where P=(Fo^2^+2Fc^2^)/3'
_refine_ls_weighting_scheme      calc
_refine_ls_wR_factor_gt          0.2346
_refine_ls_wR_factor_ref         0.2839
_reflns_Friedel_coverage         0.000
_reflns_number_gt                1180
_reflns_number_total             1832
_reflns_threshold_expression     'I > 2\s(I)'
_iucr_refine_instructions_details
;

    mo_tr_nitppp2_0m_pl.res created by SHELXL-2014/7

TITL mo_tr_nitpP -10m R = 0.10
CELL 0.71073 9.561 15.086 16.722 94.723 97.602 97.88
ZERR 2 0.005 0.009 0.009 0.009 0.009 0.009
LATT 1
SFAC  C 2.310 20.844 1.02 10.208 1.589 0.569 0.865 51.651 0.216 0.003 0.002 =
 11.5 0.68 12.01
SFAC  H 0.493 10.511 0.323 26.126 0.14 3.142 0.041 57.8 0.003 0 0 0.624 =
 0.35 1.008
SFAC  N 12.213 0.006 3.132 9.893 2.013 28.998 1.166 0.583 -11.529 0.006 =
 0.003 19.6 0.68 14.01
SFAC  Ni 12.838 3.878 7.292 0.257 4.444 12.176 2.38 66.342 1.034 0.339 =
 1.112 4570 1.5 58.69
SFAC  O 3.049 13.277 2.287 5.701 1.546 0.324 0.867 32.909 0.251 0.011 0.006 =
 32.5 0.68 16
SFAC  P 6.435 1.907 4.179 27.157 1.78 0.526 1.491 68.165 1.115 0.102 0.094 =
 410 1.05 30.97
UNIT 91 48 8 4 28 8
 
L.S. 25
PLAN  -20
SIZE 0.02 0.01 0.005
TEMP -173
BOND $H
CONF
fmap 2
acta
OMIT 1 -1 0
REM <olex2.extras>
REM <HklSrc "%.\\mo_TR_NiTPPP2_0m.hkl">
REM </olex2.extras>
 
WGHT    0.101800   84.911102
FVAR       0.40312
NI1   4    0.606413    0.997394    0.933931    11.00000    0.07068    0.03985 =
         0.04553    0.00839    0.02690    0.02697
NI2   4    0.748286    0.518595    0.436759    11.00000    0.08600    0.03153 =
         0.04368    0.00381    0.02394    0.01994
P2    6    0.435177    0.806952   -0.020622    11.00000    0.06563    0.04079 =
         0.05287    0.01007    0.02407    0.01818
P4    6    0.843556    0.146665    0.866955    11.00000    0.08130    0.05729 =
         0.03486   -0.00418    0.01195    0.01799
P3    6    1.152050    0.126096    0.092872    11.00000    0.07787    0.05173 =
         0.04382    0.00277    0.03144    0.03281
P1    6    0.413105    0.972696    0.756609    11.00000    0.09041    0.03437 =
         0.06468    0.00516    0.02894    0.01341
O4    5    0.488758    0.907174   -0.000864    11.00000    0.03521
O7    5    1.294318    0.102355    0.115323    11.00000    0.04727
O10   5    0.698076    0.096212    0.865691    11.00000    0.04287
O11   5    0.953542    0.084749    0.841447    11.00000    0.04241
O12   5    0.905361    0.199659    0.948239    11.00000    0.04738
O5    5    0.273874    0.778836   -0.042719    11.00000    0.04165
O6    5    0.500818    0.772899   -0.096664    11.00000    0.04544
O13   5    0.765278    1.019595    1.036702    11.00000    0.05212
O1    5    0.431716    0.968551    0.847524    11.00000    0.03666
O8    5    1.147136    0.177949    0.015431    11.00000    0.05694
O2    5    0.258017    0.967818    0.713212    11.00000    0.06858
O9    5    1.040766    0.041777    0.079763    11.00000    0.06076
O3    5    0.501677    1.062872    0.741801    11.00000    0.06072
N4    3    0.765810    0.501693    0.326048    11.00000    0.01933
N2    3    0.710209    0.528401    0.548529    11.00000    0.04538
N3    3    0.850046    0.420811    0.458729    11.00000    0.03418
N1    3    0.663577    0.625168    0.418456    11.00000    0.03815
C36   1    0.975472    0.321783    0.525181    11.00000    0.02937
AFIX  43
H36   2    1.013825    0.290777    0.568162    11.00000   -1.20000
AFIX   0
C6    1    0.630214    0.685948    0.476415    11.00000    0.02699
C18   1    0.645912    0.660518    0.343049    11.00000    0.04297
C17   1    0.656995    0.622918    0.269091    11.00000    0.04662
C16   1    0.703943    0.538889    0.263557    11.00000    0.04322
C15   1    0.832185    0.434614    0.288772    11.00000    0.03505
C29   1    0.985851    0.318313    0.274413    11.00000    0.05366
C30   1    0.960687    0.225812    0.275478    11.00000    0.07789
AFIX  43
H30   2    0.905284    0.201262    0.313759    11.00000   -1.20000
AFIX   0
C31   1    1.014419    0.167377    0.221850    11.00000    0.06840
AFIX  43
H31   2    0.992537    0.104078    0.222288    11.00000   -1.20000
AFIX   0
C32   1    1.103493    0.204652    0.165911    11.00000    0.05491
C33   1    1.139571    0.297052    0.168855    11.00000    0.08057
AFIX  43
H33   2    1.207157    0.323212    0.137477    11.00000   -1.20000
AFIX   0
C34   1    1.073516    0.349657    0.219148    11.00000    0.08060
AFIX  43
H34   2    1.089064    0.412733    0.215875    11.00000   -1.20000
AFIX   0
C10   1    0.727136    0.462595    0.607150    11.00000    0.05264
C11   1    0.812043    0.399446    0.598660    11.00000    0.04667
C20   1    0.588347    0.761923    0.440164    11.00000    0.06065
AFIX  43
H20   2    0.555130    0.811379    0.466724    11.00000   -1.20000
AFIX   0
C19   1    0.604559    0.750932    0.359999    11.00000    0.05189
AFIX  43
H19   2    0.591665    0.793549    0.321915    11.00000   -1.20000
AFIX   0
C13   1    0.925154    0.375400    0.410832    11.00000    0.04662
C5    1    0.619515    0.672744    0.554706    11.00000    0.04612
C21   1    0.597436    0.662468    0.196035    11.00000    0.05885
C22   1    0.672348    0.743784    0.176705    11.00000    0.06344
AFIX  43
H22   2    0.757171    0.768384    0.212260    11.00000   -1.20000
AFIX   0
C23   1    0.634822    0.792157    0.110527    11.00000    0.03452
AFIX  43
H23   2    0.690225    0.844789    0.097474    11.00000   -1.20000
AFIX   0
C24   1    0.501104    0.750229    0.066050    11.00000    0.02369
C25   1    0.422275    0.672114    0.079835    11.00000    0.05376
AFIX  43
H25   2    0.335600    0.647743    0.045838    11.00000   -1.20000
AFIX   0
C26   1    0.474627    0.629271    0.146362    11.00000    0.05849
AFIX  43
H26   2    0.421626    0.574595    0.157029    11.00000   -1.20000
AFIX   0
C37   1    0.827771    0.340402    0.664708    11.00000    0.04261
C38   1    0.889546    0.370322    0.741783    11.00000    0.05781
AFIX  43
H38   2    0.929347    0.431914    0.754503    11.00000   -1.20000
AFIX   0
C39   1    0.895630    0.313956    0.801150    11.00000    0.07120
AFIX  43
H39   2    0.942301    0.337528    0.853831    11.00000   -1.20000
AFIX   0
C40   1    0.834885    0.220453    0.788070    11.00000    0.04585
C41   1    0.776534    0.190449    0.708099    11.00000    0.08819
AFIX  43
H41   2    0.742750    0.128074    0.694784    11.00000   -1.20000
AFIX   0
C42   1    0.764965    0.247587    0.646003    11.00000    0.07486
AFIX  43
H42   2    0.717043    0.225506    0.593227    11.00000   -1.20000
AFIX   0
C12   1    0.872837    0.380848    0.532508    11.00000    0.03561
C7    1    0.643700    0.591573    0.588868    11.00000    0.05847
C35   1    1.010831    0.315270    0.451860    11.00000    0.04260
AFIX  43
H35   2    1.075706    0.280282    0.430940    11.00000   -1.20000
AFIX   0
C14   1    0.908418    0.376629    0.325431    11.00000    0.04974
C1    1    0.486496    0.878616    0.703386    11.00000    0.06013
PART 1
C2    1    0.399610    0.796593    0.690499    10.66000    0.04971
AFIX  43
H2    2    0.312299    0.786407    0.711965    10.66000   -1.20000
AFIX   0
C3    1    0.447865    0.729807    0.644135    10.66000    0.04703
AFIX  43
H3    2    0.393012    0.671495    0.636490    10.66000   -1.20000
AFIX   0
PART 0
C4    1    0.570423    0.742321    0.608265    11.00000    0.05082
PART 1
C43   1    0.649197    0.817844    0.635631    11.00000    0.08531
AFIX  43
H43   2    0.744499    0.823560    0.624104    11.00000   -1.20000
AFIX   0
C44   1    0.614356    0.893128    0.680164    11.00000    0.09439
AFIX  43
H44   2    0.676376    0.948830    0.692363    11.00000   -1.20000
AFIX   0
PART 0
C27   1    0.717649    0.496180    0.181991    11.00000    0.05963
AFIX  43
H27   2    0.680910    0.511169    0.130043    11.00000   -1.20000
AFIX   0
C28   1    0.795821    0.430581    0.200856    11.00000    0.05577
AFIX  43
H28   2    0.822922    0.388329    0.162704    11.00000   -1.20000
AFIX   0
C8    1    0.610487    0.565441    0.664105    11.00000    0.06587
AFIX  43
H8    2    0.564489    0.597442    0.701673    11.00000   -1.20000
AFIX   0
C9    1    0.655773    0.488469    0.671545    11.00000    0.07923
AFIX  43
H9    2    0.642089    0.453763    0.715536    11.00000   -1.20000
AFIX   0
PART -1
C46   1    0.377729    0.837456    0.632409    10.34000    0.06516
AFIX   3
H46   2    0.294529    0.863856    0.617209    10.34000   -1.20000
AFIX   0
C45   1    0.424306    0.753873    0.586120    10.34000    0.03438
AFIX   3
H45   2    0.367006    0.720453    0.539520    10.34000   -1.20000
AFIX   0
 
O14   5    0.090919    1.077898    0.710711    11.00000    0.22392    0.08862 =
         0.12128    0.03083    0.08096    0.08651
C47   1   -0.163124    1.091573    0.453960    10.50000    0.11525
C48   1   -0.084618    1.005245    0.567803    11.00000    0.21895
HKLF 4
 
REM  mo_tr_nitpP -10m R = 0.10
REM R1 =  0.0997 for    1180 Fo > 4sig(Fo)  and  0.1615 for all    1832 data
REM    324 parameters refined using      0 restraints
 
END  
     
WGHT      0.0991     88.5350 

REM Highest difference peak  0.598,  deepest hole -0.613,  1-sigma level  0.126
Q1    1   0.0000  1.0000  0.5000  10.50000  0.05    0.60
Q2    1   0.5811  0.4785  0.4009  11.00000  0.05    0.60
Q3    1   1.3618  0.1768  0.1112  11.00000  0.05    0.54
Q4    1   0.0848  0.0066  0.7971  11.00000  0.05    0.53
Q5    1   0.0396  1.1051  0.5559  11.00000  0.05    0.50
Q6    1  -0.2266  1.0129  0.4865  11.00000  0.05    0.44
Q7    1   0.7845  1.0288  0.9587  11.00000  0.05    0.42
Q8    1   1.0894  0.0225  0.1246  11.00000  0.05    0.42
Q9    1   0.5897  0.4889  0.5402  11.00000  0.05    0.41
Q10   1   0.7545  0.5949  0.7002  11.00000  0.05    0.39
Q11   1   0.8022  0.5540  0.2253  11.00000  0.05    0.39
Q12   1   0.7820  1.0510  0.8634  11.00000  0.05    0.37
Q13   1   1.0442  0.2056  0.9662  11.00000  0.05    0.36
Q14   1   0.8996  0.5677  0.4513  11.00000  0.05    0.35
Q15   1   0.8283  0.7615  0.2106  11.00000  0.05    0.35
Q16   1   0.2825  0.9325  0.8203  11.00000  0.05    0.34
Q17   1   0.9912  0.0627  0.0414  11.00000  0.05    0.34
Q18   1   0.9079  1.0388  1.0549  11.00000  0.05    0.34
Q19   1   0.5454  0.5744  0.5639  11.00000  0.05    0.34
Q20   1   0.9560  0.5772  0.4413  11.00000  0.05    0.34

  REM The information below was added by Olex2.
  REM
  REM R1 = 0.0997 for 1180 Fo > 4sig(Fo) and 0.1615 for all 6040 data
  REM n/a parameters refined using n/a restraints
  REM Highest difference peak 0.60, deepest hole -0.61
  REM Mean Shift 0, Max Shift 0.000.

  REM +++ Tabular Listing of Refinement Information +++
  REM R1_all = 0.1615
  REM R1_gt = 0.0997
  REM wR_ref = 0.2839
  REM GOOF = 1.134
  REM Shift_max = 0.000
  REM Shift_mean = 0
  REM Reflections_all = 6040
  REM Reflections_gt = 1180
  REM Parameters = n/a
  REM Hole = -0.61
  REM Peak = 0.60
  REM Flack = n/a

  
;
_cod_data_source_file            c7cc07766a2.cif
_cod_data_source_block           mo_tr_nitppp2_0m_pl
_cod_depositor_comments          'Adding full bibliography for 7120965.cif.'
_cod_original_formula_sum        'C45.50 H24 N4 Ni2 O14 P4'
_cod_database_code               7120965
_shelx_shelxl_version_number     2014/7
_shelx_space_group_comment
;
The symmetry employed for this shelxl refinement is uniquely defined
by the following loop, which should always be used as a source of
symmetry information in preference to the above space-group names.
They are only intended as comments.
;
_shelx_estimated_absorpt_t_max   0.995
_shelx_estimated_absorpt_t_min   0.980
_olex2_refinement_description
;
1. Fixed Uiso
 At 1.2 times of:
  All C(H) groups
2. Others
 Fixed Sof: C2(0.66) H2(0.66) C3(0.66) H3(0.66) C46(0.34) H46(0.34) C45(0.34)
 H45(0.34) C47(0.5)
3.a Riding coordinates:
 C46(H46), C45(H45)
3.b Aromatic/amide H refined with riding coordinates:
 C36(H36), C30(H30), C31(H31), C33(H33), C34(H34), C20(H20), C19(H19),
 C22(H22), C23(H23), C25(H25), C26(H26), C38(H38), C39(H39), C41(H41), C42(H42),
  C35(H35), C2(H2), C3(H3), C43(H43), C44(H44), C27(H27), C28(H28), C8(H8),
 C9(H9)
;
_olex2_submission_special_instructions 'No special instructions were received'
loop_
_space_group_symop_operation_xyz
'x, y, z'
'-x, -y, -z'
loop_
_atom_site_label
_atom_site_type_symbol
_atom_site_fract_x
_atom_site_fract_y
_atom_site_fract_z
_atom_site_U_iso_or_equiv
_atom_site_adp_type
_atom_site_occupancy
_atom_site_site_symmetry_order
_atom_site_calc_flag
_atom_site_refinement_flags_posn
_atom_site_refinement_flags_occupancy
_atom_site_disorder_assembly
_atom_site_disorder_group
Ni1 Ni 0.6064(5) 0.9974(3) 0.9339(3) 0.048(2) Uani 1 1 d . . . .
Ni2 Ni 0.7483(6) 0.5186(3) 0.4368(3) 0.051(2) Uani 1 1 d . . . .
P2 P 0.4352(13) 0.8070(7) -0.0206(7) 0.050(4) Uani 1 1 d . . . .
P4 P 0.8436(14) 0.1467(8) 0.8670(7) 0.057(4) Uani 1 1 d . . . .
P3 P 1.1521(13) 0.1261(8) 0.0929(7) 0.054(4) Uani 1 1 d . . . .
P1 P 0.4131(14) 0.9727(7) 0.7566(8) 0.061(4) Uani 1 1 d . . . .
O4 O 0.489(2) 0.9072(15) -0.0009(12) 0.035(7) Uiso 1 1 d . . . .
O7 O 1.294(3) 0.1024(14) 0.1153(13) 0.047(8) Uiso 1 1 d . . . .
O10 O 0.698(3) 0.0962(15) 0.8657(13) 0.043(8) Uiso 1 1 d . . . .
O11 O 0.954(2) 0.0847(14) 0.8414(12) 0.042(7) Uiso 1 1 d . . . .
O12 O 0.905(2) 0.1997(15) 0.9482(15) 0.047(8) Uiso 1 1 d . . . .
O5 O 0.274(3) 0.7788(14) -0.0427(13) 0.042(7) Uiso 1 1 d . . . .
O6 O 0.501(2) 0.7729(14) -0.0967(14) 0.045(7) Uiso 1 1 d . . . .
O13 O 0.765(2) 1.0196(14) 1.0367(13) 0.052(8) Uiso 1 1 d . . . .
O1 O 0.432(2) 0.9686(13) 0.8475(15) 0.037(7) Uiso 1 1 d . . . .
O8 O 1.147(2) 0.1779(15) 0.0154(15) 0.057(8) Uiso 1 1 d . . . .
O2 O 0.258(3) 0.9678(16) 0.7132(15) 0.069(9) Uiso 1 1 d . . . .
O9 O 1.041(3) 0.0418(18) 0.0798(14) 0.061(8) Uiso 1 1 d . . . .
O3 O 0.502(2) 1.0629(17) 0.7418(14) 0.061(8) Uiso 1 1 d . . . .
N4 N 0.766(3) 0.5017(16) 0.3260(15) 0.019(8) Uiso 1 1 d . . . .
N2 N 0.710(3) 0.5284(19) 0.5485(17) 0.045(9) Uiso 1 1 d . . . .
N3 N 0.850(3) 0.4208(17) 0.4587(17) 0.034(9) Uiso 1 1 d . . . .
N1 N 0.664(3) 0.6252(18) 0.4185(17) 0.038(9) Uiso 1 1 d . . . .
C36 C 0.975(3) 0.322(2) 0.525(2) 0.029(11) Uiso 1 1 d . . . .
H36 H 1.0138 0.2908 0.5682 0.035 Uiso 1 1 calc R . . .
C6 C 0.630(3) 0.686(2) 0.476(2) 0.027(11) Uiso 1 1 d . . . .
C18 C 0.646(3) 0.661(2) 0.343(2) 0.043(12) Uiso 1 1 d . . . .
C17 C 0.657(4) 0.623(3) 0.269(2) 0.047(12) Uiso 1 1 d . . . .
C16 C 0.704(4) 0.539(2) 0.264(2) 0.043(12) Uiso 1 1 d . . . .
C15 C 0.832(4) 0.435(2) 0.289(2) 0.035(11) Uiso 1 1 d . . . .
C29 C 0.986(4) 0.318(3) 0.274(2) 0.054(13) Uiso 1 1 d . . . .
C30 C 0.961(4) 0.226(3) 0.275(2) 0.078(15) Uiso 1 1 d . . . .
H30 H 0.9053 0.2013 0.3138 0.093 Uiso 1 1 calc R . . .
C31 C 1.014(4) 0.167(3) 0.222(2) 0.068(14) Uiso 1 1 d . . . .
H31 H 0.9925 0.1041 0.2223 0.082 Uiso 1 1 calc R . . .
C32 C 1.103(4) 0.205(3) 0.166(2) 0.055(13) Uiso 1 1 d . . . .
C33 C 1.140(4) 0.297(3) 0.169(2) 0.081(15) Uiso 1 1 d . . . .
H33 H 1.2072 0.3232 0.1375 0.097 Uiso 1 1 calc R . . .
C34 C 1.074(4) 0.350(3) 0.219(2) 0.081(15) Uiso 1 1 d . . . .
H34 H 1.0891 0.4127 0.2159 0.097 Uiso 1 1 calc R . . .
C10 C 0.727(4) 0.463(3) 0.607(2) 0.053(13) Uiso 1 1 d . . . .
C11 C 0.812(4) 0.399(3) 0.599(2) 0.047(12) Uiso 1 1 d . . . .
C20 C 0.588(4) 0.762(3) 0.440(2) 0.061(13) Uiso 1 1 d . . . .
H20 H 0.5551 0.8114 0.4667 0.073 Uiso 1 1 calc R . . .
C19 C 0.605(3) 0.751(2) 0.360(2) 0.052(12) Uiso 1 1 d . . . .
H19 H 0.5917 0.7935 0.3219 0.062 Uiso 1 1 calc R . . .
C13 C 0.925(4) 0.375(2) 0.411(2) 0.047(12) Uiso 1 1 d . . . .
C5 C 0.620(4) 0.673(3) 0.555(2) 0.046(12) Uiso 1 1 d . . . .
C21 C 0.597(4) 0.662(3) 0.196(2) 0.059(13) Uiso 1 1 d . . . .
C22 C 0.672(4) 0.744(3) 0.177(2) 0.063(13) Uiso 1 1 d . . . .
H22 H 0.7572 0.7684 0.2123 0.076 Uiso 1 1 calc R . . .
C23 C 0.635(4) 0.792(2) 0.111(2) 0.035(11) Uiso 1 1 d . . . .
H23 H 0.6902 0.8448 0.0975 0.041 Uiso 1 1 calc R . . .
C24 C 0.501(4) 0.750(2) 0.0660(19) 0.024(10) Uiso 1 1 d . . . .
C25 C 0.422(4) 0.672(2) 0.080(2) 0.054(13) Uiso 1 1 d . . . .
H25 H 0.3356 0.6477 0.0458 0.065 Uiso 1 1 calc R . . .
C26 C 0.475(4) 0.629(3) 0.146(2) 0.058(13) Uiso 1 1 d . . . .
H26 H 0.4216 0.5746 0.1570 0.070 Uiso 1 1 calc R . . .
C37 C 0.828(4) 0.340(2) 0.665(2) 0.043(12) Uiso 1 1 d . . . .
C38 C 0.890(4) 0.370(3) 0.742(2) 0.058(13) Uiso 1 1 d . . . .
H38 H 0.9293 0.4319 0.7545 0.069 Uiso 1 1 calc R . . .
C39 C 0.896(4) 0.314(3) 0.801(2) 0.071(14) Uiso 1 1 d . . . .
H39 H 0.9423 0.3375 0.8538 0.085 Uiso 1 1 calc R . . .
C40 C 0.835(4) 0.220(2) 0.788(2) 0.046(12) Uiso 1 1 d . . . .
C41 C 0.777(4) 0.190(3) 0.708(3) 0.088(16) Uiso 1 1 d . . . .
H41 H 0.7428 0.1281 0.6948 0.106 Uiso 1 1 calc R . . .
C42 C 0.765(4) 0.248(3) 0.646(3) 0.075(14) Uiso 1 1 d . . . .
H42 H 0.7170 0.2255 0.5932 0.090 Uiso 1 1 calc R . . .
C12 C 0.873(4) 0.381(2) 0.533(2) 0.036(11) Uiso 1 1 d . . . .
C7 C 0.644(4) 0.592(3) 0.589(2) 0.058(13) Uiso 1 1 d . . . .
C35 C 1.011(4) 0.315(2) 0.452(2) 0.043(12) Uiso 1 1 d . . . .
H35 H 1.0757 0.2803 0.4309 0.051 Uiso 1 1 calc R . . .
C14 C 0.908(4) 0.377(2) 0.325(2) 0.050(12) Uiso 1 1 d . . . .
C1 C 0.486(5) 0.879(3) 0.703(2) 0.060(13) Uiso 1 1 d . . . .
C2 C 0.400(6) 0.797(4) 0.690(3) 0.050(19) Uiso 0.66 1 d . P A 1
H2 H 0.3123 0.7864 0.7120 0.060 Uiso 0.66 1 calc R P A 1
C3 C 0.448(6) 0.730(4) 0.644(4) 0.047(19) Uiso 0.66 1 d . P A 1
H3 H 0.3930 0.6715 0.6365 0.056 Uiso 0.66 1 calc R P A 1
C4 C 0.570(5) 0.742(3) 0.608(2) 0.051(12) Uiso 1 1 d . . . .
C43 C 0.649(5) 0.818(3) 0.636(2) 0.085(15) Uiso 1 1 d . . B 1
H43 H 0.7445 0.8236 0.6241 0.102 Uiso 1 1 calc R . B 1
C44 C 0.614(5) 0.893(3) 0.680(3) 0.094(16) Uiso 1 1 d . . B 1
H44 H 0.6764 0.9488 0.6924 0.113 Uiso 1 1 calc R . B 1
C27 C 0.718(4) 0.496(2) 0.182(2) 0.060(13) Uiso 1 1 d . . . .
H27 H 0.6809 0.5112 0.1300 0.072 Uiso 1 1 calc R . . .
C28 C 0.796(4) 0.431(2) 0.201(2) 0.056(13) Uiso 1 1 d . . . .
H28 H 0.8229 0.3883 0.1627 0.067 Uiso 1 1 calc R . . .
C8 C 0.610(4) 0.565(3) 0.664(2) 0.066(14) Uiso 1 1 d . . . .
H8 H 0.5645 0.5974 0.7017 0.079 Uiso 1 1 calc R . . .
C9 C 0.656(4) 0.488(3) 0.672(3) 0.079(15) Uiso 1 1 d . . . .
H9 H 0.6421 0.4538 0.7155 0.095 Uiso 1 1 calc R . . .
C46 C 0.378(12) 0.837(8) 0.632(7) 0.07(4) Uiso 0.34 1 d . P A -1
H46 H 0.2945 0.8639 0.6172 0.078 Uiso 0.34 1 d R P A -1
C45 C 0.424(11) 0.754(7) 0.586(7) 0.03(3) Uiso 0.34 1 d . P A -1
H45 H 0.3670 0.7205 0.5395 0.041 Uiso 0.34 1 d R P A -1
O14 O 0.091(4) 1.0779(19) 0.7107(18) 0.132(13) Uani 1 1 d . . C -1
C47 C -0.163(10) 1.092(6) 0.454(6) 0.12(4) Uiso 0.5 1 d . P D -1
C48 C -0.085(7) 1.005(5) 0.568(4) 0.22(3) Uiso 1 1 d . . E -1
loop_
_atom_site_aniso_label
_atom_site_aniso_U_11
_atom_site_aniso_U_22
_atom_site_aniso_U_33
_atom_site_aniso_U_23
_atom_site_aniso_U_13
_atom_site_aniso_U_12
Ni1 0.071(5) 0.040(4) 0.046(4) 0.008(3) 0.027(3) 0.027(3)
Ni2 0.086(5) 0.032(4) 0.044(4) 0.004(3) 0.024(3) 0.020(3)
P2 0.066(11) 0.041(10) 0.053(10) 0.010(7) 0.024(8) 0.018(8)
P4 0.081(12) 0.057(9) 0.035(10) -0.004(8) 0.012(8) 0.018(9)
P3 0.078(12) 0.052(10) 0.044(9) 0.003(7) 0.031(8) 0.033(9)
P1 0.090(12) 0.034(9) 0.065(12) 0.005(7) 0.029(9) 0.013(8)
O14 0.22(4) 0.09(2) 0.12(3) 0.03(2) 0.08(3) 0.09(3)
loop_
_atom_type_symbol
_atom_type_description
_atom_type_scat_dispersion_real
_atom_type_scat_dispersion_imag
_atom_type_scat_source
C C 0.0030 0.0020 'International Tables Vol C Tables 4.2.6.8 and 6.1.1.4'
H H 0.0000 0.0000 'International Tables Vol C Tables 4.2.6.8 and 6.1.1.4'
N N 0.0060 0.0030 'International Tables Vol C Tables 4.2.6.8 and 6.1.1.4'
Ni Ni 0.3390 1.1120 'International Tables Vol C Tables 4.2.6.8 and 6.1.1.4'
O O 0.0110 0.0060 'International Tables Vol C Tables 4.2.6.8 and 6.1.1.4'
P P 0.1020 0.0940 'International Tables Vol C Tables 4.2.6.8 and 6.1.1.4'
loop_
_geom_angle_atom_site_label_1
_geom_angle_atom_site_label_2
_geom_angle_atom_site_label_3
_geom_angle
_geom_angle_site_symmetry_1
_geom_angle_site_symmetry_3
O4 Ni1 Ni1 41.1(6) 1_556 2_677
O4 Ni1 Ni1 40.8(6) 2_676 2_677
O4 Ni1 O4 81.9(9) 1_556 2_676
O4 Ni1 O10 172.0(8) 1_556 1_565
O7 Ni1 Ni1 133.3(6) 2_766 2_677
O7 Ni1 O4 92.5(8) 2_766 1_556
O7 Ni1 O4 171.8(8) 2_766 2_676
O7 Ni1 O10 93.8(8) 2_766 1_565
O7 Ni1 O13 90.3(9) 2_766 .
O10 Ni1 Ni1 132.9(6) 1_565 2_677
O10 Ni1 O4 92.4(8) 1_565 2_676
O13 Ni1 Ni1 83.6(6) . 2_677
O13 Ni1 O4 83.4(8) . 2_676
O13 Ni1 O4 86.9(8) . 1_556
O13 Ni1 O10 98.1(9) . 1_565
O1 Ni1 Ni1 87.7(7) . 2_677
O1 Ni1 O4 84.4(8) . 1_556
O1 Ni1 O4 92.2(8) . 2_676
O1 Ni1 O7 93.3(9) . 2_766
O1 Ni1 O10 90.2(9) . 1_565
O1 Ni1 O13 170.7(9) . .
N4 Ni2 N2 173.9(11) . .
N4 Ni2 N3 91.0(11) . .
N4 Ni2 N1 90.0(11) . .
N3 Ni2 N2 89.7(12) . .
N3 Ni2 N1 174.2(11) . .
N1 Ni2 N2 90.0(12) . .
O4 P2 O5 116.9(13) . .
O4 P2 O6 108.0(13) . .
O4 P2 C24 107.7(15) . .
O5 P2 O6 105.5(13) . .
O5 P2 C24 109.6(14) . .
O6 P2 C24 109.0(13) . .
O10 P4 O11 113.0(13) . .
O10 P4 O12 113.6(14) . .
O10 P4 C40 108.0(15) . .
O11 P4 C40 102.6(14) . .
O12 P4 O11 108.7(13) . .
O12 P4 C40 110.4(16) . .
O7 P3 O8 110.6(14) . .
O7 P3 O9 110.1(14) . .
O7 P3 C32 113.5(16) . .
O8 P3 C32 102.4(16) . .
O9 P3 O8 111.2(14) . .
O9 P3 C32 109.0(17) . .
O1 P1 O2 116.6(14) . .
O1 P1 O3 106.6(14) . .
O1 P1 C1 111.6(15) . .
O2 P1 O3 108.8(14) . .
O2 P1 C1 105.3(17) . .
O3 P1 C1 107.7(17) . .
Ni1 O4 Ni1 98.1(9) 1_554 2_676
P2 O4 Ni1 130.1(13) . 1_554
P2 O4 Ni1 127.1(12) . 2_676
P3 O7 Ni1 130.9(14) . 2_766
P4 O10 Ni1 135.1(14) . 1_545
P1 O1 Ni1 131.9(13) . .
C16 N4 Ni2 130(2) . .
C16 N4 C15 104(3) . .
C15 N4 Ni2 126(2) . .
C10 N2 Ni2 127(3) . .
C7 N2 Ni2 130(3) . .
C7 N2 C10 103(3) . .
C13 N3 Ni2 130(3) . .
C13 N3 C12 102(3) . .
C12 N3 Ni2 128(2) . .
C6 N1 Ni2 127(2) . .
C6 N1 C18 108(3) . .
C18 N1 Ni2 124(2) . .
C12 C36 H36 124.0 . .
C35 C36 H36 124.0 . .
C35 C36 C12 112(3) . .
N1 C6 C20 110(3) . .
C5 C6 N1 126(3) . .
C5 C6 C20 123(4) . .
N1 C18 C19 106(3) . .
C17 C18 N1 130(4) . .
C17 C18 C19 125(4) . .
C18 C17 C16 118(4) . .
C18 C17 C21 120(4) . .
C16 C17 C21 122(4) . .
N4 C16 C17 125(4) . .
N4 C16 C27 115(3) . .
C17 C16 C27 119(4) . .
N4 C15 C28 109(3) . .
C14 C15 N4 127(4) . .
C14 C15 C28 123(4) . .
C30 C29 C34 116(4) . .
C30 C29 C14 119(4) . .
C34 C29 C14 125(4) . .
C29 C30 H30 119.0 . .
C29 C30 C31 122(4) . .
C31 C30 H30 119.0 . .
C30 C31 H31 120.5 . .
C30 C31 C32 119(4) . .
C32 C31 H31 120.5 . .
C31 C32 P3 116(3) . .
C33 C32 P3 124(3) . .
C33 C32 C31 120(4) . .
C32 C33 H33 121.3 . .
C34 C33 C32 117(4) . .
C34 C33 H33 121.3 . .
C29 C34 H34 117.1 . .
C33 C34 C29 126(4) . .
C33 C34 H34 117.1 . .
C11 C10 N2 122(4) . .
C11 C10 C9 131(4) . .
C9 C10 N2 106(4) . .
C10 C11 C37 117(4) . .
C12 C11 C10 125(4) . .
C12 C11 C37 118(4) . .
C6 C20 H20 126.2 . .
C19 C20 C6 108(4) . .
C19 C20 H20 126.2 . .
C18 C19 H19 126.0 . .
C20 C19 C18 108(4) . .
C20 C19 H19 126.0 . .
N3 C13 C35 115(4) . .
N3 C13 C14 123(4) . .
C14 C13 C35 122(4) . .
C6 C5 C7 123(4) . .
C6 C5 C4 120(4) . .
C7 C5 C4 116(4) . .
C22 C21 C17 118(4) . .
C26 C21 C17 126(4) . .
C26 C21 C22 116(4) . .
C21 C22 H22 116.4 . .
C23 C22 C21 127(4) . .
C23 C22 H22 116.4 . .
C22 C23 H23 125.1 . .
C22 C23 C24 110(3) . .
C24 C23 H23 125.1 . .
C23 C24 P2 115(3) . .
C25 C24 P2 118(3) . .
C25 C24 C23 127(3) . .
C24 C25 H25 121.4 . .
C24 C25 C26 117(4) . .
C26 C25 H25 121.4 . .
C21 C26 C25 123(4) . .
C21 C26 H26 118.6 . .
C25 C26 H26 118.6 . .
C38 C37 C11 124(4) . .
C38 C37 C42 119(4) . .
C42 C37 C11 117(4) . .
C37 C38 H38 119.3 . .
C37 C38 C39 121(4) . .
C39 C38 H38 119.3 . .
C38 C39 H39 118.4 . .
C38 C39 C40 123(4) . .
C40 C39 H39 118.4 . .
C39 C40 P4 123(3) . .
C41 C40 P4 123(3) . .
C41 C40 C39 114(4) . .
C40 C41 H41 118.3 . .
C40 C41 C42 123(4) . .
C42 C41 H41 118.3 . .
C37 C42 H42 121.0 . .
C41 C42 C37 118(4) . .
C41 C42 H42 121.0 . .
N3 C12 C36 108(3) . .
C11 C12 N3 125(4) . .
C11 C12 C36 126(4) . .
N2 C7 C5 121(4) . .
N2 C7 C8 112(4) . .
C8 C7 C5 127(4) . .
C36 C35 C13 102(4) . .
C36 C35 H35 128.9 . .
C13 C35 H35 128.9 . .
C15 C14 C29 118(4) . .
C15 C14 C13 121(4) . .
C13 C14 C29 120(4) . .
C2 C1 P1 116(4) . .
C2 C1 C46 49(4) . .
C44 C1 P1 120(4) . .
C44 C1 C2 124(5) . .
C44 C1 C46 110(6) . .
C46 C1 P1 108(5) . .
C1 C2 H2 122.2 . .
C1 C2 C3 116(5) . .
C3 C2 H2 122.2 . .
C46 C2 C1 71(6) . .
C46 C2 H2 106.8 . .
C46 C2 C3 91(8) . .
C2 C3 H3 117.8 . .
C2 C3 C46 40(4) . .
C4 C3 C2 124(6) . .
C4 C3 H3 117.8 . .
C4 C3 C46 102(5) . .
C46 C3 H3 126.1 . .
C45 C3 C2 98(8) . .
C45 C3 H3 102.3 . .
C45 C3 C4 70(6) . .
C45 C3 C46 58(7) . .
C3 C4 C5 125(4) . .
C3 C4 C45 45(4) . .
C43 C4 C5 123(4) . .
C43 C4 C3 112(5) . .
C43 C4 C45 111(6) . .
C45 C4 C5 114(6) . .
C4 C43 H43 115.3 . .
C4 C43 C44 129(5) . .
C44 C43 H43 115.3 . .
C1 C44 C43 113(5) . .
C1 C44 H44 123.3 . .
C43 C44 H44 123.3 . .
C16 C27 H27 128.9 . .
C28 C27 C16 102(4) . .
C28 C27 H27 128.9 . .
C15 C28 H28 125.2 . .
C27 C28 C15 110(4) . .
C27 C28 H28 125.2 . .
C7 C8 H8 127.0 . .
C9 C8 C7 106(4) . .
C9 C8 H8 127.0 . .
C10 C9 H9 123.8 . .
C8 C9 C10 112(4) . .
C8 C9 H9 123.8 . .
C1 C46 C3 88(7) . .
C1 C46 H46 121.1 . .
C1 C46 C45 112(9) . .
C2 C46 C1 60(6) . .
C2 C46 C3 48(5) . .
C2 C46 H46 126.0 . .
C2 C46 C45 83(9) . .
C3 C46 H46 144.7 . .
C45 C46 C3 35(5) . .
C45 C46 H46 126.4 . .
C3 C45 C4 65(7) . .
C3 C45 C46 87(9) . .
C3 C45 H45 125.8 . .
C4 C45 C46 115(9) . .
C4 C45 H45 121.2 . .
C46 C45 H45 122.6 . .
loop_
_geom_bond_atom_site_label_1
_geom_bond_atom_site_label_2
_geom_bond_distance
_geom_bond_site_symmetry_2
Ni1 Ni1 3.199(10) 2_677
Ni1 O4 2.13(2) 2_676
Ni1 O4 2.11(2) 1_556
Ni1 O7 2.06(2) 2_766
Ni1 O10 2.12(2) 1_565
Ni1 O13 2.11(2) .
Ni1 O1 2.03(2) .
Ni2 N4 1.88(3) .
Ni2 N2 1.95(3) .
Ni2 N3 1.91(3) .
Ni2 N1 1.93(3) .
P2 O4 1.52(2) .
P2 O5 1.53(2) .
P2 O6 1.57(2) .
P2 C24 1.83(3) .
P4 O10 1.49(2) .
P4 O11 1.58(2) .
P4 O12 1.52(2) .
P4 C40 1.80(4) .
P3 O7 1.46(2) .
P3 O8 1.57(2) .
P3 O9 1.52(3) .
P3 C32 1.78(4) .
P1 O1 1.51(2) .
P1 O2 1.55(3) .
P1 O3 1.56(3) .
P1 C1 1.88(4) .
O4 Ni1 2.11(2) 1_554
O4 Ni1 2.13(2) 2_676
O7 Ni1 2.06(2) 2_766
O10 Ni1 2.12(2) 1_545
N4 C16 1.33(3) .
N4 C15 1.41(3) .
N2 C10 1.46(4) .
N2 C7 1.39(4) .
N3 C13 1.35(4) .
N3 C12 1.42(3) .
N1 C6 1.38(3) .
N1 C18 1.41(4) .
C36 H36 0.9500 .
C36 C12 1.42(4) .
C36 C35 1.31(4) .
C6 C20 1.42(4) .
C6 C5 1.36(4) .
C18 C17 1.34(4) .
C18 C19 1.49(4) .
C17 C16 1.40(4) .
C17 C21 1.48(4) .
C16 C27 1.49(4) .
C15 C14 1.35(4) .
C15 C28 1.46(4) .
C29 C30 1.39(4) .
C29 C34 1.40(4) .
C29 C14 1.51(4) .
C30 H30 0.9500 .
C30 C31 1.40(4) .
C31 H31 0.9500 .
C31 C32 1.44(4) .
C32 C33 1.38(4) .
C33 H33 0.9500 .
C33 C34 1.38(5) .
C34 H34 0.9500 .
C10 C11 1.34(4) .
C10 C9 1.41(4) .
C11 C37 1.48(4) .
C11 C12 1.34(4) .
C20 H20 0.9500 .
C20 C19 1.37(4) .
C19 H19 0.9500 .
C13 C35 1.46(4) .
C13 C14 1.42(4) .
C5 C7 1.43(4) .
C5 C4 1.49(4) .
C21 C22 1.42(4) .
C21 C26 1.35(4) .
C22 H22 0.9500 .
C22 C23 1.41(4) .
C23 H23 0.9500 .
C23 C24 1.43(4) .
C24 C25 1.36(4) .
C25 H25 0.9500 .
C25 C26 1.40(4) .
C26 H26 0.9500 .
C37 C38 1.36(4) .
C37 C42 1.44(4) .
C38 H38 0.9500 .
C38 C39 1.36(4) .
C39 H39 0.9500 .
C39 C40 1.44(4) .
C40 C41 1.39(5) .
C41 H41 0.9500 .
C41 C42 1.41(5) .
C42 H42 0.9500 .
C7 C8 1.41(4) .
C35 H35 0.9500 .
C1 C2 1.38(6) .
C1 C44 1.33(5) .
C1 C46 1.50(11) .
C2 H2 0.9500 .
C2 C3 1.39(6) .
C2 C46 1.20(11) .
C3 H3 0.9500 .
C3 C4 1.38(6) .
C3 C46 1.86(14) .
C3 C45 1.07(10) .
C4 C43 1.29(4) .
C4 C45 1.44(10) .
C43 H43 0.9500 .
C43 C44 1.41(5) .
C44 H44 0.9500 .
C27 H27 0.9500 .
C27 C28 1.35(4) .
C28 H28 0.9500 .
C8 H8 0.9500 .
C8 C9 1.30(4) .
C9 H9 0.9500 .
C46 H46 0.9519 .
C46 C45 1.57(13) .
C45 H45 0.9530 .
loop_
_geom_torsion_atom_site_label_1
_geom_torsion_atom_site_label_2
_geom_torsion_atom_site_label_3
_geom_torsion_atom_site_label_4
_geom_torsion
_geom_torsion_site_symmetry_4
Ni2 N4 C16 C17 27(5) .
Ni2 N4 C16 C27 -168(2) .
Ni2 N4 C15 C14 -8(5) .
Ni2 N4 C15 C28 167(2) .
Ni2 N2 C10 C11 21(5) .
Ni2 N2 C10 C9 -166(2) .
Ni2 N2 C7 C5 -14(5) .
Ni2 N2 C7 C8 168(2) .
Ni2 N3 C13 C35 169(2) .
Ni2 N3 C13 C14 -19(5) .
Ni2 N3 C12 C36 -169(2) .
Ni2 N3 C12 C11 8(5) .
Ni2 N1 C6 C20 172(2) .
Ni2 N1 C6 C5 -16(5) .
Ni2 N1 C18 C17 13(5) .
Ni2 N1 C18 C19 -169(2) .
P2 C24 C25 C26 180(2) .
P4 C40 C41 C42 178(3) .
P3 C32 C33 C34 169(3) .
P1 C1 C2 C3 174(4) .
P1 C1 C2 C46 92(7) .
P1 C1 C44 C43 -175(3) .
P1 C1 C46 C2 -109(6) .
P1 C1 C46 C3 -151(4) .
P1 C1 C46 C45 -177(6) .
O4 P2 C24 C23 -31(3) .
O4 P2 C24 C25 152(2) .
O7 P3 C32 C31 -98(3) .
O7 P3 C32 C33 85(4) .
O10 P4 C40 C39 132(3) .
O10 P4 C40 C41 -52(3) .
O11 P4 O10 Ni1 67(2) 1_545
O11 P4 C40 C39 -109(3) .
O11 P4 C40 C41 67(3) .
O12 P4 O10 Ni1 -57(2) 1_545
O12 P4 C40 C39 7(3) .
O12 P4 C40 C41 -177(3) .
O5 P2 O4 Ni1 -110.7(16) 1_554
O5 P2 O4 Ni1 39(2) 2_676
O5 P2 C24 C23 -159(2) .
O5 P2 C24 C25 23(3) .
O6 P2 O4 Ni1 158.1(13) 2_676
O6 P2 O4 Ni1 8(2) 1_554
O6 P2 C24 C23 86(2) .
O6 P2 C24 C25 -92(3) .
O1 P1 C1 C2 81(4) .
O1 P1 C1 C44 -100(4) .
O1 P1 C1 C46 133(5) .
O8 P3 O7 Ni1 -77(2) 2_766
O8 P3 C32 C31 142(3) .
O8 P3 C32 C33 -34(4) .
O2 P1 O1 Ni1 -165.5(15) .
O2 P1 C1 C2 -47(4) .
O2 P1 C1 C44 133(4) .
O2 P1 C1 C46 6(5) .
O9 P3 O7 Ni1 47(2) 2_766
O9 P3 C32 C31 25(3) .
O9 P3 C32 C33 -152(3) .
O3 P1 O1 Ni1 -44(2) .
O3 P1 C1 C2 -163(3) .
O3 P1 C1 C44 17(4) .
O3 P1 C1 C46 -110(5) .
N4 C16 C27 C28 -1(4) .
N4 C15 C14 C29 -172(3) .
N4 C15 C14 C13 3(6) .
N4 C15 C28 C27 4(4) .
N2 C10 C11 C37 176(3) .
N2 C10 C11 C12 -10(6) .
N2 C10 C9 C8 -6(5) .
N2 C7 C8 C9 1(4) .
N3 Ni2 N4 C16 170(3) .
N3 Ni2 N4 C15 1(3) .
N3 C13 C35 C36 4(4) .
N3 C13 C14 C15 10(6) .
N3 C13 C14 C29 -175(3) .
N1 Ni2 N4 C16 -15(3) .
N1 Ni2 N4 C15 176(3) .
N1 C6 C20 C19 -4(4) .
N1 C6 C5 C7 1(6) .
N1 C6 C5 C4 -175(3) .
N1 C18 C17 C16 -6(6) .
N1 C18 C17 C21 164(3) .
N1 C18 C19 C20 -5(4) .
C6 N1 C18 C17 -175(4) .
C6 N1 C18 C19 2(3) .
C6 C20 C19 C18 5(4) .
C6 C5 C7 N2 14(6) .
C6 C5 C7 C8 -168(4) .
C6 C5 C4 C3 117(5) .
C6 C5 C4 C43 -73(5) .
C6 C5 C4 C45 67(6) .
C18 N1 C6 C20 1(4) .
C18 N1 C6 C5 173(3) .
C18 C17 C16 N4 -14(5) .
C18 C17 C16 C27 -180(3) .
C18 C17 C21 C22 74(5) .
C18 C17 C21 C26 -104(5) .
C17 C18 C19 C20 173(3) .
C17 C16 C27 C28 166(3) .
C17 C21 C22 C23 180(3) .
C17 C21 C26 C25 178(3) .
C16 N4 C15 C14 -179(3) .
C16 N4 C15 C28 -4(4) .
C16 C17 C21 C22 -116(4) .
C16 C17 C21 C26 66(5) .
C16 C27 C28 C15 -2(4) .
C15 N4 C16 C17 -162(3) .
C15 N4 C16 C27 3(4) .
C29 C30 C31 C32 3(6) .
C30 C29 C34 C33 -2(6) .
C30 C29 C14 C15 -125(4) .
C30 C29 C14 C13 60(5) .
C30 C31 C32 P3 -174(3) .
C30 C31 C32 C33 3(6) .
C31 C32 C33 C34 -8(6) .
C32 P3 O7 Ni1 168.9(19) 2_766
C32 C33 C34 C29 8(6) .
C34 C29 C30 C31 -3(6) .
C34 C29 C14 C15 49(5) .
C34 C29 C14 C13 -126(4) .
C10 N2 C7 C5 174(3) .
C10 N2 C7 C8 -4(4) .
C10 C11 C37 C38 -65(5) .
C10 C11 C37 C42 111(4) .
C10 C11 C12 N3 -4(6) .
C10 C11 C12 C36 172(3) .
C11 C10 C9 C8 165(4) .
C11 C37 C38 C39 177(4) .
C11 C37 C42 C41 -179(3) .
C20 C6 C5 C7 172(3) .
C20 C6 C5 C4 -4(5) .
C19 C18 C17 C16 177(3) .
C19 C18 C17 C21 -13(6) .
C13 N3 C12 C36 7(3) .
C13 N3 C12 C11 -176(3) .
C5 C6 C20 C19 -176(3) .
C5 C7 C8 C9 -178(4) .
C5 C4 C43 C44 174(4) .
C5 C4 C45 C3 116(7) .
C5 C4 C45 C46 -170(7) .
C21 C17 C16 N4 176(3) .
C21 C17 C16 C27 11(5) .
C21 C22 C23 C24 4(5) .
C22 C21 C26 C25 0(6) .
C22 C23 C24 P2 178(2) .
C22 C23 C24 C25 -4(5) .
C23 C24 C25 C26 2(5) .
C24 P2 O4 Ni1 125.4(16) 1_554
C24 P2 O4 Ni1 -84.4(18) 2_676
C24 C25 C26 C21 0(6) .
C26 C21 C22 C23 -2(6) .
C37 C11 C12 N3 169(3) .
C37 C11 C12 C36 -14(6) .
C37 C38 C39 C40 -2(6) .
C38 C37 C42 C41 -3(5) .
C38 C39 C40 P4 -180(3) .
C38 C39 C40 C41 4(6) .
C39 C40 C41 C42 -6(6) .
C40 P4 O10 Ni1 -179.9(18) 1_545
C40 C41 C42 C37 6(6) .
C42 C37 C38 C39 1(6) .
C12 N3 C13 C35 -7(4) .
C12 N3 C13 C14 165(3) .
C12 C36 C35 C13 1(4) .
C12 C11 C37 C38 121(4) .
C12 C11 C37 C42 -63(5) .
C7 N2 C10 C11 -167(3) .
C7 N2 C10 C9 6(4) .
C7 C5 C4 C3 -58(6) .
C7 C5 C4 C43 111(4) .
C7 C5 C4 C45 -109(6) .
C7 C8 C9 C10 4(5) .
C35 C36 C12 N3 -5(4) .
C35 C36 C12 C11 178(3) .
C35 C13 C14 C15 -178(3) .
C35 C13 C14 C29 -3(5) .
C14 C15 C28 C27 179(3) .
C14 C29 C30 C31 171(3) .
C14 C29 C34 C33 -176(4) .
C14 C13 C35 C36 -168(3) .
C1 P1 O1 Ni1 73(2) .
C1 C2 C3 C4 -3(9) .
C1 C2 C3 C46 -69(7) .
C1 C2 C3 C45 -75(9) .
C1 C2 C46 C3 117(5) .
C1 C2 C46 C45 121(7) .
C1 C46 C45 C3 49(10) .
C1 C46 C45 C4 -12(12) .
C2 C1 C44 C43 4(7) .
C2 C1 C46 C3 -42(5) .
C2 C1 C46 C45 -68(8) .
C2 C3 C4 C5 -177(5) .
C2 C3 C4 C43 13(8) .
C2 C3 C4 C45 -86(9) .
C2 C3 C46 C1 51(6) .
C2 C3 C46 C45 -173(12) .
C2 C3 C45 C4 124(5) .
C2 C3 C45 C46 4(8) .
C2 C46 C45 C3 -5(9) .
C2 C46 C45 C4 -66(9) .
C3 C2 C46 C1 -117(5) .
C3 C2 C46 C45 4(7) .
C3 C4 C43 C44 -15(7) .
C3 C4 C45 C46 74(9) .
C3 C46 C45 C4 -61(8) .
C4 C5 C7 N2 -170(3) .
C4 C5 C7 C8 8(6) .
C4 C3 C46 C1 -79(6) .
C4 C3 C46 C2 -130(7) .
C4 C3 C46 C45 57(8) .
C4 C3 C45 C46 -119(7) .
C4 C43 C44 C1 8(7) .
C43 C4 C45 C3 -100(7) .
C43 C4 C45 C46 -26(10) .
C44 C1 C2 C3 -6(8) .
C44 C1 C2 C46 -88(8) .
C44 C1 C46 C2 118(6) .
C44 C1 C46 C3 76(5) .
C44 C1 C46 C45 50(9) .
C28 C15 C14 C29 13(5) .
C28 C15 C14 C13 -172(3) .
C9 C10 C11 C37 5(6) .
C9 C10 C11 C12 179(4) .
C46 C1 C2 C3 82(8) .
C46 C1 C44 C43 -49(7) .
C46 C2 C3 C4 66(9) .
C46 C2 C3 C45 -6(10) .
C46 C3 C4 C5 -139(5) .
C46 C3 C4 C43 50(6) .
C46 C3 C4 C45 -49(7) .
C46 C3 C45 C4 119(7) .
C45 C3 C4 C5 -90(8) .
C45 C3 C4 C43 99(8) .
C45 C3 C46 C1 -136(10) .
C45 C3 C46 C2 173(12) .
C45 C4 C43 C44 33(8) .
