#------------------------------------------------------------------------------
#$Date: 2019-11-17 04:59:58 +0200 (Sun, 17 Nov 2019) $
#$Revision: 228003 $
#$URL: file:///home/coder/svn-repositories/cod/cif/7/12/09/7120967.cif $
#------------------------------------------------------------------------------
#
# This file is available in the Crystallography Open Database (COD),
# http://www.crystallography.net/
#
# All data on this site have been placed in the public domain by the
# contributors.
#
data_7120967
loop_
_publ_author_name
'Wang, Xun'
'Gao, Wen-Yang'
'Niu, Zheng'
'Wojtas, Lukasz'
'Perman, Jason A.'
'Chen, Yu-Sheng'
'Li, Zhong'
'Aguila, Briana'
'Ma, Shengqian'
_publ_section_title
;
 A metal-metalloporphyrin framework based on an octatopic porphyrin ligand
 for chemical fixation of CO<sub>2</sub> with aziridines.
;
_journal_issue                   10
_journal_name_full
'Chemical communications (Cambridge, England)'
_journal_page_first              1170
_journal_page_last               1173
_journal_paper_doi               10.1039/c7cc08844b
_journal_volume                  54
_journal_year                    2018
_chemical_formula_moiety         '0.25(C400 H208 Cu20 N16 O80)'
_chemical_formula_sum            'C100 H52 Cu5 N4 O20'
_chemical_formula_weight         1947.15
_space_group_crystal_system      orthorhombic
_space_group_IT_number           71
_space_group_name_Hall           '-I 2 2'
_space_group_name_H-M_alt        'I m m m'
_symmetry_space_group_name_Hall  '-I 2 2'
_symmetry_space_group_name_H-M   'I m m m'
_atom_sites_solution_hydrogens   geom
_audit_creation_date             2014-09-19
_audit_creation_method
;
Olex2 1.2
(compiled 2014.08.28 svn.r2986 for OlexSys, GUI svn.r4874)
;
_audit_update_record
;
2017-10-18 deposited with the CCDC.
2017-12-08 downloaded from the CCDC.
;
_cell_angle_alpha                90
_cell_angle_beta                 90
_cell_angle_gamma                90
_cell_formula_units_Z            4
_cell_length_a                   26.294(4)
_cell_length_b                   34.046(6)
_cell_length_c                   34.098(6)
_cell_measurement_reflns_used    7900
_cell_measurement_temperature    100(2)
_cell_measurement_theta_max      12.7
_cell_measurement_theta_min      2.2
_cell_volume                     30525(9)
_computing_molecular_graphics    'Olex2 (Dolomanov et al., 2009)'
_computing_publication_material  'Olex2 (Dolomanov et al., 2009)'
_computing_structure_refinement  'XL (Sheldrick, 2008)'
_diffrn_ambient_temperature      100.15
_diffrn_measured_fraction_theta_full 0.297
_diffrn_measured_fraction_theta_max 0.974
_diffrn_measurement_device_type  'Bruker Apex2 CCD'
_diffrn_measurement_method       'phi scans'
_diffrn_radiation_type           synchrotron
_diffrn_radiation_wavelength     0.49594
_diffrn_reflns_av_R_equivalents  0.0826
_diffrn_reflns_av_unetI/netI     0.0491
_diffrn_reflns_Laue_measured_fraction_full 0.297
_diffrn_reflns_Laue_measured_fraction_max 0.974
_diffrn_reflns_limit_h_max       20
_diffrn_reflns_limit_h_min       -19
_diffrn_reflns_limit_k_max       27
_diffrn_reflns_limit_k_min       -27
_diffrn_reflns_limit_l_max       20
_diffrn_reflns_limit_l_min       -27
_diffrn_reflns_number            43373
_diffrn_reflns_point_group_measured_fraction_full 0.297
_diffrn_reflns_point_group_measured_fraction_max 0.974
_diffrn_reflns_theta_full        17.311
_diffrn_reflns_theta_max         11.442
_diffrn_reflns_theta_min         1.231
_diffrn_source                   synchrotron
_exptl_absorpt_coefficient_mu    0.137
_exptl_absorpt_correction_T_max  0.7437
_exptl_absorpt_correction_T_min  0.5955
_exptl_absorpt_correction_type   multi-scan
_exptl_absorpt_process_details   Sadabs
_exptl_crystal_colour            green
_exptl_crystal_density_diffrn    0.424
_exptl_crystal_description       block
_exptl_crystal_F_000             3940
_exptl_crystal_size_max          0.021
_exptl_crystal_size_mid          0.02
_exptl_crystal_size_min          0.02
_platon_squeeze_details
;
;
_refine_diff_density_max         0.307
_refine_diff_density_min         -0.408
_refine_diff_density_rms         0.036
_refine_ls_extinction_method     none
_refine_ls_goodness_of_fit_ref   1.007
_refine_ls_hydrogen_treatment    constr
_refine_ls_matrix_type           full
_refine_ls_number_parameters     323
_refine_ls_number_reflns         4352
_refine_ls_number_restraints     49
_refine_ls_restrained_S_all      1.015
_refine_ls_R_factor_all          0.0922
_refine_ls_R_factor_gt           0.0685
_refine_ls_shift/su_max          0.001
_refine_ls_shift/su_mean         0.000
_refine_ls_structure_factor_coef Fsqd
_refine_ls_weighting_details
'w=1/[\s^2^(Fo^2^)+(0.1518P)^2^+1.0000sin\q] where P=(Fo^2^+2Fc^2^)/3'
_refine_ls_weighting_scheme      calc
_refine_ls_wR_factor_gt          0.1999
_refine_ls_wR_factor_ref         0.2191
_reflns_Friedel_coverage         0.000
_reflns_number_gt                2606
_reflns_number_total             4352
_reflns_threshold_expression     'I > 2\s(I)'
_cod_data_source_file            c7cc08844b2.cif
_cod_data_source_block           cu_expboc
_cod_depositor_comments          'Adding full bibliography for 7120967.cif.'
_cod_database_code               7120967
_shelxl_version_number           2014-3
_shelx_space_group_comment
;
The symmetry employed for this shelxl refinement is uniquely defined
by the following loop, which should always be used as a source of
symmetry information in preference to the above space-group names.
They are only intended as comments.
;
_shelx_estimated_absorpt_t_max   0.997
_shelx_estimated_absorpt_t_min   0.997
_olex2_refinement_description
;
1. Fixed Uiso
 At 1.2 times of:
  All C(H) groups
2. Restrained distances
 C16-C31 = C20-C15
 1.5 with sigma of 0.01
 C24-C31 = C24-C23 = C17-C23 = C17-C12 = C22-C12 = C22-C31 = C15-C4 = C21-C4 =
 C21-C6 = C6-C11 = C14-C11 = C15-C14
 1.39 with sigma of 0.01
 C29-C17 = C6-C9
 1.5 with sigma of 0.01
 C9-C10 = C5-C9 = C8-C5 = C29-C18 = C29-C27 = C30-C27
 1.39 with sigma of 0.01
 C13-C13_$1 = C19-C19_$2 = C32-C32_$3 = C2-C2_$4
 1.35 with sigma of 0.01
 C19-C7 = C13-C1 = C28-C2 = C25-C32
 1.44 with sigma of 0.01
 N4-C28 = N3-C25 = N2-C7 = N1-C1
 1.38 with sigma of 0.01
 C26-C30 = C8-C3
 1.5 with sigma of 0.01
 C26-C28 = C26-C25 = C3-C1 = C3-C7
 1.4 with sigma of 0.01
3. Rigid bond restraints
 C3, C8
 with sigma for 1-2 distances of 0.01 and sigma for 1-3 distances of 0.01
 C27, C30
 with sigma for 1-2 distances of 0.01 and sigma for 1-3 distances of 0.01
 C12, C17
 with sigma for 1-2 distances of 0.01 and sigma for 1-3 distances of 0.01
 C22, C31
 with sigma for 1-2 distances of 0.01 and sigma for 1-3 distances of 0.01
 C17, C29
 with sigma for 1-2 distances of 0.01 and sigma for 1-3 distances of 0.01
 C32, C25
 with sigma for 1-2 distances of 0.01 and sigma for 1-3 distances of 0.01
 C26, C30, C28
 with sigma for 1-2 distances of 0.01 and sigma for 1-3 distances of 0.01
4.a Aromatic/amide H refined with riding coordinates:
 C2(H2), C4(H4), C5(H5), C10(H10), C11(H11), C12(H12), C13(H13), C14(H14),
 C18(H18), C19(H19), C21(H21), C22(H22), C23(H23), C24(H24), C27(H27), C32(H32)
;
_shelx_res_file
;
TITL Cu_exPBOC_0m in Immm
CELL 0.49594 26.2941 34.046 34.0985 90 90 90
ZERR 4 0.0044 0.0056 0.0057 0 0 0
LATT 2
SYMM -X,-Y,+Z
SYMM -X,+Y,-Z
SYMM +X,-Y,-Z

SFAC C H Cu N O
DISP C 0.001 0.001 6.243
DISP Cu 0.3 0.667 1898.877
DISP H -0 0 0.608
DISP N 0.002 0.001 9.325
DISP O 0.004 0.003 13.948
UNIT 400 208 20 16 80
EQIV $1 +X,1-Y,1-Z
EQIV $2 2-X,+Y,1-Z
EQIV $3 2-X,1-Y,+Z
EQIV $4 +X,1-Y,2-Z
DEFS 0.01 0.1 0.01 0.04 1
DFIX 1.5 C16 C31 C20 C15
DFIX 1.39 C24 C31 C24 C23 C17 C23 C17 C12 C22 C12 C22 C31 C15 C4 C21 C4 C21 =
 C6 C6 C11 C14 C11 C15 C14
DFIX 1.5 C29 C17 C6 C9
DFIX 1.39 C9 C10 C5 C9 C8 C5 C29 C18 C29 C27 C30 C27
DFIX 1.35 C13 C13_$1 C19 C19_$2 C32 C32_$3 C2 C2_$4
DFIX 1.44 C19 C7 C13 C1 C28 C2 C25 C32
DFIX 1.38 N4 C28 N3 C25 N2 C7 N1 C1
DFIX 1.5 C26 C30 C8 C3
DFIX 1.4 C26 C28 C26 C25 C3 C1 C3 C7
DELU C3 C8
DELU C27 C30
DELU C12 C17
DELU C22 C31
DELU C17 C29
DELU C32 C25
DELU C26 C30 C28

L.S. 10
PLAN  200
SIZE 0.02 0.02 0.021
TEMP -173
BOND
bond $h
list 8
CONF
MORE -1
fmap 2
acta
SHEL 1000 1.2
REM <HKL>C:/lukasz_wojtas/structures/Wenyang/Cu_exPBOC/work/refine6/detwinned/
REM sq/squeezed.hkl</HKL>

WGHT    0.151800    0.000000    0.000000    0.000000    1.000000
FVAR      10.60571
CU1   3    1.000000    0.500000    0.500000    10.12500    0.19628    0.04954 =
         0.05351    0.00000    0.00000    0.00000
CU2   3    0.701163    0.739928    0.746847    11.00000    0.21232    0.07006 =
         0.09547   -0.00166   -0.00335    0.02492
CU3   3    1.000000    0.500000    1.000000    10.12500    0.22437    0.04857 =
         0.06305    0.00000    0.00000    0.00000
N1    4    0.923756    0.500000    0.500000    10.25000    0.14463    0.06261 =
         0.09788    0.00000    0.00000    0.00000
O1    5    0.621826    0.725495    0.741331    11.00000    0.22853    0.15285 =
         0.14946   -0.00329    0.00399    0.00870
O2    5    0.803311    0.706772    0.776135    11.00000    0.20871    0.10966 =
         0.10727    0.01541   -0.00083    0.00387
O3    5    0.719576    0.689988    0.770373    11.00000    0.18392    0.09614 =
         0.11653    0.01055   -0.01404    0.02668
C1    1    0.890690    0.531429    0.500000    10.50000    0.10891    0.06334 =
         0.06900    0.00000    0.00000   -0.02624
C2    1    0.837999    0.500000    0.980414    10.50000    0.17996    0.12699 =
         0.10932    0.00000   -0.00490    0.00000
AFIX  43
H2    2    0.808957    0.500000    0.963840    10.50000   -1.20000
AFIX   0
O4    5    0.721244    0.715682    0.695130    11.00000    0.19774    0.12567 =
         0.11278   -0.01389    0.01227    0.01497
N2    4    1.000000    0.561254    0.500000    10.25000    0.17047    0.04033 =
         0.11345    0.00000    0.00000    0.00000
O5    5    0.805264    0.734731    0.700953    11.00000    0.18643    0.14580 =
         0.12592   -0.01046    0.00364    0.01779
C3    1    0.907329    0.570201    0.500000    10.50000    0.20165    0.08377 =
         0.09190    0.00000    0.00000   -0.00907
C4    1    0.828667    0.693044    0.635080    11.00000    0.24821    0.15296 =
         0.14682   -0.00724   -0.02182    0.02913
AFIX  43
H4    2    0.855749    0.698817    0.652598    11.00000   -1.20000
AFIX   0
C5    1    0.849956    0.616518    0.535592    11.00000    0.21160    0.12410 =
         0.08681    0.00551    0.00236    0.02663
AFIX  43
H5    2    0.858871    0.604086    0.559568    11.00000   -1.20000
AFIX   0
C6    1    0.801880    0.667350    0.573487    11.00000    0.20878    0.11218 =
         0.09796   -0.02032    0.00835    0.00797
C7    1    0.957606    0.584087    0.500000    10.50000    0.20113    0.06911 =
         0.11536    0.00000    0.00000    0.02445
C8    1    0.869794    0.603222    0.500000    10.50000    0.15253    0.08331 =
         0.08792    0.00000    0.00000   -0.01274
C9    1    0.816288    0.648917    0.535137    11.00000    0.19054    0.13032 =
         0.10618    0.00477   -0.00400    0.01823
C10   1    0.795498    0.663547    0.500000    10.50000    0.20795    0.10029 =
         0.09630    0.00000    0.00000    0.01989
AFIX  43
H10   2    0.768791    0.682340    0.499999    10.50000   -1.20000
AFIX   0
C11   1    0.751953    0.677933    0.582646    11.00000    0.21090    0.13651 =
         0.11194    0.00360    0.00196    0.02542
AFIX  43
H11   2    0.725749    0.674377    0.563796    11.00000   -1.20000
AFIX   0
C12   1    0.751748    0.582360    0.820502    11.00000    0.22108    0.15071 =
         0.15091    0.00902   -0.03932   -0.01233
AFIX  43
H12   2    0.725188    0.563897    0.824612    11.00000   -1.20000
AFIX   0
C13   1    0.839038    0.519743    0.500000    10.50000    0.16125    0.09911 =
         0.13683    0.00000    0.00000   -0.02907
AFIX  43
H13   2    0.810122    0.536472    0.500000    10.50000   -1.20000
AFIX   0
C14   1    0.740117    0.694052    0.620157    11.00000    0.20729    0.13574 =
         0.10834   -0.00915    0.01227    0.01593
AFIX  43
H14   2    0.705828    0.699830    0.626775    11.00000   -1.20000
AFIX   0
C15   1    0.779292    0.701418    0.647429    11.00000    0.19684    0.12200 =
         0.11515    0.00964   -0.01217    0.02788
C16   1    0.762508    0.683690    0.778272    11.00000    0.17296    0.05338 =
         0.08254    0.01213    0.00471    0.00724
C17   1    0.801081    0.573752    0.833730    11.00000    0.21156    0.09766 =
         0.08860    0.00212   -0.01819   -0.00436
C18   1    0.798120    0.500000    0.836936    10.50000    0.20931    0.06668 =
         0.11741    0.00000   -0.02296    0.00000
AFIX  43
H18   2    0.772485    0.500000    0.817304    10.50000   -1.20000
AFIX   0
C19   1    0.974846    0.624414    0.500000    10.50000    0.15753    0.12199 =
         0.18141    0.00000    0.00000   -0.00797
AFIX  43
H19   2    0.953678    0.647027    0.500000    10.50000   -1.20000
AFIX   0
C20   1    0.765412    0.719868    0.686159    11.00000    0.15811    0.13008 =
         0.07395    0.01142    0.00857    0.01048
C21   1    0.841047    0.676739    0.598697    11.00000    0.23384    0.13352 =
         0.11224   -0.02314    0.01501   -0.00495
AFIX  43
H21   2    0.875476    0.672250    0.591534    11.00000   -1.20000
AFIX   0
C22   1    0.741144    0.618002    0.801227    11.00000    0.20923    0.09473 =
         0.11761    0.02444   -0.01544    0.01624
AFIX  43
H22   2    0.708366    0.623053    0.790649    11.00000   -1.20000
AFIX   0
C23   1    0.839011    0.602129    0.830005    11.00000    0.22878    0.09923 =
         0.17603    0.02971   -0.03903    0.01924
AFIX  43
H23   2    0.872023    0.596569    0.839873    11.00000   -1.20000
AFIX   0
C24   1    0.830090    0.638497    0.812234    11.00000    0.19095    0.16194 =
         0.14829   -0.01093   -0.05576    0.00754
AFIX  43
H24   2    0.856525    0.657367    0.809852    11.00000   -1.20000
AFIX   0
N3    4    1.000000    0.500000    0.939651    10.25000    0.17232    0.09017 =
         0.05146    0.00000    0.00000    0.00000
C25   1    0.956737    0.500000    0.917886    10.50000    0.17297    0.07540 =
         0.05763    0.00000   -0.02097    0.00000
C26   1    0.905620    0.500000    0.929121    10.50000    0.16870    0.09643 =
         0.10016    0.00000   -0.01080    0.00000
C27   1    0.851301    0.537018    0.882842    11.00000    0.20129    0.11127 =
         0.12620    0.01423   -0.03516    0.01768
AFIX  43
H27   2    0.863481    0.561082    0.893363    11.00000   -1.20000
AFIX   0
C28   1    0.889899    0.500000    0.968185    10.50000    0.15689    0.07935 =
         0.08903    0.00000   -0.00482    0.00000
C29   1    0.817069    0.535116    0.851449    11.00000    0.21905    0.10981 =
         0.10963    0.02418   -0.01305    0.01541
C30   1    0.866052    0.500000    0.897419    10.50000    0.19588    0.14841 =
         0.08645    0.00000   -0.01621    0.00000
N4    4    0.922714    0.500000    1.000000    10.25000    0.12965    0.07994 =
         0.05510    0.00000    0.00000    0.00000
C31   1    0.780981    0.646399    0.797985    11.00000    0.25765    0.09217 =
         0.15488    0.00745   -0.00173   -0.01192
C32   1    0.974409    0.500000    0.877863    10.50000    0.18615    0.15708 =
         0.10394    0.00000    0.01189    0.00000
AFIX  43
H32   2    0.953377    0.500000    0.855209    10.50000   -1.20000
AFIX   0
HKLF 4

REM  Cu_exPBOC_0m in Immm
REM R1 =  0.0685 for    2606 Fo > 4sig(Fo)  and  0.0922 for all    4352 data
REM    323 parameters refined using     49 restraints

END

WGHT      0.1518      0.0000

REM Highest difference peak  0.307,  deepest hole -0.408,  1-sigma level  0.036
Q1    1   0.8874  0.5000  0.5368  10.50000  0.05    0.31
Q2    1   0.6611  0.7124  0.7517  11.00000  0.05    0.21
Q3    1   0.8909  0.5352  1.0000  10.50000  0.05    0.21
Q4    1   0.9530  0.5000  0.5327  10.50000  0.05    0.20
Q5    1   0.5858  0.5000  1.0000  10.25000  0.05    0.19
Q6    1   0.6031  0.7235  0.7223  11.00000  0.05    0.19
Q7    1   0.6036  0.7095  0.7403  11.00000  0.05    0.18
Q8    1   0.9570  0.5328  1.0000  10.50000  0.05    0.18
Q9    1   0.8745  0.5000  0.9643  10.50000  0.05    0.17
Q10   1   0.8051  0.7077  0.7279  11.00000  0.05    0.17
Q11   1   0.6083  0.7230  0.7686  11.00000  0.05    0.16
Q12   1   0.5848  0.5000  0.5000  10.25000  0.05    0.15
Q13   1   1.0000  0.5401  0.8965  10.50000  0.05    0.14
Q14   1   0.7026  0.6809  0.7595  11.00000  0.05    0.14
Q15   1   0.7053  0.7177  0.7021  11.00000  0.05    0.14
Q16   1   0.7536  0.7337  0.7223  11.00000  0.05    0.14
Q17   1   0.8711  0.5786  0.9030  11.00000  0.05    0.14
Q18   1   0.8072  0.5328  1.0000  10.50000  0.05    0.14
Q19   1   0.7847  0.7096  0.6407  11.00000  0.05    0.13
Q20   1   0.7209  0.6834  0.7165  11.00000  0.05    0.13
Q21   1   0.8468  0.5000  1.0000  10.25000  0.05    0.13
Q22   1   1.0000  0.6228  0.5000  10.25000  0.05    0.13
Q23   1   0.7858  0.5000  0.9634  10.50000  0.05    0.13
Q24   1   0.8730  0.5423  0.5393  11.00000  0.05    0.13
Q25   1   1.0000  0.6102  0.5410  10.50000  0.05    0.12
Q26   1   0.7961  0.7794  0.6945  11.00000  0.05    0.12
Q27   1   0.5000  0.5097  0.5000  10.25000  0.05    0.12
Q28   1   0.5404  0.5000  0.9662  10.50000  0.05    0.12
Q29   1   1.0000  0.5344  0.5997  10.50000  0.05    0.12
Q30   1   0.8036  0.5282  0.9161  11.00000  0.05    0.12
Q31   1   0.7956  0.7399  0.6747  11.00000  0.05    0.11
Q32   1   0.7775  0.5000  0.5000  10.25000  0.05    0.11
Q33   1   0.9419  0.5000  0.9693  10.50000  0.05    0.11
Q34   1   0.8239  0.6873  0.5000  10.50000  0.05    0.11
Q35   1   1.0000  0.3891  1.0000  10.25000  0.05    0.11
Q36   1   0.9865  0.6506  0.5284  11.00000  0.05    0.10
Q37   1   0.8072  0.6587  0.5569  11.00000  0.05    0.10
Q38   1   0.9250  0.6076  0.9800  11.00000  0.05    0.10
Q39   1   0.8595  0.5386  0.9604  11.00000  0.05    0.10
Q40   1   0.5000  0.5202  1.0000  10.25000  0.05    0.09
Q41   1   0.8169  0.5873  0.5283  11.00000  0.05    0.09
Q42   1   0.5937  0.7626  0.7447  11.00000  0.05    0.09
Q43   1   0.8274  0.6383  0.5404  11.00000  0.05    0.09
Q44   1   0.5000  0.5052  0.9803  10.50000  0.05    0.09
Q45   1   0.8831  0.5987  0.8428  11.00000  0.05    0.09
Q46   1   0.7595  0.6716  0.5668  11.00000  0.05    0.09
Q47   1   0.8814  0.6520  0.5885  11.00000  0.05    0.09
Q48   1   0.9217  0.5511  0.5414  11.00000  0.05    0.09
Q49   1   0.6741  0.5000  0.8028  10.50000  0.05    0.08
Q50   1   0.6744  0.5000  0.7839  10.50000  0.05    0.08
Q51   1   0.7973  0.6074  0.5409  11.00000  0.05    0.08
Q52   1   0.7294  0.6523  0.8247  11.00000  0.05    0.08
Q53   1   0.9505  0.5000  0.5837  10.50000  0.05    0.08
Q54   1   0.8189  0.5000  0.8143  10.50000  0.05    0.08
Q55   1   0.7176  0.6182  1.0000  10.50000  0.05    0.08
Q56   1   0.5000  0.6446  0.7093  10.50000  0.05    0.08
Q57   1   0.6855  0.6993  0.5000  10.50000  0.05    0.08
Q58   1   0.8475  0.5000  0.5000  10.25000  0.05    0.08
Q59   1   0.9212  0.5464  0.9006  11.00000  0.05    0.08
Q60   1   0.8916  0.7004  0.5863  11.00000  0.05    0.07
Q61   1   0.7774  0.6607  0.8358  11.00000  0.05    0.07
Q62   1   0.7246  0.6994  0.6574  11.00000  0.05    0.07
Q63   1   0.9503  0.5000  0.6071  10.50000  0.05    0.07
Q64   1   0.7066  0.5658  0.5000  10.50000  0.05    0.07
Q65   1   1.0000  0.5919  0.7507  10.50000  0.05    0.07
Q66   1   1.0000  0.5999  0.9690  10.50000  0.05    0.07
Q67   1   0.9661  0.6191  0.9470  11.00000  0.05    0.07
Q68   1   0.7007  0.5000  0.5674  10.50000  0.05    0.07
Q69   1   0.7078  0.5000  0.6613  10.50000  0.05    0.07
Q70   1   0.6729  0.7033  0.6774  11.00000  0.05    0.07
Q71   1   0.8611  0.7113  0.7967  11.00000  0.05    0.07
Q72   1   1.0000  0.5000  0.8599  10.25000  0.05    0.07
Q73   1   0.5387  0.5401  0.5000  10.50000  0.05    0.07
Q74   1   0.9242  0.5520  0.9585  11.00000  0.05    0.07
Q75   1   0.6951  0.5000  0.5000  10.25000  0.05    0.07
Q76   1   0.9176  0.5000  0.8359  10.50000  0.05    0.07
Q77   1   1.0000  0.5385  0.9515  10.50000  0.05    0.07
Q78   1   0.7303  0.6066  0.6978  11.00000  0.05    0.07
Q79   1   0.7691  0.5189  0.8150  11.00000  0.05    0.07
Q80   1   1.0000  0.6160  0.8561  10.50000  0.05    0.06
Q81   1   1.0000  0.8340  0.5867  10.50000  0.05    0.06
Q82   1   0.5997  0.5768  1.0000  10.50000  0.05    0.06
Q83   1   0.9608  0.5611  0.7501  11.00000  0.05    0.06
Q84   1   0.5871  0.5391  0.9793  11.00000  0.05    0.06
Q85   1   0.9511  0.5973  0.7278  11.00000  0.05    0.06
Q86   1   0.6160  0.6997  0.5759  11.00000  0.05    0.06
Q87   1   0.8877  0.7173  0.8806  11.00000  0.05    0.06
Q88   1   1.0000  0.5000  0.3221  10.25000  0.05    0.06
Q89   1   0.6168  0.7288  0.5221  11.00000  0.05    0.06
Q90   1   0.6921  0.7422  0.5116  11.00000  0.05    0.06
Q91   1   0.8872  0.5000  0.5931  10.50000  0.05    0.06
Q92   1   0.9578  0.6234  0.8258  11.00000  0.05    0.06
Q93   1   0.5388  0.6583  0.6881  11.00000  0.05    0.06
Q94   1   0.9475  0.5924  0.7377  11.00000  0.05    0.06
Q95   1   0.6829  0.6765  0.8697  11.00000  0.05    0.06
Q96   1   0.6861  0.6730  0.8780  11.00000  0.05    0.06
Q97   1   1.0000  0.6000  0.9163  10.50000  0.05    0.06
Q98   1   0.8850  0.7350  0.8471  11.00000  0.05    0.06
Q99   1   0.5000  0.5176  0.8701  10.50000  0.05    0.06
Q100  1   0.9488  0.6880  0.7228  11.00000  0.05    0.06
Q101  1   1.0000  0.6324  0.8905  10.50000  0.05    0.06
Q102  1   0.7384  0.5000  0.9067  10.50000  0.05    0.06
Q103  1   0.9695  0.6113  0.9091  11.00000  0.05    0.06
Q104  1   0.5624  0.5805  1.0000  10.50000  0.05    0.06
Q105  1   0.7008  0.7940  0.6065  11.00000  0.05    0.06
Q106  1   1.0000  0.7076  0.6330  10.50000  0.05    0.06
Q107  1   0.6476  0.5000  0.8573  10.50000  0.05    0.06
Q108  1   0.7051  0.5624  0.6037  11.00000  0.05    0.06
Q109  1   1.0000  0.6106  0.8201  10.50000  0.05    0.06
Q110  1   0.8110  0.6934  0.6764  11.00000  0.05    0.06
Q111  1   1.0000  0.5944  0.5986  10.50000  0.05    0.06
Q112  1   0.5000  0.7007  0.8454  10.50000  0.05    0.05
Q113  1   0.6295  0.6099  0.7176  11.00000  0.05    0.05
Q114  1   1.0000  0.7353  0.5918  10.50000  0.05    0.05
Q115  1   0.5987  0.6136  0.8204  11.00000  0.05    0.05
Q116  1   0.5341  0.6137  0.9336  11.00000  0.05    0.05
Q117  1   0.7946  0.5926  0.7140  11.00000  0.05    0.05
Q118  1   0.6532  0.7664  0.6030  11.00000  0.05    0.05
Q119  1   0.9339  0.7174  0.8496  11.00000  0.05    0.05
Q120  1   0.8518  0.6286  0.7143  11.00000  0.05    0.05
Q121  1   0.6019  0.6570  0.5886  11.00000  0.05    0.05
Q122  1   1.0000  0.5977  0.6216  10.50000  0.05    0.05
Q123  1   0.9279  0.6295  0.9211  11.00000  0.05    0.05
Q124  1   0.9270  0.5284  0.6108  11.00000  0.05    0.05
Q125  1   0.8821  0.6633  0.7059  11.00000  0.05    0.05
Q126  1   0.5282  0.5000  0.9010  10.50000  0.05    0.05
Q127  1   0.6923  0.5977  0.7176  11.00000  0.05    0.05
Q128  1   0.7343  0.5990  0.8585  11.00000  0.05    0.05
Q129  1   0.8105  0.7239  0.5993  11.00000  0.05    0.05
Q130  1   0.8703  0.6214  0.9616  11.00000  0.05    0.05
Q131  1   0.9602  0.5987  0.7855  11.00000  0.05    0.05
Q132  1   0.5933  0.7568  0.6003  11.00000  0.05    0.05
Q133  1   0.8001  0.6417  0.5984  11.00000  0.05    0.05
Q134  1   0.7634  0.8040  0.6063  11.00000  0.05    0.05
Q135  1   0.6105  0.5391  0.5000  10.50000  0.05    0.05
Q136  1   0.5227  0.5585  1.0000  10.50000  0.05    0.05
Q137  1   0.7489  0.5000  0.6209  10.50000  0.05    0.05
Q138  1   0.8887  0.6931  0.8513  11.00000  0.05    0.05
Q139  1   0.6439  0.5234  0.5309  11.00000  0.05    0.05
Q140  1   0.7057  0.5313  0.5576  11.00000  0.05    0.05
Q141  1   0.5000  0.7582  0.5341  10.50000  0.05    0.05
Q142  1   0.5566  0.7492  0.6667  11.00000  0.05    0.05
Q143  1   0.8691  0.6221  0.7869  11.00000  0.05    0.05
Q144  1   0.7702  0.5876  0.6896  11.00000  0.05    0.05
Q145  1   0.5436  0.6682  0.5651  11.00000  0.05    0.05
Q146  1   1.0000  0.5000  0.4388  10.25000  0.05    0.05
Q147  1   0.9541  0.7322  0.6199  11.00000  0.05    0.05
Q148  1   0.7100  0.7410  0.6017  11.00000  0.05    0.05
Q149  1   0.7385  0.8012  0.5000  10.50000  0.05    0.05
Q150  1   0.9294  0.6795  1.0000  10.50000  0.05    0.05
Q151  1   1.0000  0.6280  0.7733  10.50000  0.05    0.05
Q152  1   0.7818  0.6314  0.7070  11.00000  0.05    0.05
Q153  1   0.8665  0.5814  0.5718  11.00000  0.05    0.05
Q154  1   0.8489  0.5754  0.7115  11.00000  0.05    0.05
Q155  1   0.5721  0.6099  0.9608  11.00000  0.05    0.05
Q156  1   0.8737  0.6034  1.0000  10.50000  0.05    0.05
Q157  1   0.5461  0.5000  0.6022  10.50000  0.05    0.05
Q158  1   0.7905  0.5655  0.5000  10.50000  0.05    0.05
Q159  1   0.6327  0.5699  0.7919  11.00000  0.05    0.05
Q160  1   0.9690  0.6913  0.6032  11.00000  0.05    0.05
Q161  1   0.5359  0.5579  0.6280  11.00000  0.05    0.05
Q162  1   0.5000  0.6987  0.7228  10.50000  0.05    0.05
Q163  1   0.8611  0.5424  0.8319  11.00000  0.05    0.05
Q164  1   0.5000  0.6861  0.6716  10.50000  0.05    0.05
Q165  1   0.6247  0.6526  0.6773  11.00000  0.05    0.05
Q166  1   0.7791  0.7873  0.5748  11.00000  0.05    0.05
Q167  1   0.7939  0.8345  0.5000  10.50000  0.05    0.05
Q168  1   1.0000  0.7318  0.5000  10.25000  0.05    0.04
Q169  1   0.7802  0.6683  0.6476  11.00000  0.05    0.04
Q170  1   0.9562  0.7186  0.5809  11.00000  0.05    0.04
Q171  1   0.6087  0.5722  0.8294  11.00000  0.05    0.04
Q172  1   0.5966  0.5000  0.5606  10.50000  0.05    0.04
Q173  1   0.5583  0.6700  0.7124  11.00000  0.05    0.04
Q174  1   0.6544  0.5000  0.6305  10.50000  0.05    0.04
Q175  1   0.9164  0.7455  0.5883  11.00000  0.05    0.04
Q176  1   0.8805  0.5880  0.5000  10.50000  0.05    0.04
Q177  1   0.7062  0.5375  0.8987  11.00000  0.05    0.04
Q178  1   1.0000  0.6507  0.6030  10.50000  0.05    0.04
Q179  1   0.6158  0.6636  0.8472  11.00000  0.05    0.04
Q180  1   0.5000  0.7894  0.7922  10.50000  0.05    0.04
Q181  1   0.9372  0.5115  0.7730  11.00000  0.05    0.04
Q182  1   0.8987  0.5721  0.6134  11.00000  0.05    0.04
Q183  1   0.9396  0.6478  0.7285  11.00000  0.05    0.04
Q184  1   1.0000  0.6498  0.8432  10.50000  0.05    0.04
Q185  1   0.9588  0.6953  0.9790  11.00000  0.05    0.04
Q186  1   0.9629  0.5705  0.6708  11.00000  0.05    0.04
Q187  1   0.9591  0.7049  0.5908  11.00000  0.05    0.04
Q188  1   0.8943  0.6769  0.9213  11.00000  0.05    0.04
Q189  1   0.8052  0.8007  0.5883  11.00000  0.05    0.04
Q190  1   0.6033  0.6772  0.5000  10.50000  0.05    0.04
Q191  1   0.9711  0.7117  0.6736  11.00000  0.05    0.04
Q192  1   0.9278  0.5193  0.7591  11.00000  0.05    0.04
Q193  1   0.6161  0.7510  0.5613  11.00000  0.05    0.04
Q194  1   0.8687  0.5359  0.6168  11.00000  0.05    0.04
Q195  1   0.6617  0.6368  0.6960  11.00000  0.05    0.04
Q196  1   0.6307  0.5325  0.7391  11.00000  0.05    0.04
Q197  1   0.9395  0.5939  0.9380  11.00000  0.05    0.04
Q198  1   0.5456  0.5229  0.5735  11.00000  0.05    0.04
Q199  1   0.9310  0.6429  0.7209  11.00000  0.05    0.04
Q200  1   0.5000  0.6611  0.5686  10.50000  0.05    0.04
;
_shelx_res_checksum              5507
_olex2_submission_special_instructions 'No special instructions were received'
loop_
_space_group_symop_operation_xyz
'x, y, z'
'-x, -y, z'
'-x, y, -z'
'x, -y, -z'
'x+1/2, y+1/2, z+1/2'
'-x+1/2, -y+1/2, z+1/2'
'-x+1/2, y+1/2, -z+1/2'
'x+1/2, -y+1/2, -z+1/2'
'-x, -y, -z'
'x, y, -z'
'x, -y, z'
'-x, y, z'
'-x+1/2, -y+1/2, -z+1/2'
'x+1/2, y+1/2, -z+1/2'
'x+1/2, -y+1/2, z+1/2'
'-x+1/2, y+1/2, z+1/2'
loop_
_atom_site_label
_atom_site_type_symbol
_atom_site_fract_x
_atom_site_fract_y
_atom_site_fract_z
_atom_site_U_iso_or_equiv
_atom_site_adp_type
_atom_site_occupancy
_atom_site_site_symmetry_order
_atom_site_calc_flag
_atom_site_refinement_flags_posn
_atom_site_refinement_flags_adp
_atom_site_refinement_flags_occupancy
Cu1 Cu 1.0000 0.5000 0.5000 0.0998(11) Uani 1 8 d S T P
Cu2 Cu 0.70116(4) 0.73993(2) 0.74685(3) 0.1259(7) Uani 1 1 d . . .
Cu3 Cu 1.0000 0.5000 1.0000 0.1120(12) Uani 1 8 d S T P
N1 N 0.9238(6) 0.5000 0.5000 0.102(4) Uani 1 4 d DS T P
O1 O 0.6218(2) 0.72550(16) 0.74133(14) 0.177(2) Uani 1 1 d . . .
O2 O 0.8033(3) 0.70677(18) 0.77613(15) 0.142(2) Uani 1 1 d . . .
O3 O 0.7196(3) 0.68999(19) 0.77037(18) 0.132(3) Uani 1 1 d . . .
C1 C 0.8907(4) 0.5314(3) 0.5000 0.080(3) Uani 1 2 d DS T P
C2 C 0.8380(5) 0.5000 0.98041(13) 0.139(4) Uani 1 2 d DS T P
H2 H 0.8090 0.5000 0.9638 0.167 Uiso 1 2 calc RS T P
O4 O 0.7212(3) 0.71568(18) 0.6951(2) 0.145(3) Uani 1 1 d . . .
N2 N 1.0000 0.5613(3) 0.5000 0.108(4) Uani 1 4 d DS T P
O5 O 0.8053(3) 0.73473(19) 0.7010(2) 0.153(3) Uani 1 1 d . . .
C3 C 0.9073(5) 0.5702(4) 0.5000 0.126(4) Uani 1 2 d DS TU P
C4 C 0.8287(7) 0.6930(4) 0.6351(5) 0.183(4) Uani 1 1 d D . .
H4 H 0.8557 0.6988 0.6526 0.219 Uiso 1 1 calc R . .
C5 C 0.8500(3) 0.6165(3) 0.5356(2) 0.141(3) Uani 1 1 d D . .
H5 H 0.8589 0.6041 0.5596 0.169 Uiso 1 1 calc R . .
C6 C 0.8019(8) 0.6673(3) 0.5735(3) 0.140(3) Uani 1 1 d D . .
C7 C 0.9576(5) 0.5841(3) 0.5000 0.129(4) Uani 1 2 d DS T P
C8 C 0.8698(4) 0.6032(3) 0.5000 0.108(3) Uani 1 2 d DS TU P
C9 C 0.8163(3) 0.6489(3) 0.5351(3) 0.142(3) Uani 1 1 d D . .
C10 C 0.7955(4) 0.6635(3) 0.5000 0.135(4) Uani 1 2 d DS T P
H10 H 0.7688 0.6823 0.5000 0.162 Uiso 1 2 calc RS T P
C11 C 0.7520(6) 0.6779(3) 0.5826(4) 0.153(3) Uani 1 1 d D . .
H11 H 0.7257 0.6744 0.5638 0.184 Uiso 1 1 calc R . .
C12 C 0.7517(4) 0.5824(3) 0.8205(3) 0.174(4) Uani 1 1 d D U .
H12 H 0.7252 0.5639 0.8246 0.209 Uiso 1 1 calc R . .
C13 C 0.8390(5) 0.51974(13) 0.5000 0.132(4) Uani 1 2 d DS T P
H13 H 0.8101 0.5365 0.5000 0.159 Uiso 1 2 calc RS T P
C14 C 0.7401(5) 0.6941(3) 0.6202(6) 0.150(3) Uani 1 1 d D . .
H14 H 0.7058 0.6998 0.6268 0.181 Uiso 1 1 calc R . .
C15 C 0.7793(8) 0.7014(3) 0.6474(4) 0.145(4) Uani 1 1 d D . .
C16 C 0.7625(5) 0.6837(3) 0.7783(2) 0.103(3) Uani 1 1 d D . .
C17 C 0.8011(4) 0.5738(3) 0.8337(2) 0.133(3) Uani 1 1 d D U .
C18 C 0.7981(4) 0.5000 0.8369(3) 0.131(4) Uani 1 2 d DS T P
H18 H 0.7725 0.5000 0.8173 0.157 Uiso 1 2 calc RS T P
C19 C 0.97485(17) 0.6244(4) 0.5000 0.154(5) Uani 1 2 d DS T P
H19 H 0.9537 0.6470 0.5000 0.184 Uiso 1 2 calc RS T P
C20 C 0.7654(5) 0.7199(3) 0.6862(4) 0.121(4) Uani 1 1 d D . .
C21 C 0.8410(5) 0.6767(3) 0.5987(6) 0.160(4) Uani 1 1 d D . .
H21 H 0.8755 0.6722 0.5915 0.192 Uiso 1 1 calc R . .
C22 C 0.7411(4) 0.6180(3) 0.8012(2) 0.141(3) Uani 1 1 d D U .
H22 H 0.7084 0.6231 0.7906 0.169 Uiso 1 1 calc R . .
C23 C 0.8390(4) 0.6021(4) 0.8300(3) 0.168(4) Uani 1 1 d D . .
H23 H 0.8720 0.5966 0.8399 0.202 Uiso 1 1 calc R . .
C24 C 0.8301(4) 0.6385(4) 0.8122(3) 0.167(4) Uani 1 1 d D . .
H24 H 0.8565 0.6574 0.8099 0.200 Uiso 1 1 calc R . .
N3 N 1.0000 0.5000 0.9397(3) 0.105(4) Uani 1 4 d DS T P
C25 C 0.9567(4) 0.5000 0.9179(3) 0.102(4) Uani 1 2 d DS TU P
C26 C 0.9056(5) 0.5000 0.9291(3) 0.122(4) Uani 1 2 d DS TU P
C27 C 0.8513(3) 0.5370(2) 0.8828(3) 0.146(3) Uani 1 1 d D U .
H27 H 0.8635 0.5611 0.8934 0.176 Uiso 1 1 calc R . .
C28 C 0.8899(5) 0.5000 0.9682(3) 0.108(4) Uani 1 2 d DS TU P
C29 C 0.8171(3) 0.5351(2) 0.8514(3) 0.146(3) Uani 1 1 d D U .
C30 C 0.8661(5) 0.5000 0.8974(3) 0.144(4) Uani 1 2 d DS TU P
N4 N 0.9227(5) 0.5000 1.0000 0.088(3) Uani 1 4 d DS T P
C31 C 0.7810(5) 0.6464(3) 0.7980(3) 0.168(4) Uani 1 1 d D U .
C32 C 0.97441(17) 0.5000 0.8779(3) 0.149(5) Uani 1 2 d DS TU P
H32 H 0.9534 0.5000 0.8552 0.179 Uiso 1 2 calc RS T P
loop_
_atom_site_aniso_label
_atom_site_aniso_U_11
_atom_site_aniso_U_22
_atom_site_aniso_U_33
_atom_site_aniso_U_23
_atom_site_aniso_U_13
_atom_site_aniso_U_12
Cu1 0.196(4) 0.0495(15) 0.0535(16) 0.000 0.000 0.000
Cu2 0.2123(14) 0.0701(9) 0.0955(9) -0.0017(5) -0.0033(7) 0.0249(6)
Cu3 0.224(4) 0.0486(15) 0.0631(18) 0.000 0.000 0.000
N1 0.145(15) 0.063(10) 0.098(9) 0.000 0.000 0.000
O1 0.229(6) 0.153(5) 0.149(5) -0.003(3) 0.004(4) 0.009(4)
O2 0.209(6) 0.110(5) 0.107(4) 0.015(4) -0.001(4) 0.004(4)
O3 0.184(6) 0.096(4) 0.117(5) 0.011(3) -0.014(5) 0.027(5)
C1 0.109(10) 0.063(9) 0.069(6) 0.000 0.000 -0.026(8)
C2 0.180(11) 0.127(8) 0.109(11) 0.000 -0.005(7) 0.000
O4 0.198(7) 0.126(5) 0.113(5) -0.014(3) 0.012(5) 0.015(5)
N2 0.170(13) 0.040(8) 0.113(9) 0.000 0.000 0.000
O5 0.186(7) 0.146(5) 0.126(6) -0.010(4) 0.004(5) 0.018(4)
C3 0.202(16) 0.084(12) 0.092(8) 0.000 0.000 -0.009(8)
C4 0.248(18) 0.153(9) 0.147(16) -0.007(8) -0.022(11) 0.029(9)
C5 0.212(9) 0.124(7) 0.087(7) 0.006(6) 0.002(6) 0.027(6)
C6 0.209(13) 0.112(7) 0.098(11) -0.020(6) 0.008(13) 0.008(9)
C7 0.201(15) 0.069(11) 0.115(9) 0.000 0.000 0.024(10)
C8 0.153(10) 0.083(8) 0.088(8) 0.000 0.000 -0.013(6)
C9 0.191(9) 0.130(8) 0.106(10) 0.005(8) -0.004(8) 0.018(7)
C10 0.208(13) 0.100(9) 0.096(10) 0.000 0.000 0.020(8)
C11 0.211(15) 0.137(7) 0.112(13) 0.004(7) 0.002(9) 0.025(8)
C12 0.221(11) 0.151(9) 0.151(9) 0.009(7) -0.039(7) -0.012(8)
C13 0.161(10) 0.099(9) 0.137(9) 0.000 0.000 -0.029(7)
C14 0.207(12) 0.136(7) 0.108(9) -0.009(7) 0.012(12) 0.016(7)
C15 0.197(14) 0.122(7) 0.115(14) 0.010(8) -0.012(14) 0.028(9)
C16 0.173(12) 0.053(7) 0.083(6) 0.012(5) 0.005(8) 0.007(9)
C17 0.212(10) 0.098(7) 0.089(6) 0.002(5) -0.018(7) -0.004(8)
C18 0.209(12) 0.067(8) 0.117(10) 0.000 -0.023(7) 0.000
C19 0.158(14) 0.122(9) 0.181(11) 0.000 0.000 -0.008(7)
C20 0.158(15) 0.130(8) 0.074(9) 0.011(7) 0.009(10) 0.010(10)
C21 0.234(13) 0.134(8) 0.112(9) -0.023(7) 0.015(13) -0.005(8)
C22 0.209(10) 0.095(7) 0.118(6) 0.024(6) -0.015(6) 0.016(6)
C23 0.229(11) 0.099(7) 0.176(9) 0.030(7) -0.039(7) 0.019(8)
C24 0.191(10) 0.162(12) 0.148(9) -0.011(7) -0.056(8) 0.008(9)
N3 0.172(14) 0.090(8) 0.051(10) 0.000 0.000 0.000
C25 0.173(13) 0.075(7) 0.058(8) 0.000 -0.021(8) 0.000
C26 0.169(13) 0.096(7) 0.100(10) 0.000 -0.011(8) 0.000
C27 0.201(9) 0.111(7) 0.126(7) 0.014(6) -0.035(6) 0.018(6)
C28 0.157(11) 0.079(7) 0.089(9) 0.000 -0.005(9) 0.000
C29 0.219(9) 0.110(8) 0.110(7) 0.024(6) -0.013(7) 0.015(7)
C30 0.196(12) 0.148(9) 0.086(9) 0.000 -0.016(7) 0.000
N4 0.130(12) 0.080(7) 0.055(9) 0.000 0.000 0.000
C31 0.258(16) 0.092(11) 0.155(9) 0.007(8) -0.002(9) -0.012(8)
C32 0.186(15) 0.157(9) 0.104(7) 0.000 0.012(7) 0.000
loop_
_atom_type_symbol
_atom_type_description
_atom_type_scat_dispersion_real
_atom_type_scat_dispersion_imag
_atom_type_scat_source
C C 0.0010 0.0010 'International Tables Vol C Tables 4.2.6.8 and 6.1.1.4'
H H 0.0000 0.0000 'International Tables Vol C Tables 4.2.6.8 and 6.1.1.4'
Cu Cu 0.3000 0.6670 'International Tables Vol C Tables 4.2.6.8 and 6.1.1.4'
N N 0.0020 0.0010 'International Tables Vol C Tables 4.2.6.8 and 6.1.1.4'
O O 0.0040 0.0030 'International Tables Vol C Tables 4.2.6.8 and 6.1.1.4'
loop_
_geom_angle_atom_site_label_1
_geom_angle_atom_site_label_2
_geom_angle_atom_site_label_3
_geom_angle
_geom_angle_site_symmetry_1
_geom_angle_site_symmetry_3
N1 Cu1 N1 180.0 . 9_766
N1 Cu1 N2 90.000(2) 9_766 .
N1 Cu1 N2 90.000(1) . .
N1 Cu1 N2 90.000(2) . 9_766
N1 Cu1 N2 90.000(1) 9_766 9_766
N2 Cu1 N2 180.0 9_766 .
O1 Cu2 Cu2 178.27(15) . 13_666
O2 Cu2 Cu2 81.6(2) 13_666 13_666
O2 Cu2 O1 96.7(3) 13_666 .
O2 Cu2 O4 92.6(2) 13_666 .
O2 Cu2 O5 87.2(2) 13_666 13_666
O3 Cu2 Cu2 87.2(2) . 13_666
O3 Cu2 O1 94.5(3) . .
O3 Cu2 O2 168.8(3) . 13_666
O3 Cu2 O4 86.4(3) . .
O3 Cu2 O5 91.8(3) . 13_666
O4 Cu2 Cu2 85.6(2) . 13_666
O4 Cu2 O1 94.8(3) . .
O5 Cu2 Cu2 84.1(2) 13_666 13_666
O5 Cu2 O1 95.5(3) 13_666 .
O5 Cu2 O4 169.7(3) 13_666 .
N3 Cu3 N3 180.0 9_767 .
N4 Cu3 N3 90.000(2) 9_767 .
N4 Cu3 N3 90.000(2) 9_767 9_767
N4 Cu3 N3 90.000(2) . .
N4 Cu3 N3 90.000(2) . 9_767
N4 Cu3 N4 180.0 . 9_767
C1 N1 Cu1 129.1(7) . .
C1 N1 Cu1 129.1(7) 11_565 .
C1 N1 C1 101.8(14) . 11_565
C16 O2 Cu2 121.0(6) . 13_666
C16 O3 Cu2 119.5(7) . .
N1 C1 C3 122.6(10) . .
N1 C1 C13 112.8(12) . .
C3 C1 C13 124.7(9) . .
C2 C2 H2 126.5 4_567 .
C2 C2 C28 107.0(5) 4_567 .
C28 C2 H2 126.5 . .
C20 O4 Cu2 115.1(8) . .
C7 N2 Cu1 124.9(7) . .
C7 N2 Cu1 124.9(7) 3_756 .
C7 N2 C7 110.2(15) 3_756 .
C20 O5 Cu2 117.4(8) . 13_666
C1 C3 C7 128.0(11) . .
C1 C3 C8 120.4(11) . .
C7 C3 C8 111.6(9) . .
C15 C4 H4 117.8 . .
C15 C4 C21 124.5(11) . .
C21 C4 H4 117.8 . .
C8 C5 H5 120.8 . .
C8 C5 C9 118.5(9) . .
C9 C5 H5 120.8 . .
C11 C6 C9 122.7(17) . .
C21 C6 C9 116.9(17) . .
C21 C6 C11 120.2(10) . .
N2 C7 C3 125.4(11) . .
N2 C7 C19 106.6(12) . .
C3 C7 C19 127.9(8) . .
C5 C8 C3 119.3(5) 10_556 .
C5 C8 C3 119.3(5) . .
C5 C8 C5 120.7(11) 10_556 .
C5 C9 C6 118.4(9) . .
C10 C9 C5 121.9(9) . .
C10 C9 C6 119.7(9) . .
C9 C10 C9 116.6(12) . 10_556
C9 C10 H10 121.7 . .
C9 C10 H10 121.7 10_556 .
C6 C11 H11 119.8 . .
C6 C11 C14 120.3(9) . .
C14 C11 H11 119.8 . .
C17 C12 H12 119.6 . .
C17 C12 C22 120.8(9) . .
C22 C12 H12 119.6 . .
C1 C13 H13 126.8 . .
C13 C13 C1 106.3(5) 4_566 .
C13 C13 H13 126.8 4_566 .
C11 C14 H14 120.0 . .
C15 C14 C11 120.0(9) . .
C15 C14 H14 120.0 . .
C4 C15 C14 116.4(10) . .
C4 C15 C20 125.1(17) . .
C14 C15 C20 118.4(16) . .
O2 C16 C31 105.1(9) . .
O3 C16 O2 130.6(9) . .
O3 C16 C31 124.0(11) . .
C12 C17 C29 124.6(10) . .
C23 C17 C12 119.1(9) . .
C23 C17 C29 116.2(10) . .
C29 C18 H18 120.4 . .
C29 C18 H18 120.4 11_565 .
C29 C18 C29 119.1(11) 11_565 .
C7 C19 H19 125.9 . .
C19 C19 C7 108.3(5) 3_756 .
C19 C19 H19 125.9 3_756 .
O4 C20 O5 137.7(12) . .
O4 C20 C15 113.9(13) . .
O5 C20 C15 108.3(11) . .
C4 C21 H21 120.9 . .
C6 C21 C4 118.1(10) . .
C6 C21 H21 120.9 . .
C12 C22 H22 120.9 . .
C12 C22 C31 118.3(8) . .
C31 C22 H22 120.9 . .
C17 C23 H23 118.9 . .
C17 C23 C24 122.2(9) . .
C24 C23 H23 118.9 . .
C23 C24 H24 120.9 . .
C23 C24 C31 118.3(10) . .
C31 C24 H24 120.9 . .
C25 N3 Cu3 123.1(7) 2_765 .
C25 N3 Cu3 123.1(7) . .
C25 N3 C25 113.8(14) 2_765 .
N3 C25 C26 131.0(11) . .
N3 C25 C32 104.3(11) . .
C26 C25 C32 124.7(8) . .
C25 C26 C30 118.0(10) . .
C28 C26 C25 123.1(11) . .
C28 C26 C30 118.9(10) . .
C29 C27 H27 123.0 . .
C29 C27 C30 113.9(9) . .
C30 C27 H27 123.0 . .
C26 C28 C2 124.2(9) . .
N4 C28 C2 111.5(12) . .
N4 C28 C26 124.3(11) . .
C18 C29 C17 120.6(8) . .
C18 C29 C27 122.9(9) . .
C27 C29 C17 116.5(7) . .
C27 C30 C26 116.4(6) 11_565 .
C27 C30 C26 116.4(6) . .
C27 C30 C27 126.8(12) 11_565 .
C28 N4 Cu3 128.5(7) 10_557 .
C28 N4 Cu3 128.5(7) . .
C28 N4 C28 103.0(14) . 10_557
C22 C31 C16 111.5(10) . .
C24 C31 C16 127.4(12) . .
C24 C31 C22 121.1(9) . .
C25 C32 H32 125.6 . .
C32 C32 C25 108.8(5) 2_765 .
C32 C32 H32 125.6 2_765 .
loop_
_geom_bond_atom_site_label_1
_geom_bond_atom_site_label_2
_geom_bond_distance
_geom_bond_site_symmetry_2
Cu1 N1 2.005(15) .
Cu1 N1 2.005(15) 9_766
Cu1 N2 2.085(11) 9_766
Cu1 N2 2.085(11) .
Cu2 Cu2 2.667(2) 13_666
Cu2 O1 2.151(6) .
Cu2 O2 1.980(6) 13_666
Cu2 O3 1.941(7) .
Cu2 O4 2.017(7) .
Cu2 O5 1.985(7) 13_666
Cu3 N3 2.058(11) .
Cu3 N3 2.058(11) 9_767
Cu3 N4 2.032(13) .
Cu3 N4 2.032(13) 9_767
N1 C1 1.379(7) .
N1 C1 1.379(7) 11_565
O2 Cu2 1.980(6) 13_666
O2 C16 1.332(9) .
O3 C16 1.180(9) .
C1 C3 1.391(8) .
C1 C13 1.415(8) .
C2 C2 1.336(9) 4_567
C2 H2 0.9500 .
C2 C28 1.427(8) .
O4 C20 1.209(10) .
N2 C7 1.359(7) .
N2 C7 1.359(8) 3_756
O5 Cu2 1.985(7) 13_666
O5 C20 1.268(10) .
C3 C7 1.404(8) .
C3 C8 1.496(8) .
C4 H4 0.9500 .
C4 C15 1.394(8) .
C4 C21 1.398(8) .
C5 H5 0.9500 .
C5 C8 1.396(6) .
C5 C9 1.414(7) .
C6 C9 1.499(8) .
C6 C11 1.397(7) .
C6 C21 1.379(7) .
C7 C19 1.446(9) .
C8 C5 1.396(6) 10_556
C9 C10 1.408(7) .
C10 C9 1.408(7) 10_556
C10 H10 0.9500 .
C11 H11 0.9500 .
C11 C14 1.426(7) .
C12 H12 0.9500 .
C12 C17 1.404(7) .
C12 C22 1.408(7) .
C13 C13 1.344(9) 4_566
C13 H13 0.9500 .
C14 H14 0.9500 .
C14 C15 1.410(7) .
C15 C20 1.507(9) .
C16 C31 1.516(9) .
C17 C23 1.394(7) .
C17 C29 1.507(8) .
C18 H18 0.9500 .
C18 C29 1.386(7) 11_565
C18 C29 1.387(7) .
C19 C19 1.323(9) 3_756
C19 H19 0.9500 .
C21 H21 0.9500 .
C22 H22 0.9500 .
C22 C31 1.430(7) .
C23 H23 0.9500 .
C23 C24 1.398(8) .
C24 H24 0.9500 .
C24 C31 1.406(7) .
N3 C25 1.358(8) .
N3 C25 1.358(8) 2_765
C25 C26 1.398(8) .
C25 C32 1.442(8) .
C26 C28 1.395(9) .
C26 C30 1.500(9) .
C27 H27 0.9500 .
C27 C29 1.400(7) .
C27 C30 1.409(6) .
C28 N4 1.386(8) .
C30 C27 1.409(6) 11_565
N4 C28 1.386(8) 10_557
C32 C32 1.346(9) 2_765
C32 H32 0.9500 .
loop_
_geom_torsion_atom_site_label_1
_geom_torsion_atom_site_label_2
_geom_torsion_atom_site_label_3
_geom_torsion_atom_site_label_4
_geom_torsion
_geom_torsion_site_symmetry_1
_geom_torsion_site_symmetry_4
Cu1 N1 C1 C3 0.0 . .
Cu1 N1 C1 C13 180.0 . .
Cu1 N2 C7 C3 0.0 . .
Cu1 N2 C7 C19 180.0 . .
Cu2 O2 C16 O3 -5.1(14) 13_666 .
Cu2 O2 C16 C31 -179.0(5) 13_666 .
Cu2 O3 C16 O2 4.8(14) . .
Cu2 O3 C16 C31 177.8(6) . .
Cu2 O4 C20 O5 2.9(17) . .
Cu2 O4 C20 C15 179.9(5) . .
Cu2 O5 C20 O4 -1.3(17) 13_666 .
Cu2 O5 C20 C15 -178.4(5) 13_666 .
Cu3 N3 C25 C26 0.000(4) . .
Cu3 N3 C25 C32 180.000(2) . .
N1 C1 C3 C7 0.0 . .
N1 C1 C3 C8 180.0 . .
N1 C1 C13 C13 0.0 . 4_566
O2 C16 C31 C22 -178.2(7) . .
O2 C16 C31 C24 2.1(12) . .
O3 C16 C31 C22 7.4(13) . .
O3 C16 C31 C24 -172.3(10) . .
C1 N1 C1 C3 180.0 11_565 .
C1 N1 C1 C13 0.0 11_565 .
C1 C3 C7 N2 0.0 . .
C1 C3 C7 C19 180.0 . .
C1 C3 C8 C5 85.6(8) . .
C1 C3 C8 C5 -85.6(8) . 10_556
C2 C2 C28 C26 180.000(5) 4_567 .
C2 C2 C28 N4 0.000(4) 4_567 .
C2 C28 N4 Cu3 180.000(3) . .
C2 C28 N4 C28 0.000(4) . 10_557
N2 C7 C19 C19 0.0 . 3_756
C3 C1 C13 C13 180.0 . 4_566
C3 C7 C19 C19 180.0 . 3_756
C4 C15 C20 O4 -162.5(10) . .
C4 C15 C20 O5 15.4(13) . .
C5 C9 C10 C9 -10.5(16) . 10_556
C6 C9 C10 C9 170.8(8) . 10_556
C6 C11 C14 C15 3.5(12) . .
C7 N2 C7 C3 180.0 3_756 .
C7 N2 C7 C19 0.0 3_756 .
C7 C3 C8 C5 94.4(8) . 10_556
C7 C3 C8 C5 -94.4(8) . .
C8 C3 C7 N2 180.0 . .
C8 C3 C7 C19 0.0 . .
C8 C5 C9 C6 -170.0(10) . .
C8 C5 C9 C10 11.3(13) . .
C9 C5 C8 C3 177.2(9) . .
C9 C5 C8 C5 -11.7(15) . 10_556
C9 C6 C11 C14 177.7(7) . .
C9 C6 C21 C4 -178.4(8) . .
C11 C6 C9 C5 -135.7(9) . .
C11 C6 C9 C10 43.0(13) . .
C11 C6 C21 C4 6.8(14) . .
C11 C14 C15 C4 1.6(13) . .
C11 C14 C15 C20 177.8(7) . .
C12 C17 C23 C24 -2.3(14) . .
C12 C17 C29 C18 38.2(13) . .
C12 C17 C29 C27 -141.5(9) . .
C12 C22 C31 C16 -177.2(7) . .
C12 C22 C31 C24 2.5(13) . .
C13 C1 C3 C7 180.0 . .
C13 C1 C3 C8 0.0 . .
C14 C15 C20 O4 21.6(12) . .
C14 C15 C20 O5 -160.5(8) . .
C15 C4 C21 C6 -1.6(15) . .
C17 C12 C22 C31 -4.5(13) . .
C17 C23 C24 C31 0.4(14) . .
C21 C4 C15 C14 -2.6(15) . .
C21 C4 C15 C20 -178.5(8) . .
C21 C6 C9 C5 49.6(12) . .
C21 C6 C9 C10 -131.6(10) . .
C21 C6 C11 C14 -7.9(13) . .
C22 C12 C17 C23 4.4(13) . .
C22 C12 C17 C29 -174.5(7) . .
C23 C17 C29 C18 -140.6(9) . .
C23 C17 C29 C27 39.6(11) . .
C23 C24 C31 C16 179.2(8) . .
C23 C24 C31 C22 -0.5(14) . .
N3 C25 C26 C28 0.000(5) . .
N3 C25 C26 C30 180.000(4) . .
N3 C25 C32 C32 0.000(3) . 2_765
C25 N3 C25 C26 180.000(4) 2_765 .
C25 N3 C25 C32 0.000(2) 2_765 .
C25 C26 C28 C2 180.000(4) . .
C25 C26 C28 N4 0.000(6) . .
C25 C26 C30 C27 87.0(8) . 11_565
C25 C26 C30 C27 -87.0(8) . .
C26 C25 C32 C32 180.000(3) . 2_765
C26 C28 N4 Cu3 0.000(3) . .
C26 C28 N4 C28 180.000(1) . 10_557
C28 C26 C30 C27 -93.0(8) . 11_565
C28 C26 C30 C27 93.0(8) . .
C29 C17 C23 C24 176.6(8) . .
C29 C18 C29 C17 174.1(6) 11_565 .
C29 C18 C29 C27 -6.1(17) 11_565 .
C29 C27 C30 C26 175.7(9) . .
C29 C27 C30 C27 2.3(17) . 11_565
C30 C26 C28 C2 0.000(6) . .
C30 C26 C28 N4 180.000(4) . .
C30 C27 C29 C17 -178.2(8) . .
C30 C27 C29 C18 2.1(14) . .
C32 C25 C26 C28 180.000(4) . .
C32 C25 C26 C30 0.000(3) . .
loop_
_platon_squeeze_void_nr
_platon_squeeze_void_average_x
_platon_squeeze_void_average_y
_platon_squeeze_void_average_z
_platon_squeeze_void_volume
_platon_squeeze_void_count_electrons
_platon_squeeze_void_content
1 -0.009 -0.009 -0.005 24405 2828 ' '
