#------------------------------------------------------------------------------
#$Date: 2019-06-08 03:06:04 +0300 (Sat, 08 Jun 2019) $
#$Revision: 215760 $
#$URL: file:///home/coder/svn-repositories/cod/cif/7/12/36/7123612.cif $
#------------------------------------------------------------------------------
#
# This file is available in the Crystallography Open Database (COD),
# http://www.crystallography.net/
#
# All data on this site have been placed in the public domain by the
# contributors.
#
data_7123612
loop_
_publ_author_name
'Pandey, Anjani Kumar'
'Usman, Mohammad'
'Rath, Sankar Prasad'
_publ_section_title
;
 Counter Ion Triggers Stabilization of Two Geometrical Isomers of a
 Ni(II)dication Diradical Porphyrin Dimer: Role of Anion-\p Interactions
;
_journal_name_full               'Chemical Communications'
_journal_paper_doi               10.1039/C9CC02902H
_journal_year                    2019
_chemical_formula_sum            'C76 H92 Cl16 N8 Ni2 O Sb2'
_chemical_formula_weight         2061.69
_space_group_crystal_system      triclinic
_space_group_IT_number           2
_space_group_name_Hall           '-P 1'
_space_group_name_H-M_alt        'P -1'
_symmetry_space_group_name_Hall  '-P 1'
_symmetry_space_group_name_H-M   'P -1'
_atom_sites_solution_hydrogens   geom
_audit_creation_method           SHELXL-2018/3
_audit_update_record
;
2018-12-18 deposited with the CCDC.    2019-06-07 downloaded from the CCDC.
;
_cell_angle_alpha                89.078(3)
_cell_angle_beta                 87.221(2)
_cell_angle_gamma                82.480(2)
_cell_formula_units_Z            2
_cell_length_a                   12.7607(11)
_cell_length_b                   17.1587(15)
_cell_length_c                   20.3195(17)
_cell_measurement_reflns_used    999
_cell_measurement_temperature    100(2)
_cell_measurement_theta_max      27.0
_cell_measurement_theta_min      2.5
_cell_volume                     4405.4(7)
_computing_cell_refinement       'Bruker SAINT'
_computing_data_collection       'Bruker APEX'
_computing_data_reduction        'Bruker SAINT'
_computing_molecular_graphics    'SHELXL 5.1, XP (Sheldrick, 1994)'
_computing_publication_material  SHELXL-97
_computing_structure_refinement  'SHELXL-2018/3 (Sheldrick, 2018)'
_computing_structure_solution    'SHELXS-97 (Sheldrick, 2008)'
_diffrn_ambient_temperature      100(2)
_diffrn_measured_fraction_theta_full 0.997
_diffrn_measured_fraction_theta_max 0.997
_diffrn_measurement_device_type  'Bruker SMART APEX'
_diffrn_measurement_method       \w
_diffrn_radiation_type           MoK\a
_diffrn_radiation_wavelength     0.71073
_diffrn_reflns_av_R_equivalents  0.0989
_diffrn_reflns_av_unetI/netI     0.1267
_diffrn_reflns_Laue_measured_fraction_full 0.997
_diffrn_reflns_Laue_measured_fraction_max 0.997
_diffrn_reflns_limit_h_max       15
_diffrn_reflns_limit_h_min       -15
_diffrn_reflns_limit_k_max       20
_diffrn_reflns_limit_k_min       -20
_diffrn_reflns_limit_l_max       24
_diffrn_reflns_limit_l_min       -24
_diffrn_reflns_number            55099
_diffrn_reflns_point_group_measured_fraction_full 0.997
_diffrn_reflns_point_group_measured_fraction_max 0.997
_diffrn_reflns_theta_full        25.000
_diffrn_reflns_theta_max         25.499
_diffrn_reflns_theta_min         2.007
_diffrn_source                   'fine-focus sealed tube'
_exptl_absorpt_coefficient_mu    1.559
_exptl_absorpt_correction_T_max  0.855
_exptl_absorpt_correction_T_min  0.790
_exptl_absorpt_correction_type   multi-scan
_exptl_crystal_colour            'dark red'
_exptl_crystal_density_diffrn    1.554
_exptl_crystal_description       block
_exptl_crystal_F_000             2084
_exptl_crystal_size_max          0.150
_exptl_crystal_size_mid          0.140
_exptl_crystal_size_min          0.100
_refine_diff_density_max         2.432
_refine_diff_density_min         -1.284
_refine_diff_density_rms         0.203
_refine_ls_extinction_method     none
_refine_ls_goodness_of_fit_ref   1.043
_refine_ls_hydrogen_treatment    constr
_refine_ls_matrix_type           full
_refine_ls_number_parameters     1011
_refine_ls_number_reflns         16383
_refine_ls_number_restraints     20
_refine_ls_restrained_S_all      1.062
_refine_ls_R_factor_all          0.1488
_refine_ls_R_factor_gt           0.0835
_refine_ls_shift/su_max          0.001
_refine_ls_shift/su_mean         0.000
_refine_ls_structure_factor_coef Fsqd
_refine_ls_weighting_details
'w=1/[\s^2^(Fo^2^)+(0.1320P)^2^+16.1816P] where P=(Fo^2^+2Fc^2^)/3'
_refine_ls_weighting_scheme      calc
_refine_ls_wR_factor_gt          0.2108
_refine_ls_wR_factor_ref         0.2484
_reflns_Friedel_coverage         0.000
_reflns_number_gt                9868
_reflns_number_total             16383
_reflns_threshold_expression     'I > 2\s(I)'
_cod_data_source_file            c9cc02902h2.cif
_cod_data_source_block           shelx_CCDC1
_cod_database_code               7123612
_shelx_shelxl_version_number     2018/3
_shelx_space_group_comment
;
The symmetry employed for this shelxl refinement is uniquely defined
by the following loop, which should always be used as a source of
symmetry information in preference to the above space-group names.
They are only intended as comments.
;
_shelx_estimated_absorpt_t_min   0.800
_shelx_estimated_absorpt_t_max   0.860
_exptl_absorpt_special_details   'SADABS 2.05 (Sheldrick, 2002)'
_shelx_res_file
;
TITL 9junb_0m in P -1
    shelx.res
    created by SHELXL-2018/3 at 22:17:20 on 06-Nov-2018
CELL  0.71073  12.7607  17.1587  20.3195   89.078   87.221   82.480
ZERR     2.00   0.0011   0.0015   0.0017    0.003    0.002    0.002
LATT   1
SFAC  C    H    N    CL   NI   SB    O
UNIT  152  184  16   32   4    4     2
omit -3 51.0
omit -1 1 1
omit 4 1 0
omit -1  -1   2
omit -2 1 4
omit 2 -1 3
omit 2 -1 2
omit 2 0 4
MERG   2
FMAP   2
PLAN   10
L.S.   12
DFIX 1.75 0.01 C1A CL1A C1A CL2A c1b cl1b c1b cl2b
SADI CL1S CL2S CL1A CL2A cl1b cl2b
isor 0.01 Sb1c
dfix 2.35 0.02 sb1c cl1c sb1c cl2c sb1c cl3c sb1c cl4c sb1c cl5c sb1c cl6c
sadi Cl1c cl4c cl4c cl6c
TEMP -173.0
CONF
bond $H
size 0.15 0.14 0.10 ! red block
acta 50
WGHT    0.132000   16.181601
FVAR       0.06585   0.67934
NI1   5    0.479092    0.202770    0.956096    11.00000    0.01147    0.01722 =
         0.02416   -0.00199   -0.00183   -0.00447
NI2   5    0.558362    0.466232    0.629368    11.00000    0.01557    0.02353 =
         0.01621    0.00224   -0.00717   -0.00092
N1    3    0.559914    0.134314    0.894496    11.00000    0.00740    0.02390 =
         0.02086    0.00640   -0.01129   -0.00493
N4    3    0.600271    0.257104    0.964355    11.00000    0.01390    0.01354 =
         0.01930    0.00255   -0.00623   -0.00458
N3    3    0.400687    0.270930    1.018886    11.00000    0.01151    0.01870 =
         0.02507   -0.00317   -0.00429   -0.00866
N2    3    0.363266    0.143718    0.950928    11.00000    0.01804    0.01025 =
         0.02913   -0.00574   -0.00361   -0.00202
N5    3    0.689309    0.442643    0.672116    11.00000    0.01679    0.02284 =
         0.02146   -0.00070   -0.00237    0.00223
N6    3    0.549263    0.574142    0.654870    11.00000    0.01519    0.02913 =
         0.01510    0.00984   -0.00648   -0.00313
N7    3    0.429655    0.489071    0.583869    11.00000    0.01850    0.02514 =
         0.02012    0.00588   -0.00337   -0.00438
N8    3    0.571755    0.357632    0.602587    11.00000    0.02334    0.03435 =
         0.01153    0.00281   -0.01480    0.00063
C1    1    0.642673    0.148545    0.855263    11.00000    0.01840    0.02260 =
         0.01369    0.00401   -0.01270   -0.00405
C2    1    0.689389    0.081515    0.818492    11.00000    0.01601    0.02584 =
         0.01774    0.00400   -0.00921    0.00202
C3    1    0.630417    0.022811    0.836291    11.00000    0.01535    0.02854 =
         0.01559    0.00141   -0.00822    0.00633
C4    1    0.547347    0.056800    0.881266    11.00000    0.01688    0.01983 =
         0.02351    0.00306   -0.00784   -0.00026
C5    1    0.457207    0.025374    0.898332    11.00000    0.02260    0.02201 =
         0.02812    0.00641    0.00017   -0.00309
AFIX  43
H5    2    0.454995   -0.028559    0.889445    11.00000   -1.20000
AFIX   0
C6    1    0.367328    0.068927    0.928456    11.00000    0.02104    0.02040 =
         0.02754   -0.00263   -0.00804   -0.00644
C7    1    0.262389    0.046496    0.930293    11.00000    0.02795    0.02533 =
         0.02439    0.00146   -0.01439   -0.00595
C8    1    0.194995    0.108512    0.954362    11.00000    0.02245    0.02155 =
         0.02828    0.00036   -0.01192   -0.00462
C9    1    0.260036    0.167716    0.967069    11.00000    0.01942    0.02002 =
         0.02689    0.00146    0.00233   -0.00391
C10   1    0.225455    0.237297    1.001741    11.00000    0.00879    0.02614 =
         0.03328    0.00425    0.00137   -0.00799
AFIX  43
H10   2    0.151325    0.252724    1.007226    11.00000   -1.20000
AFIX   0
C11   1    0.290867    0.284443    1.028178    11.00000    0.01639    0.01848 =
         0.02253    0.00581    0.00358    0.00031
C12   1    0.260457    0.347459    1.073819    11.00000    0.01958    0.01909 =
         0.02270    0.00689   -0.00021   -0.00590
C13   1    0.352254    0.369878    1.093673    11.00000    0.01302    0.01980 =
         0.01701    0.00053   -0.00044    0.00024
C14   1    0.437542    0.322024    1.059377    11.00000    0.01730    0.01871 =
         0.01279    0.00649   -0.00165   -0.00161
C15   1    0.546960    0.329976    1.063279    11.00000    0.02133    0.01572 =
         0.01534   -0.00233   -0.00041   -0.00445
AFIX  43
H15   2    0.567617    0.358323    1.099201    11.00000   -1.20000
AFIX   0
C16   1    0.621973    0.299892    1.019379    11.00000    0.00537    0.01785 =
         0.01821    0.00856   -0.00277    0.00044
C17   1    0.728653    0.321251    1.010661    11.00000    0.00677    0.01456 =
         0.02612    0.00120    0.00130   -0.00134
C18   1    0.764483    0.298342    0.948938    11.00000    0.01282    0.01508 =
         0.02360    0.00178   -0.00741   -0.00274
C19   1    0.681475    0.259457    0.922472    11.00000    0.01121    0.01634 =
         0.02096    0.00626   -0.00431    0.00369
C20   1    0.682109    0.223994    0.857085    11.00000    0.00747    0.01818 =
         0.02141    0.00228    0.00210    0.00334
C21   1    0.790768    0.073455    0.776343    11.00000    0.02365    0.02566 =
         0.01703   -0.00333    0.00396    0.00514
AFIX  23
H21A  2    0.796834    0.123586    0.752548    11.00000   -1.20000
H21B  2    0.788943    0.032056    0.743193    11.00000   -1.20000
AFIX   0
C22   1    0.887149    0.052364    0.817971    11.00000    0.01960    0.08587 =
         0.03692    0.01269    0.00476    0.00861
AFIX 137
H22A  2    0.951875    0.051655    0.789863    11.00000   -1.50000
H22B  2    0.884736    0.000347    0.838183    11.00000   -1.50000
H22C  2    0.886665    0.091559    0.852573    11.00000   -1.50000
AFIX   0
C23   1    0.645235   -0.061504    0.815548    11.00000    0.02543    0.02558 =
         0.02513   -0.00107   -0.00738    0.00003
AFIX  23
H23A  2    0.701617   -0.069272    0.780166    11.00000   -1.20000
H23B  2    0.578898   -0.074193    0.797457    11.00000   -1.20000
AFIX   0
C24   1    0.675167   -0.117812    0.873319    11.00000    0.03923    0.03287 =
         0.03224    0.00024   -0.00536   -0.00615
AFIX 137
H24A  2    0.686723   -0.172050    0.857491    11.00000   -1.50000
H24B  2    0.617710   -0.112426    0.907386    11.00000   -1.50000
H24C  2    0.740131   -0.104822    0.891872    11.00000   -1.50000
AFIX   0
C25   1    0.236905   -0.034575    0.911629    11.00000    0.01939    0.02766 =
         0.03207    0.00248   -0.00678   -0.00016
AFIX  23
H25A  2    0.160584   -0.031291    0.903477    11.00000   -1.20000
H25B  2    0.277234   -0.051592    0.870357    11.00000   -1.20000
AFIX   0
C26   1    0.264474   -0.095303    0.965792    11.00000    0.04273    0.03484 =
         0.05625    0.00705   -0.02695   -0.00766
AFIX 137
H26A  2    0.242760   -0.145646    0.953613    11.00000   -1.50000
H26B  2    0.227375   -0.077316    1.007248    11.00000   -1.50000
H26C  2    0.341004   -0.101972    0.971322    11.00000   -1.50000
AFIX   0
C27   1    0.076409    0.116434    0.965107    11.00000    0.02415    0.02754 =
         0.04275    0.00254   -0.00724   -0.00583
AFIX  23
H27A  2    0.047591    0.081646    0.934116    11.00000   -1.20000
H27B  2    0.046168    0.171242    0.955226    11.00000   -1.20000
AFIX   0
C28   1    0.042538    0.095496    1.034889    11.00000    0.02961    0.04355 =
         0.04975    0.00067   -0.00371   -0.02006
AFIX 137
H28A  2   -0.034873    0.100641    1.039264    11.00000   -1.50000
H28B  2    0.068541    0.131093    1.065692    11.00000   -1.50000
H28C  2    0.072017    0.041199    1.044891    11.00000   -1.50000
AFIX   0
C29   1    0.148820    0.378694    1.092449    11.00000    0.01458    0.02440 =
         0.03676   -0.00215    0.00470   -0.00158
AFIX  23
H29A  2    0.148655    0.418013    1.127593    11.00000   -1.20000
H29B  2    0.112680    0.335057    1.111016    11.00000   -1.20000
AFIX   0
C30   1    0.085385    0.416860    1.035834    11.00000    0.01889    0.03535 =
         0.04204   -0.00372   -0.00862   -0.00673
AFIX 137
H30A  2    0.014616    0.438825    1.052727    11.00000   -1.50000
H30B  2    0.079183    0.377247    1.002526    11.00000   -1.50000
H30C  2    0.121670    0.458987    1.015937    11.00000   -1.50000
AFIX   0
C31   1    0.365838    0.437209    1.137607    11.00000    0.02118    0.02310 =
         0.03229   -0.00874   -0.00092    0.00354
AFIX  23
H31A  2    0.422458    0.419984    1.168296    11.00000   -1.20000
H31B  2    0.299359    0.451930    1.164240    11.00000   -1.20000
AFIX   0
C32   1    0.393814    0.508827    1.099081    11.00000    0.02482    0.01862 =
         0.04499   -0.01434   -0.00950   -0.00095
AFIX 137
H32A  2    0.392985    0.552995    1.129167    11.00000   -1.50000
H32B  2    0.341959    0.522838    1.065421    11.00000   -1.50000
H32C  2    0.464547    0.496855    1.077797    11.00000   -1.50000
AFIX   0
C33   1    0.786740    0.356253    1.061520    11.00000    0.00837    0.02648 =
         0.02802   -0.00738   -0.00537   -0.00225
AFIX  23
H33A  2    0.735449    0.381195    1.095479    11.00000   -1.20000
H33B  2    0.824840    0.397777    1.040951    11.00000   -1.20000
AFIX   0
C34   1    0.866246    0.295027    1.094555    11.00000    0.02183    0.03756 =
         0.03331    0.00119   -0.01111   -0.00685
AFIX 137
H34A  2    0.898794    0.319802    1.130112    11.00000   -1.50000
H34B  2    0.921256    0.273897    1.061902    11.00000   -1.50000
H34C  2    0.829538    0.252226    1.112780    11.00000   -1.50000
AFIX   0
C35   1    0.869358    0.309082    0.915322    11.00000    0.01492    0.02747 =
         0.01985    0.00116   -0.00062   -0.00892
AFIX  23
H35A  2    0.882094    0.273095    0.877344    11.00000   -1.20000
H35B  2    0.925839    0.293558    0.946490    11.00000   -1.20000
AFIX   0
C36   1    0.878060    0.392177    0.890961    11.00000    0.02252    0.03368 =
         0.03266    0.00284   -0.00249   -0.00866
AFIX 137
H36A  2    0.949315    0.394705    0.871466    11.00000   -1.50000
H36B  2    0.864680    0.428549    0.928018    11.00000   -1.50000
H36C  2    0.825804    0.406930    0.857669    11.00000   -1.50000
AFIX   0
C37   1    0.708167    0.267687    0.803834    11.00000    0.00782    0.02415 =
         0.02084   -0.00081   -0.00431   -0.00317
AFIX  43
H37A  2    0.746920    0.310439    0.810033    11.00000   -1.20000
AFIX   0
C38   1    0.679300    0.251542    0.738889    11.00000    0.01244    0.02012 =
         0.03035    0.00122   -0.00134   -0.00023
AFIX  43
H38A  2    0.654734    0.202713    0.731183    11.00000   -1.20000
AFIX   0
C51   1    0.736836    0.372821    0.691073    11.00000    0.01550    0.02956 =
         0.01187   -0.00153    0.00130    0.00228
C52   1    0.841559    0.376289    0.712997    11.00000    0.01198    0.02568 =
         0.01537   -0.00095   -0.00605    0.00302
C53   1    0.855820    0.454154    0.709753    11.00000    0.00844    0.03277 =
         0.01301   -0.00165   -0.00257   -0.00105
C54   1    0.759337    0.496902    0.686433    11.00000    0.01718    0.03109 =
         0.01083    0.00789   -0.00218   -0.00764
C55   1    0.730085    0.575389    0.688235    11.00000    0.01449    0.02864 =
         0.01800    0.00190   -0.00137   -0.00782
AFIX  43
H55   2    0.782333    0.607922    0.697279    11.00000   -1.20000
AFIX   0
C56   1    0.627399    0.611795    0.677585    11.00000    0.02048    0.02254 =
         0.01775    0.00672   -0.00159   -0.00229
C57   1    0.586877    0.690603    0.696091    11.00000    0.01969    0.03008 =
         0.02082    0.00296   -0.00770   -0.00340
C58   1    0.480336    0.699224    0.687275    11.00000    0.02608    0.02344 =
         0.01267    0.00418   -0.00201   -0.00010
C59   1    0.459232    0.628072    0.659613    11.00000    0.01813    0.02778 =
         0.01926    0.01130    0.00268   -0.00447
C60   1    0.365259    0.615334    0.631340    11.00000    0.01011    0.03566 =
         0.02216    0.00948    0.00768   -0.00036
AFIX  43
H60   2    0.305088    0.653404    0.639297    11.00000   -1.20000
AFIX   0
C61   1    0.352996    0.553087    0.593496    11.00000    0.01437    0.02796 =
         0.02418    0.00475    0.00000   -0.00987
C62   1    0.263428    0.545528    0.554697    11.00000    0.02072    0.03569 =
         0.00947    0.01411   -0.00236   -0.01063
C63   1    0.287510    0.476630    0.521248    11.00000    0.01395    0.04553 =
         0.01653    0.00421   -0.00083   -0.00325
C64   1    0.391527    0.442774    0.539776    11.00000    0.01623    0.03155 =
         0.01385    0.00475   -0.00662   -0.00113
C65   1    0.440795    0.369697    0.518261    11.00000    0.02429    0.03969 =
         0.01002   -0.00131   -0.01413   -0.00812
AFIX  43
H65   2    0.415175    0.347234    0.480766    11.00000   -1.20000
AFIX   0
C66   1    0.523294    0.329570    0.548449    11.00000    0.03158    0.03669 =
         0.02149   -0.00663   -0.01710    0.00518
C67   1    0.563800    0.246503    0.540441    11.00000    0.04425    0.02954 =
         0.04391   -0.00845   -0.02458   -0.00198
C68   1    0.626067    0.224230    0.592401    11.00000    0.03871    0.03067 =
         0.02853   -0.00332   -0.01262    0.00141
C69   1    0.628027    0.295587    0.628618    11.00000    0.01773    0.02920 =
         0.01687    0.00494   -0.00671   -0.00619
C70   1    0.685339    0.302615    0.687827    11.00000    0.01310    0.02181 =
         0.02294   -0.00010   -0.00682    0.00316
C71   1    0.924541    0.308570    0.728373    11.00000    0.01780    0.02585 =
         0.02637    0.00600   -0.00945    0.00089
AFIX  23
H71A  2    0.889556    0.261535    0.739460    11.00000   -1.20000
H71B  2    0.962073    0.321591    0.767442    11.00000   -1.20000
AFIX   0
C72   1    1.004774    0.289475    0.671083    11.00000    0.03177    0.05333 =
         0.03179    0.00756    0.00578    0.00875
AFIX 137
H72A  2    1.056874    0.245134    0.683333    11.00000   -1.50000
H72B  2    1.040860    0.335458    0.660562    11.00000   -1.50000
H72C  2    0.968214    0.275547    0.632490    11.00000   -1.50000
AFIX   0
C73   1    0.951425    0.492192    0.725613    11.00000    0.00942    0.02940 =
         0.02400   -0.00153   -0.00440    0.00073
AFIX  23
H73A  2    0.928496    0.538205    0.754026    11.00000   -1.20000
H73B  2    0.999826    0.454328    0.750785    11.00000   -1.20000
AFIX   0
C74   1    1.010521    0.518525    0.665321    11.00000    0.02139    0.03433 =
         0.03948    0.00009   -0.00514   -0.00601
AFIX 137
H74A  2    1.067701    0.546991    0.678599    11.00000   -1.50000
H74B  2    0.961914    0.553234    0.638572    11.00000   -1.50000
H74C  2    1.040509    0.472533    0.639448    11.00000   -1.50000
AFIX   0
C75   1    0.651334    0.752248    0.717453    11.00000    0.02442    0.02650 =
         0.03808   -0.00473   -0.01432   -0.00414
AFIX  23
H75A  2    0.721582    0.726719    0.730323    11.00000   -1.20000
H75B  2    0.615520    0.779849    0.756410    11.00000   -1.20000
AFIX   0
C76   1    0.665637    0.811812    0.662101    11.00000    0.03164    0.03053 =
         0.05806    0.00257   -0.00393   -0.01559
AFIX 137
H76A  2    0.712131    0.848984    0.676054    11.00000   -1.50000
H76B  2    0.596596    0.840468    0.652058    11.00000   -1.50000
H76C  2    0.697356    0.784185    0.622690    11.00000   -1.50000
AFIX   0
C77   1    0.402550    0.767780    0.708370    11.00000    0.02388    0.02445 =
         0.03647    0.00599   -0.00551   -0.00303
AFIX  23
H77A  2    0.336783    0.767584    0.684488    11.00000   -1.20000
H77B  2    0.432004    0.817060    0.696756    11.00000   -1.20000
AFIX   0
C78   1    0.376378    0.765409    0.783008    11.00000    0.02215    0.05693 =
         0.03148   -0.01717   -0.00187    0.00125
AFIX 137
H78A  2    0.325578    0.811294    0.795393    11.00000   -1.50000
H78B  2    0.441281    0.766151    0.806744    11.00000   -1.50000
H78C  2    0.345599    0.717271    0.794444    11.00000   -1.50000
AFIX   0
C79   1    0.166292    0.603683    0.549936    11.00000    0.02221    0.03911 =
         0.01521   -0.00281   -0.00481    0.00162
AFIX  23
H79A  2    0.154736    0.633940    0.591312    11.00000   -1.20000
H79B  2    0.104599    0.574995    0.545470    11.00000   -1.20000
AFIX   0
C80   1    0.172204    0.660616    0.492307    11.00000    0.03331    0.04461 =
         0.02590    0.00869   -0.00438    0.01646
AFIX 137
H80A  2    0.105791    0.696367    0.491181    11.00000   -1.50000
H80B  2    0.183575    0.631144    0.451103    11.00000   -1.50000
H80C  2    0.231060    0.691084    0.497440    11.00000   -1.50000
AFIX   0
C81   1    0.218453    0.437162    0.477993    11.00000    0.02234    0.04592 =
         0.02161   -0.01738   -0.00618    0.00575
AFIX  23
H81A  2    0.263032    0.409557    0.442104    11.00000   -1.20000
H81B  2    0.167276    0.477709    0.457609    11.00000   -1.20000
AFIX   0
C82   1    0.158221    0.378595    0.515585    11.00000    0.04856    0.09286 =
         0.04893   -0.02173    0.01081   -0.04427
AFIX 137
H82A  2    0.111167    0.356996    0.485972    11.00000   -1.50000
H82B  2    0.116160    0.405119    0.552315    11.00000   -1.50000
H82C  2    0.208456    0.335862    0.532734    11.00000   -1.50000
AFIX   0
C83   1    0.541159    0.194925    0.483253    11.00000    0.12148    0.04038 =
         0.09289    0.01806   -0.09515   -0.02166
AFIX  23
H83A  2    0.520397    0.228724    0.444870    11.00000   -1.20000
H83B  2    0.606240    0.159581    0.470172    11.00000   -1.20000
AFIX   0
C84   1    0.459296    0.149448    0.501271    11.00000    0.12424    0.09609 =
         0.05196   -0.00646   -0.02868   -0.00156
AFIX 137
H84A  2    0.428754    0.132360    0.461458    11.00000   -1.50000
H84B  2    0.404216    0.181208    0.528102    11.00000   -1.50000
H84C  2    0.488208    0.103270    0.526732    11.00000   -1.50000
AFIX   0
C85   1    0.684980    0.144807    0.605492    11.00000    0.06585    0.02496 =
         0.04139   -0.00540   -0.03839    0.00423
AFIX  23
H85A  2    0.659750    0.105977    0.576566    11.00000   -1.20000
H85B  2    0.669785    0.129270    0.651754    11.00000   -1.20000
AFIX   0
C86   1    0.802780    0.143178    0.593667    11.00000    0.07652    0.05151 =
         0.04402   -0.00789   -0.02487    0.02174
AFIX 137
H86A  2    0.838551    0.091020    0.605144    11.00000   -1.50000
H86B  2    0.827725    0.182840    0.621062    11.00000   -1.50000
H86C  2    0.818648    0.154617    0.547107    11.00000   -1.50000
AFIX   0
PART   1
SB1   6    0.292494    0.414308    0.817484    10.68000    0.01531    0.03919 =
         0.03008    0.00860   -0.00697   -0.01044
CL1   4    0.186239    0.316821    0.848715    10.68000    0.06046    0.01931 =
         0.04424    0.00546   -0.00780   -0.02881
CL2   4    0.427715    0.297801    0.817132    10.68000    0.03614    0.19827 =
         0.04467   -0.01929   -0.01171    0.06016
CL3   4    0.423151    0.487015    0.775651    10.68000    0.30493    0.38677 =
         0.06557    0.12574   -0.11104   -0.32412
CL4   4    0.137439    0.509871    0.833194    10.68000    0.02591    0.04131 =
         0.04450   -0.01624   -0.01976    0.00895
CL5   4    0.329901    0.438518    0.928019    10.68000    0.01969    0.03078 =
         0.02888    0.00071   -0.00961   -0.00452
CL6   4    0.256032    0.400349    0.706530    10.68000    0.02985    0.06654 =
         0.02600   -0.00878   -0.01154   -0.00241
PART   2
SB1C  6    0.306711    0.408418    0.807117    10.32000    0.02723    0.08385 =
         0.02179    0.03368   -0.02235   -0.02815
CL1C  4    0.165151    0.348607    0.844015    10.32000    0.05663
CL2C  4    0.453417    0.332113    0.799274    10.32000    0.02554
CL3C  4    0.340183    0.427689    0.917993    10.32000    0.02724
CL4C  4    0.184626    0.515996    0.801117    10.32000    0.04825
CL5C  4    0.279454    0.369327    0.696465    10.32000    0.03423
CL6C  4    0.388988    0.527245    0.787738    10.32000    0.01603
PART   0
SB2   6    0.025980    0.810554    0.697945    11.00000    0.01869    0.03149 =
         0.03092   -0.00708   -0.00447    0.00076
CL7   4   -0.081851    0.925318    0.663731    11.00000    0.03458    0.03537 =
         0.05489   -0.00835   -0.00980    0.00884
CL8   4    0.116517    0.887267    0.765377    11.00000    0.03228    0.04189 =
         0.06369   -0.01930   -0.01593   -0.00232
CL9   4    0.131647    0.694970    0.730867    11.00000    0.02513    0.03327 =
         0.03091   -0.00208   -0.00268    0.00054
CL10  4   -0.067008    0.734613    0.630639    11.00000    0.03080    0.04550 =
         0.05375   -0.01968   -0.01770    0.00427
CL11  4   -0.096791    0.795297    0.786645    11.00000    0.02321    0.06068 =
         0.04104   -0.00827    0.00292   -0.00109
CL12  4    0.147236    0.825669    0.608769    11.00000    0.03624    0.04987 =
         0.04180    0.00932    0.00599    0.00338
PART   3
C1S   1    1.107222    0.092311    0.506181    10.50000    0.04833
AFIX  23
H1SA  2    1.065881    0.096684    0.465995    10.50000   -1.20000
H1SB  2    1.069082    0.064617    0.541019    10.50000   -1.20000
AFIX   0
CL1S  4    1.248048    0.039013    0.488257    10.50000    0.15472
CL2S  4    1.128277    0.177587    0.530499    10.50000    0.08615
PART   4
C1A   1    1.166744    0.059987    0.519089    10.20000    0.12771
AFIX  23
H1AA  2    1.173478    0.116807    0.519350    10.20000   -1.20000
H1AB  2    1.153086    0.044635    0.473849    10.20000   -1.20000
AFIX   0
CL1A  4    1.066597    0.037617    0.575190    10.20000    0.06278
CL2A  4    1.280779    0.003642    0.548132    10.20000    0.08202
PART   5
C1B   1    1.244513    0.009175    0.542554    10.30000    0.02691
AFIX  23
H1BA  2    1.279579    0.030027    0.579663    10.30000   -1.20000
H1BB  2    1.269876   -0.047656    0.538420    10.30000   -1.20000
AFIX   0
CL1B  4    1.273328    0.058680    0.469649    10.30000    0.08444
CL2B  4    1.106717    0.024181    0.556488    10.30000    0.08934
PART   6
C2S   1    0.317724    0.146337    0.776800    10.60000    0.02285
AFIX  23
H2SA  2    0.337864    0.126498    0.821052    10.60000   -1.20000
H2SB  2    0.297608    0.203786    0.781239    10.60000   -1.20000
AFIX   0
CL3S  4    0.424008    0.135874    0.732090    10.60000    0.13119
CL4S  4    0.224439    0.116037    0.764919    10.60000    0.21816
PART   7
C2A   1    0.404610    0.042611    0.693602    10.40000    0.11227
AFIX  23
H2AA  2    0.418461    0.090382    0.716616    10.40000   -1.20000
H2AB  2    0.362039    0.061493    0.655687    10.40000   -1.20000
AFIX   0
CL3A  4    0.510844    0.007960    0.663529    10.40000    0.09794
CL4A  4    0.331976    0.005584    0.738575    10.40000    0.14163
PART   8
O1S   7    0.300036    0.190633    0.649441    10.50000    0.03046    0.12804 =
         0.04084    0.02813    0.01233    0.03406
O2S   7    1.114363    0.078764    0.639401    10.50000    0.04109    0.06295 =
         0.05529   -0.01874    0.00223    0.01352
PART   0

HKLF    4




REM  9junb_0m in P -1
REM wR2 = 0.2484, GooF = S = 1.043, Restrained GooF = 1.062 for all data
REM R1 = 0.0835 for 9868 Fo > 4sig(Fo) and 0.1488 for all 16383 data
REM 1011 parameters refined using 20 restraints

END

WGHT      0.1315     16.0539

REM Highest difference peak  2.432,  deepest hole -1.284,  1-sigma level  0.203
Q1    1   0.2222  0.5278  0.7873  11.00000  0.05    2.43
Q2    1   1.1858  0.1861  0.5443  11.00000  0.05    2.17
Q3    1   0.0196  0.8701  0.7085  11.00000  0.05    1.99
Q4    1   0.2773  0.3573  0.8156  11.00000  0.05    1.92
Q5    1   0.4580  0.1052  0.7254  11.00000  0.05    1.92
Q6    1   0.3001  0.4737  0.8188  11.00000  0.05    1.90
Q7    1   0.2378  0.4153  0.8492  11.00000  0.05    1.82
Q8    1   0.3842  0.1590  0.7405  11.00000  0.05    1.80
Q9    1   0.0784  0.7973  0.6605  11.00000  0.05    1.78
Q10   1   1.0773  0.1664  0.5265  11.00000  0.05    1.78
;
_shelx_res_checksum              851
loop_
_space_group_symop_operation_xyz
'x, y, z'
'-x, -y, -z'
loop_
_atom_site_label
_atom_site_type_symbol
_atom_site_fract_x
_atom_site_fract_y
_atom_site_fract_z
_atom_site_U_iso_or_equiv
_atom_site_adp_type
_atom_site_occupancy
_atom_site_site_symmetry_order
_atom_site_calc_flag
_atom_site_refinement_flags_posn
_atom_site_refinement_flags_adp
_atom_site_refinement_flags_occupancy
_atom_site_disorder_assembly
_atom_site_disorder_group
Ni1 Ni 0.47909(8) 0.20277(6) 0.95610(6) 0.0173(3) Uani 1 1 d . . . . .
Ni2 Ni 0.55836(9) 0.46623(7) 0.62937(5) 0.0184(3) Uani 1 1 d . . . . .
N1 N 0.5599(5) 0.1343(4) 0.8945(3) 0.0169(16) Uani 1 1 d . . . . .
N4 N 0.6003(5) 0.2571(4) 0.9644(3) 0.0152(16) Uani 1 1 d . . . . .
N3 N 0.4007(5) 0.2709(4) 1.0189(4) 0.0177(16) Uani 1 1 d . . . . .
N2 N 0.3633(6) 0.1437(4) 0.9509(4) 0.0190(17) Uani 1 1 d . . . . .
N5 N 0.6893(6) 0.4426(4) 0.6721(4) 0.0207(17) Uani 1 1 d . . . . .
N6 N 0.5493(5) 0.5741(4) 0.6549(3) 0.0197(17) Uani 1 1 d . . . . .
N7 N 0.4297(6) 0.4891(4) 0.5839(4) 0.0211(17) Uani 1 1 d . . . . .
N8 N 0.5718(6) 0.3576(4) 0.6026(3) 0.0230(18) Uani 1 1 d . . . . .
C1 C 0.6427(7) 0.1485(5) 0.8553(4) 0.0178(19) Uani 1 1 d . . . . .
C2 C 0.6894(7) 0.0815(5) 0.8185(4) 0.020(2) Uani 1 1 d . . . . .
C3 C 0.6304(7) 0.0228(5) 0.8363(4) 0.020(2) Uani 1 1 d . . . . .
C4 C 0.5473(7) 0.0568(5) 0.8813(4) 0.020(2) Uani 1 1 d . . . . .
C5 C 0.4572(7) 0.0254(5) 0.8983(4) 0.024(2) Uani 1 1 d . . . . .
H5 H 0.454995 -0.028559 0.889445 0.029 Uiso 1 1 calc R U . . .
C6 C 0.3673(7) 0.0689(5) 0.9285(5) 0.022(2) Uani 1 1 d . . . . .
C7 C 0.2624(7) 0.0465(5) 0.9303(5) 0.025(2) Uani 1 1 d . . . . .
C8 C 0.1950(7) 0.1085(5) 0.9544(5) 0.024(2) Uani 1 1 d . . . . .
C9 C 0.2600(7) 0.1677(5) 0.9671(5) 0.022(2) Uani 1 1 d . . . . .
C10 C 0.2255(7) 0.2373(5) 1.0017(5) 0.022(2) Uani 1 1 d . . . . .
H10 H 0.151325 0.252724 1.007226 0.027 Uiso 1 1 calc R U . . .
C11 C 0.2909(7) 0.2844(5) 1.0282(4) 0.020(2) Uani 1 1 d . . . . .
C12 C 0.2605(7) 0.3475(5) 1.0738(4) 0.020(2) Uani 1 1 d . . . . .
C13 C 0.3523(6) 0.3699(5) 1.0937(4) 0.0168(19) Uani 1 1 d . . . . .
C14 C 0.4375(7) 0.3220(5) 1.0594(4) 0.0164(19) Uani 1 1 d . . . . .
C15 C 0.5470(7) 0.3300(5) 1.0633(4) 0.0173(19) Uani 1 1 d . . . . .
H15 H 0.567617 0.358323 1.099201 0.021 Uiso 1 1 calc R U . . .
C16 C 0.6220(6) 0.2999(5) 1.0194(4) 0.0140(18) Uani 1 1 d . . . . .
C17 C 0.7287(6) 0.3213(5) 1.0107(4) 0.0159(19) Uani 1 1 d . . . . .
C18 C 0.7645(6) 0.2983(5) 0.9489(4) 0.0169(19) Uani 1 1 d . . . . .
C19 C 0.6815(6) 0.2595(5) 0.9225(4) 0.0166(19) Uani 1 1 d . . . . .
C20 C 0.6821(6) 0.2240(5) 0.8571(4) 0.0162(19) Uani 1 1 d . . . . .
C21 C 0.7908(7) 0.0735(5) 0.7763(4) 0.023(2) Uani 1 1 d . . . . .
H21A H 0.796834 0.123586 0.752548 0.028 Uiso 1 1 calc R U . . .
H21B H 0.788943 0.032056 0.743193 0.028 Uiso 1 1 calc R U . . .
C22 C 0.8871(8) 0.0524(8) 0.8180(5) 0.049(3) Uani 1 1 d . . . . .
H22A H 0.951875 0.051655 0.789863 0.074 Uiso 1 1 calc R U . . .
H22B H 0.884736 0.000347 0.838183 0.074 Uiso 1 1 calc R U . . .
H22C H 0.886665 0.091559 0.852573 0.074 Uiso 1 1 calc R U . . .
C23 C 0.6452(8) -0.0615(5) 0.8155(5) 0.025(2) Uani 1 1 d . . . . .
H23A H 0.701617 -0.069272 0.780166 0.031 Uiso 1 1 calc R U . . .
H23B H 0.578898 -0.074193 0.797457 0.031 Uiso 1 1 calc R U . . .
C24 C 0.6752(8) -0.1178(6) 0.8733(5) 0.035(2) Uani 1 1 d . . . . .
H24A H 0.686723 -0.172050 0.857491 0.052 Uiso 1 1 calc R U . . .
H24B H 0.617710 -0.112426 0.907386 0.052 Uiso 1 1 calc R U . . .
H24C H 0.740131 -0.104822 0.891872 0.052 Uiso 1 1 calc R U . . .
C25 C 0.2369(7) -0.0346(5) 0.9116(5) 0.026(2) Uani 1 1 d . . . . .
H25A H 0.160584 -0.031291 0.903477 0.032 Uiso 1 1 calc R U . . .
H25B H 0.277234 -0.051592 0.870357 0.032 Uiso 1 1 calc R U . . .
C26 C 0.2645(9) -0.0953(6) 0.9658(6) 0.044(3) Uani 1 1 d . . . . .
H26A H 0.242760 -0.145646 0.953613 0.065 Uiso 1 1 calc R U . . .
H26B H 0.227375 -0.077316 1.007248 0.065 Uiso 1 1 calc R U . . .
H26C H 0.341004 -0.101972 0.971322 0.065 Uiso 1 1 calc R U . . .
C27 C 0.0764(7) 0.1164(6) 0.9651(5) 0.031(2) Uani 1 1 d . . . . .
H27A H 0.047591 0.081646 0.934116 0.037 Uiso 1 1 calc R U . . .
H27B H 0.046168 0.171242 0.955226 0.037 Uiso 1 1 calc R U . . .
C28 C 0.0425(8) 0.0955(6) 1.0349(5) 0.040(3) Uani 1 1 d . . . . .
H28A H -0.034873 0.100641 1.039264 0.059 Uiso 1 1 calc R U . . .
H28B H 0.068541 0.131093 1.065692 0.059 Uiso 1 1 calc R U . . .
H28C H 0.072017 0.041199 1.044891 0.059 Uiso 1 1 calc R U . . .
C29 C 0.1488(7) 0.3787(5) 1.0924(5) 0.026(2) Uani 1 1 d . . . . .
H29A H 0.148655 0.418013 1.127593 0.031 Uiso 1 1 calc R U . . .
H29B H 0.112680 0.335057 1.111016 0.031 Uiso 1 1 calc R U . . .
C30 C 0.0854(7) 0.4169(6) 1.0358(5) 0.032(2) Uani 1 1 d . . . . .
H30A H 0.014616 0.438825 1.052727 0.047 Uiso 1 1 calc R U . . .
H30B H 0.079183 0.377247 1.002526 0.047 Uiso 1 1 calc R U . . .
H30C H 0.121670 0.458987 1.015937 0.047 Uiso 1 1 calc R U . . .
C31 C 0.3658(7) 0.4372(5) 1.1376(5) 0.026(2) Uani 1 1 d . . . . .
H31A H 0.422458 0.419984 1.168296 0.031 Uiso 1 1 calc R U . . .
H31B H 0.299359 0.451930 1.164240 0.031 Uiso 1 1 calc R U . . .
C32 C 0.3938(8) 0.5088(5) 1.0991(5) 0.029(2) Uani 1 1 d . . . . .
H32A H 0.392985 0.552995 1.129167 0.044 Uiso 1 1 calc R U . . .
H32B H 0.341959 0.522838 1.065421 0.044 Uiso 1 1 calc R U . . .
H32C H 0.464547 0.496855 1.077797 0.044 Uiso 1 1 calc R U . . .
C33 C 0.7867(6) 0.3563(5) 1.0615(4) 0.021(2) Uani 1 1 d . . . . .
H33A H 0.735449 0.381195 1.095479 0.025 Uiso 1 1 calc R U . . .
H33B H 0.824840 0.397777 1.040951 0.025 Uiso 1 1 calc R U . . .
C34 C 0.8662(7) 0.2950(6) 1.0946(5) 0.030(2) Uani 1 1 d . . . . .
H34A H 0.898794 0.319802 1.130112 0.045 Uiso 1 1 calc R U . . .
H34B H 0.921256 0.273897 1.061902 0.045 Uiso 1 1 calc R U . . .
H34C H 0.829538 0.252226 1.112780 0.045 Uiso 1 1 calc R U . . .
C35 C 0.8694(7) 0.3091(5) 0.9153(4) 0.020(2) Uani 1 1 d . . . . .
H35A H 0.882094 0.273095 0.877344 0.024 Uiso 1 1 calc R U . . .
H35B H 0.925839 0.293558 0.946490 0.024 Uiso 1 1 calc R U . . .
C36 C 0.8781(7) 0.3922(6) 0.8910(5) 0.029(2) Uani 1 1 d . . . . .
H36A H 0.949315 0.394705 0.871466 0.044 Uiso 1 1 calc R U . . .
H36B H 0.864680 0.428549 0.928018 0.044 Uiso 1 1 calc R U . . .
H36C H 0.825804 0.406930 0.857669 0.044 Uiso 1 1 calc R U . . .
C37 C 0.7082(6) 0.2677(5) 0.8038(4) 0.0174(19) Uani 1 1 d . . . . .
H37A H 0.746920 0.310439 0.810033 0.021 Uiso 1 1 calc R U . . .
C38 C 0.6793(7) 0.2515(5) 0.7389(4) 0.021(2) Uani 1 1 d . . . . .
H38A H 0.654734 0.202713 0.731183 0.025 Uiso 1 1 calc R U . . .
C51 C 0.7368(7) 0.3728(5) 0.6911(4) 0.019(2) Uani 1 1 d . . . . .
C52 C 0.8416(6) 0.3763(5) 0.7130(4) 0.0180(19) Uani 1 1 d . . . . .
C53 C 0.8558(6) 0.4542(5) 0.7098(4) 0.018(2) Uani 1 1 d . . . . .
C54 C 0.7593(7) 0.4969(5) 0.6864(4) 0.019(2) Uani 1 1 d . . . . .
C55 C 0.7301(7) 0.5754(5) 0.6882(4) 0.020(2) Uani 1 1 d . . . . .
H55 H 0.782333 0.607922 0.697279 0.024 Uiso 1 1 calc R U . . .
C56 C 0.6274(7) 0.6118(5) 0.6776(4) 0.020(2) Uani 1 1 d . . . . .
C57 C 0.5869(7) 0.6906(5) 0.6961(4) 0.023(2) Uani 1 1 d . . . . .
C58 C 0.4803(7) 0.6992(5) 0.6873(4) 0.021(2) Uani 1 1 d . . . . .
C59 C 0.4592(7) 0.6281(5) 0.6596(4) 0.022(2) Uani 1 1 d . . . . .
C60 C 0.3653(7) 0.6153(6) 0.6313(4) 0.023(2) Uani 1 1 d . . . . .
H60 H 0.305088 0.653404 0.639297 0.028 Uiso 1 1 calc R U . . .
C61 C 0.3530(7) 0.5531(5) 0.5935(4) 0.022(2) Uani 1 1 d . . . . .
C62 C 0.2634(7) 0.5455(6) 0.5547(4) 0.021(2) Uani 1 1 d . . . . .
C63 C 0.2875(7) 0.4766(6) 0.5212(4) 0.025(2) Uani 1 1 d . . . . .
C64 C 0.3915(7) 0.4428(5) 0.5398(4) 0.021(2) Uani 1 1 d . . . . .
C65 C 0.4408(7) 0.3697(6) 0.5183(4) 0.024(2) Uani 1 1 d . . . . .
H65 H 0.415175 0.347234 0.480766 0.029 Uiso 1 1 calc R U . . .
C66 C 0.5233(8) 0.3296(6) 0.5484(5) 0.030(2) Uani 1 1 d . . . . .
C67 C 0.5638(9) 0.2465(6) 0.5404(5) 0.039(3) Uani 1 1 d . . . . .
C68 C 0.6261(8) 0.2242(6) 0.5924(5) 0.033(2) Uani 1 1 d . . . . .
C69 C 0.6280(7) 0.2956(5) 0.6286(4) 0.021(2) Uani 1 1 d . . . . .
C70 C 0.6853(7) 0.3026(5) 0.6878(4) 0.020(2) Uani 1 1 d . . . . .
C71 C 0.9245(7) 0.3086(5) 0.7284(5) 0.023(2) Uani 1 1 d . . . . .
H71A H 0.889556 0.261535 0.739460 0.028 Uiso 1 1 calc R U . . .
H71B H 0.962073 0.321591 0.767442 0.028 Uiso 1 1 calc R U . . .
C72 C 1.0048(8) 0.2895(7) 0.6711(5) 0.041(3) Uani 1 1 d . . . . .
H72A H 1.056874 0.245134 0.683333 0.061 Uiso 1 1 calc R U . . .
H72B H 1.040860 0.335458 0.660562 0.061 Uiso 1 1 calc R U . . .
H72C H 0.968214 0.275547 0.632490 0.061 Uiso 1 1 calc R U . . .
C73 C 0.9514(6) 0.4922(5) 0.7256(4) 0.021(2) Uani 1 1 d . . . . .
H73A H 0.928496 0.538205 0.754026 0.025 Uiso 1 1 calc R U . . .
H73B H 0.999826 0.454328 0.750785 0.025 Uiso 1 1 calc R U . . .
C74 C 1.0105(7) 0.5185(6) 0.6653(5) 0.031(2) Uani 1 1 d . . . . .
H74A H 1.067701 0.546991 0.678599 0.047 Uiso 1 1 calc R U . . .
H74B H 0.961914 0.553234 0.638572 0.047 Uiso 1 1 calc R U . . .
H74C H 1.040509 0.472533 0.639448 0.047 Uiso 1 1 calc R U . . .
C75 C 0.6513(8) 0.7522(5) 0.7175(5) 0.029(2) Uani 1 1 d . . . . .
H75A H 0.721582 0.726719 0.730323 0.035 Uiso 1 1 calc R U . . .
H75B H 0.615520 0.779849 0.756410 0.035 Uiso 1 1 calc R U . . .
C76 C 0.6656(8) 0.8118(6) 0.6621(6) 0.039(3) Uani 1 1 d . . . . .
H76A H 0.712131 0.848984 0.676054 0.059 Uiso 1 1 calc R U . . .
H76B H 0.596596 0.840468 0.652058 0.059 Uiso 1 1 calc R U . . .
H76C H 0.697356 0.784185 0.622690 0.059 Uiso 1 1 calc R U . . .
C77 C 0.4026(7) 0.7678(5) 0.7084(5) 0.028(2) Uani 1 1 d . . . . .
H77A H 0.336783 0.767584 0.684488 0.034 Uiso 1 1 calc R U . . .
H77B H 0.432004 0.817060 0.696756 0.034 Uiso 1 1 calc R U . . .
C78 C 0.3764(8) 0.7654(7) 0.7830(5) 0.037(3) Uani 1 1 d . . . . .
H78A H 0.325578 0.811294 0.795393 0.056 Uiso 1 1 calc R U . . .
H78B H 0.441281 0.766151 0.806744 0.056 Uiso 1 1 calc R U . . .
H78C H 0.345599 0.717271 0.794444 0.056 Uiso 1 1 calc R U . . .
C79 C 0.1663(7) 0.6037(6) 0.5499(4) 0.026(2) Uani 1 1 d . . . . .
H79A H 0.154736 0.633940 0.591312 0.031 Uiso 1 1 calc R U . . .
H79B H 0.104599 0.574995 0.545470 0.031 Uiso 1 1 calc R U . . .
C80 C 0.1722(8) 0.6606(6) 0.4923(5) 0.037(3) Uani 1 1 d . . . . .
H80A H 0.105791 0.696367 0.491181 0.055 Uiso 1 1 calc R U . . .
H80B H 0.183575 0.631144 0.451103 0.055 Uiso 1 1 calc R U . . .
H80C H 0.231060 0.691084 0.497440 0.055 Uiso 1 1 calc R U . . .
C81 C 0.2185(7) 0.4372(6) 0.4780(5) 0.031(2) Uani 1 1 d . . . . .
H81A H 0.263032 0.409557 0.442104 0.037 Uiso 1 1 calc R U . . .
H81B H 0.167276 0.477709 0.457609 0.037 Uiso 1 1 calc R U . . .
C82 C 0.1582(10) 0.3786(8) 0.5156(6) 0.061(4) Uani 1 1 d . . . . .
H82A H 0.111167 0.356996 0.485972 0.091 Uiso 1 1 calc R U . . .
H82B H 0.116160 0.405119 0.552315 0.091 Uiso 1 1 calc R U . . .
H82C H 0.208456 0.335862 0.532734 0.091 Uiso 1 1 calc R U . . .
C83 C 0.5412(14) 0.1949(7) 0.4833(8) 0.081(6) Uani 1 1 d . . . . .
H83A H 0.520397 0.228724 0.444870 0.097 Uiso 1 1 calc R U . . .
H83B H 0.606240 0.159581 0.470172 0.097 Uiso 1 1 calc R U . . .
C84 C 0.4593(15) 0.1494(10) 0.5013(7) 0.091(5) Uani 1 1 d . . . . .
H84A H 0.428754 0.132360 0.461458 0.137 Uiso 1 1 calc R U . . .
H84B H 0.404216 0.181208 0.528102 0.137 Uiso 1 1 calc R U . . .
H84C H 0.488208 0.103270 0.526732 0.137 Uiso 1 1 calc R U . . .
C85 C 0.6850(9) 0.1448(6) 0.6055(6) 0.044(3) Uani 1 1 d . . . . .
H85A H 0.659750 0.105977 0.576566 0.052 Uiso 1 1 calc R U . . .
H85B H 0.669785 0.129270 0.651754 0.052 Uiso 1 1 calc R U . . .
C86 C 0.8028(11) 0.1432(7) 0.5937(6) 0.059(4) Uani 1 1 d . . . . .
H86A H 0.838551 0.091020 0.605144 0.089 Uiso 1 1 calc R U . . .
H86B H 0.827725 0.182840 0.621062 0.089 Uiso 1 1 calc R U . . .
H86C H 0.818648 0.154617 0.547107 0.089 Uiso 1 1 calc R U . . .
Sb1 Sb 0.2925(4) 0.4143(2) 0.8175(3) 0.0275(7) Uani 0.68 1 d . . P A 1
Cl1 Cl 0.1862(4) 0.3168(3) 0.8487(2) 0.0391(12) Uani 0.68 1 d . . P A 1
Cl2 Cl 0.4277(4) 0.2978(6) 0.8171(3) 0.099(3) Uani 0.68 1 d . . P A 1
Cl3 Cl 0.4232(10) 0.4870(8) 0.7757(4) 0.226(8) Uani 0.68 1 d . . P A 1
Cl4 Cl 0.1374(3) 0.5099(2) 0.8332(2) 0.0377(10) Uani 0.68 1 d . . P A 1
Cl5 Cl 0.3299(9) 0.4385(7) 0.9280(4) 0.0261(17) Uani 0.68 1 d . . P A 1
Cl6 Cl 0.2560(4) 0.4003(3) 0.7065(2) 0.0407(12) Uani 0.68 1 d . . P A 1
Sb1C Sb 0.3067(8) 0.4084(6) 0.8071(5) 0.042(3) Uani 0.32 1 d D U P B 2
Cl1C Cl 0.1652(10) 0.3486(7) 0.8440(7) 0.057(4) Uiso 0.32 1 d D . P B 2
Cl2C Cl 0.4534(7) 0.3321(5) 0.7993(5) 0.026(2) Uiso 0.32 1 d D . P B 2
Cl3C Cl 0.340(2) 0.4277(16) 0.9180(9) 0.027(6) Uiso 0.32 1 d D . P B 2
Cl4C Cl 0.1846(8) 0.5160(5) 0.8011(5) 0.048(3) Uiso 0.32 1 d D . P B 2
Cl5C Cl 0.2795(9) 0.3693(6) 0.6965(5) 0.034(3) Uiso 0.32 1 d D . P B 2
Cl6C Cl 0.3890(6) 0.5272(4) 0.7877(5) 0.0160(17) Uiso 0.32 1 d D . P B 2
Sb2 Sb 0.02598(5) 0.81055(4) 0.69795(3) 0.0272(2) Uani 1 1 d . . . . .
Cl7 Cl -0.0819(2) 0.92532(15) 0.66373(14) 0.0425(7) Uani 1 1 d . . . . .
Cl8 Cl 0.1165(2) 0.88727(16) 0.76538(15) 0.0455(7) Uani 1 1 d . . . . .
Cl9 Cl 0.13165(19) 0.69497(14) 0.73087(12) 0.0301(6) Uani 1 1 d . . . . .
Cl10 Cl -0.0670(2) 0.73461(16) 0.63064(14) 0.0434(7) Uani 1 1 d . . . . .
Cl11 Cl -0.0968(2) 0.79530(17) 0.78664(14) 0.0421(7) Uani 1 1 d . . . . .
Cl12 Cl 0.1472(2) 0.82567(17) 0.60877(14) 0.0438(7) Uani 1 1 d . . . . .
C1S C 1.1072(19) 0.0923(14) 0.5062(12) 0.048(6) Uiso 0.5 1 d . . P C 3
H1SA H 1.065881 0.096684 0.465995 0.058 Uiso 0.5 1 calc R U P C 3
H1SB H 1.069082 0.064617 0.541019 0.058 Uiso 0.5 1 calc R U P C 3
Cl1S Cl 1.2480(14) 0.0390(9) 0.4883(9) 0.155(6) Uiso 0.5 1 d D . P C 3
Cl2S Cl 1.1283(7) 0.1776(5) 0.5305(4) 0.086(2) Uiso 0.5 1 d D . P C 3
C1A C 1.167(2) 0.060(5) 0.519(4) 0.13(4) Uiso 0.2 1 d D . P D 4
H1AA H 1.173478 0.116807 0.519350 0.153 Uiso 0.2 1 calc R U P D 4
H1AB H 1.153086 0.044635 0.473849 0.153 Uiso 0.2 1 calc R U P D 4
Cl1A Cl 1.0666(15) 0.0376(11) 0.5752(10) 0.063(5) Uiso 0.2 1 d D . P D 4
Cl2A Cl 1.2808(16) 0.0036(14) 0.5481(12) 0.082(6) Uiso 0.2 1 d D . P D 4
C1B C 1.2445(15) 0.009(2) 0.5426(13) 0.027(9) Uiso 0.3 1 d D . P E 5
H1BA H 1.279579 0.030027 0.579663 0.032 Uiso 0.3 1 calc R U P E 5
H1BB H 1.269876 -0.047656 0.538420 0.032 Uiso 0.3 1 calc R U P E 5
Cl1B Cl 1.2733(12) 0.0587(10) 0.4696(8) 0.084(5) Uiso 0.3 1 d D . P E 5
Cl2B Cl 1.1067(13) 0.0242(10) 0.5565(8) 0.089(5) Uiso 0.3 1 d D . P E 5
C2S C 0.3177(12) 0.1463(9) 0.7768(7) 0.023(3) Uiso 0.6 1 d . . P F 6
H2SA H 0.337864 0.126498 0.821052 0.027 Uiso 0.6 1 calc R U P F 6
H2SB H 0.297608 0.203786 0.781239 0.027 Uiso 0.6 1 calc R U P F 6
Cl3S Cl 0.4240(8) 0.1359(6) 0.7321(5) 0.131(3) Uiso 0.6 1 d . . P F 6
Cl4S Cl 0.2244(14) 0.1160(10) 0.7649(8) 0.218(6) Uiso 0.6 1 d . . P F 6
C2A C 0.405(4) 0.043(3) 0.694(3) 0.112(16) Uiso 0.4 1 d . . P G 7
H2AA H 0.418461 0.090382 0.716616 0.135 Uiso 0.4 1 calc R U P G 7
H2AB H 0.362039 0.061493 0.655687 0.135 Uiso 0.4 1 calc R U P G 7
Cl3A Cl 0.5108(10) 0.0080(7) 0.6635(6) 0.098(3) Uiso 0.4 1 d . . P G 7
Cl4A Cl 0.3320(14) 0.0056(10) 0.7386(8) 0.142(5) Uiso 0.4 1 d . . P G 7
O1S O 0.3000(12) 0.1906(12) 0.6494(8) 0.071(6) Uani 0.5 1 d . . P H 8
O2S O 1.1144(12) 0.0788(10) 0.6394(8) 0.055(4) Uani 0.5 1 d . . P I 8
loop_
_atom_site_aniso_label
_atom_site_aniso_U_11
_atom_site_aniso_U_22
_atom_site_aniso_U_33
_atom_site_aniso_U_23
_atom_site_aniso_U_13
_atom_site_aniso_U_12
Ni1 0.0115(5) 0.0172(6) 0.0242(6) -0.0020(5) -0.0018(5) -0.0045(5)
Ni2 0.0156(6) 0.0235(6) 0.0162(6) 0.0022(5) -0.0072(5) -0.0009(5)
N1 0.007(3) 0.024(4) 0.021(4) 0.006(3) -0.011(3) -0.005(3)
N4 0.014(4) 0.014(4) 0.019(4) 0.003(3) -0.006(3) -0.005(3)
N3 0.012(4) 0.019(4) 0.025(4) -0.003(3) -0.004(3) -0.009(3)
N2 0.018(4) 0.010(4) 0.029(4) -0.006(3) -0.004(3) -0.002(3)
N5 0.017(4) 0.023(4) 0.021(4) -0.001(3) -0.002(3) 0.002(3)
N6 0.015(4) 0.029(4) 0.015(4) 0.010(3) -0.006(3) -0.003(3)
N7 0.019(4) 0.025(4) 0.020(4) 0.006(3) -0.003(3) -0.004(3)
N8 0.023(4) 0.034(5) 0.012(4) 0.003(3) -0.015(3) 0.001(4)
C1 0.018(5) 0.023(5) 0.014(4) 0.004(4) -0.013(4) -0.004(4)
C2 0.016(4) 0.026(5) 0.018(5) 0.004(4) -0.009(4) 0.002(4)
C3 0.015(5) 0.029(5) 0.016(5) 0.001(4) -0.008(4) 0.006(4)
C4 0.017(5) 0.020(5) 0.024(5) 0.003(4) -0.008(4) 0.000(4)
C5 0.023(5) 0.022(5) 0.028(5) 0.006(4) 0.000(4) -0.003(4)
C6 0.021(5) 0.020(5) 0.028(5) -0.003(4) -0.008(4) -0.006(4)
C7 0.028(5) 0.025(5) 0.024(5) 0.001(4) -0.014(4) -0.006(4)
C8 0.022(5) 0.022(5) 0.028(5) 0.000(4) -0.012(4) -0.005(4)
C9 0.019(5) 0.020(5) 0.027(5) 0.001(4) 0.002(4) -0.004(4)
C10 0.009(4) 0.026(5) 0.033(6) 0.004(4) 0.001(4) -0.008(4)
C11 0.016(5) 0.018(5) 0.023(5) 0.006(4) 0.004(4) 0.000(4)
C12 0.020(5) 0.019(5) 0.023(5) 0.007(4) 0.000(4) -0.006(4)
C13 0.013(4) 0.020(5) 0.017(5) 0.001(4) 0.000(4) 0.000(4)
C14 0.017(4) 0.019(5) 0.013(4) 0.006(4) -0.002(4) -0.002(4)
C15 0.021(5) 0.016(4) 0.015(5) -0.002(4) 0.000(4) -0.004(4)
C16 0.005(4) 0.018(5) 0.018(5) 0.009(4) -0.003(4) 0.000(3)
C17 0.007(4) 0.015(4) 0.026(5) 0.001(4) 0.001(4) -0.001(3)
C18 0.013(4) 0.015(4) 0.024(5) 0.002(4) -0.007(4) -0.003(4)
C19 0.011(4) 0.016(5) 0.021(5) 0.006(4) -0.004(4) 0.004(4)
C20 0.007(4) 0.018(5) 0.021(5) 0.002(4) 0.002(4) 0.003(4)
C21 0.024(5) 0.026(5) 0.017(5) -0.003(4) 0.004(4) 0.005(4)
C22 0.020(5) 0.086(9) 0.037(7) 0.013(6) 0.005(5) 0.009(6)
C23 0.025(5) 0.026(5) 0.025(5) -0.001(4) -0.007(4) 0.000(4)
C24 0.039(6) 0.033(6) 0.032(6) 0.000(5) -0.005(5) -0.006(5)
C25 0.019(5) 0.028(5) 0.032(6) 0.002(4) -0.007(4) 0.000(4)
C26 0.043(7) 0.035(6) 0.056(8) 0.007(6) -0.027(6) -0.008(5)
C27 0.024(5) 0.028(5) 0.043(6) 0.003(5) -0.007(5) -0.006(4)
C28 0.030(6) 0.044(7) 0.050(7) 0.001(6) -0.004(5) -0.020(5)
C29 0.015(5) 0.024(5) 0.037(6) -0.002(4) 0.005(4) -0.002(4)
C30 0.019(5) 0.035(6) 0.042(6) -0.004(5) -0.009(5) -0.007(4)
C31 0.021(5) 0.023(5) 0.032(6) -0.009(4) -0.001(4) 0.004(4)
C32 0.025(5) 0.019(5) 0.045(6) -0.014(5) -0.009(5) -0.001(4)
C33 0.008(4) 0.026(5) 0.028(5) -0.007(4) -0.005(4) -0.002(4)
C34 0.022(5) 0.038(6) 0.033(6) 0.001(5) -0.011(5) -0.007(5)
C35 0.015(4) 0.027(5) 0.020(5) 0.001(4) -0.001(4) -0.009(4)
C36 0.023(5) 0.034(6) 0.033(6) 0.003(5) -0.002(5) -0.009(4)
C37 0.008(4) 0.024(5) 0.021(5) -0.001(4) -0.004(4) -0.003(4)
C38 0.012(4) 0.020(5) 0.030(5) 0.001(4) -0.001(4) 0.000(4)
C51 0.016(4) 0.030(5) 0.012(4) -0.002(4) 0.001(4) 0.002(4)
C52 0.012(4) 0.026(5) 0.015(5) -0.001(4) -0.006(4) 0.003(4)
C53 0.008(4) 0.033(5) 0.013(4) -0.002(4) -0.003(4) -0.001(4)
C54 0.017(5) 0.031(5) 0.011(4) 0.008(4) -0.002(4) -0.008(4)
C55 0.014(4) 0.029(5) 0.018(5) 0.002(4) -0.001(4) -0.008(4)
C56 0.020(5) 0.023(5) 0.018(5) 0.007(4) -0.002(4) -0.002(4)
C57 0.020(5) 0.030(5) 0.021(5) 0.003(4) -0.008(4) -0.003(4)
C58 0.026(5) 0.023(5) 0.013(5) 0.004(4) -0.002(4) 0.000(4)
C59 0.018(5) 0.028(5) 0.019(5) 0.011(4) 0.003(4) -0.004(4)
C60 0.010(4) 0.036(6) 0.022(5) 0.009(4) 0.008(4) 0.000(4)
C61 0.014(4) 0.028(5) 0.024(5) 0.005(4) 0.000(4) -0.010(4)
C62 0.021(5) 0.036(6) 0.009(4) 0.014(4) -0.002(4) -0.011(4)
C63 0.014(5) 0.046(6) 0.017(5) 0.004(5) -0.001(4) -0.003(4)
C64 0.016(5) 0.032(5) 0.014(5) 0.005(4) -0.007(4) -0.001(4)
C65 0.024(5) 0.040(6) 0.010(4) -0.001(4) -0.014(4) -0.008(5)
C66 0.032(6) 0.037(6) 0.021(5) -0.007(4) -0.017(5) 0.005(5)
C67 0.044(7) 0.030(6) 0.044(7) -0.008(5) -0.025(6) -0.002(5)
C68 0.039(6) 0.031(6) 0.029(6) -0.003(5) -0.013(5) 0.001(5)
C69 0.018(5) 0.029(5) 0.017(5) 0.005(4) -0.007(4) -0.006(4)
C70 0.013(4) 0.022(5) 0.023(5) 0.000(4) -0.007(4) 0.003(4)
C71 0.018(5) 0.026(5) 0.026(5) 0.006(4) -0.009(4) 0.001(4)
C72 0.032(6) 0.053(7) 0.032(6) 0.008(5) 0.006(5) 0.009(5)
C73 0.009(4) 0.029(5) 0.024(5) -0.002(4) -0.004(4) 0.001(4)
C74 0.021(5) 0.034(6) 0.039(6) 0.000(5) -0.005(5) -0.006(4)
C75 0.024(5) 0.026(5) 0.038(6) -0.005(5) -0.014(5) -0.004(4)
C76 0.032(6) 0.031(6) 0.058(8) 0.003(5) -0.004(5) -0.016(5)
C77 0.024(5) 0.024(5) 0.036(6) 0.006(4) -0.006(5) -0.003(4)
C78 0.022(5) 0.057(7) 0.031(6) -0.017(5) -0.002(5) 0.001(5)
C79 0.022(5) 0.039(6) 0.015(5) -0.003(4) -0.005(4) 0.002(4)
C80 0.033(6) 0.045(7) 0.026(6) 0.009(5) -0.004(5) 0.016(5)
C81 0.022(5) 0.046(6) 0.022(5) -0.017(5) -0.006(4) 0.006(5)
C82 0.049(8) 0.093(10) 0.049(8) -0.022(7) 0.011(6) -0.044(8)
C83 0.121(14) 0.040(8) 0.093(11) 0.018(8) -0.095(11) -0.022(8)
C84 0.124(15) 0.096(13) 0.052(9) -0.006(9) -0.029(10) -0.002(12)
C85 0.066(8) 0.025(6) 0.041(7) -0.005(5) -0.038(6) 0.004(6)
C86 0.077(10) 0.052(8) 0.044(7) -0.008(6) -0.025(7) 0.022(7)
Sb1 0.0153(9) 0.0392(11) 0.0301(17) 0.0086(10) -0.0070(9) -0.0104(7)
Cl1 0.060(3) 0.019(2) 0.044(3) 0.005(2) -0.008(2) -0.029(2)
Cl2 0.036(3) 0.198(9) 0.045(3) -0.019(4) -0.012(3) 0.060(4)
Cl3 0.305(14) 0.387(17) 0.066(5) 0.126(9) -0.111(7) -0.324(14)
Cl4 0.026(2) 0.041(2) 0.045(2) -0.016(2) -0.020(2) 0.0089(18)
Cl5 0.020(3) 0.031(4) 0.029(3) 0.001(3) -0.010(3) -0.005(3)
Cl6 0.030(2) 0.067(4) 0.026(2) -0.009(2) -0.0115(19) -0.002(3)
Sb1C 0.027(4) 0.084(5) 0.022(3) 0.034(3) -0.022(3) -0.028(3)
Sb2 0.0187(3) 0.0315(4) 0.0309(4) -0.0071(3) -0.0045(3) 0.0008(3)
Cl7 0.0346(15) 0.0354(15) 0.0549(18) -0.0084(13) -0.0098(13) 0.0088(12)
Cl8 0.0323(15) 0.0419(16) 0.0637(19) -0.0193(14) -0.0159(14) -0.0023(12)
Cl9 0.0251(12) 0.0333(14) 0.0309(13) -0.0021(11) -0.0027(11) 0.0005(11)
Cl10 0.0308(14) 0.0455(16) 0.0537(18) -0.0197(14) -0.0177(13) 0.0043(12)
Cl11 0.0232(13) 0.0607(19) 0.0410(16) -0.0083(14) 0.0029(12) -0.0011(13)
Cl12 0.0362(15) 0.0499(17) 0.0418(16) 0.0093(13) 0.0060(13) 0.0034(13)
O1S 0.030(9) 0.128(17) 0.041(10) 0.028(10) 0.012(8) 0.034(10)
O2S 0.041(9) 0.063(11) 0.055(10) -0.019(9) 0.002(8) 0.014(8)
loop_
_atom_type_symbol
_atom_type_description
_atom_type_scat_dispersion_real
_atom_type_scat_dispersion_imag
_atom_type_scat_source
C C 0.0033 0.0016 'International Tables Vol C Tables 4.2.6.8 and 6.1.1.4'
H H 0.0000 0.0000 'International Tables Vol C Tables 4.2.6.8 and 6.1.1.4'
N N 0.0061 0.0033 'International Tables Vol C Tables 4.2.6.8 and 6.1.1.4'
Cl Cl 0.1484 0.1585 'International Tables Vol C Tables 4.2.6.8 and 6.1.1.4'
Ni Ni 0.3393 1.1124 'International Tables Vol C Tables 4.2.6.8 and 6.1.1.4'
Sb Sb -0.5866 1.5461 'International Tables Vol C Tables 4.2.6.8 and 6.1.1.4'
O O 0.0106 0.0060 'International Tables Vol C Tables 4.2.6.8 and 6.1.1.4'
loop_
_geom_angle_atom_site_label_1
_geom_angle_atom_site_label_2
_geom_angle_atom_site_label_3
_geom_angle
N3 Ni1 N1 178.8(3)
N3 Ni1 N2 90.7(3)
N1 Ni1 N2 90.1(3)
N3 Ni1 N4 90.3(3)
N1 Ni1 N4 88.9(3)
N2 Ni1 N4 176.5(3)
N5 Ni2 N7 178.1(3)
N5 Ni2 N6 90.4(3)
N7 Ni2 N6 90.4(3)
N5 Ni2 N8 88.6(3)
N7 Ni2 N8 90.6(3)
N6 Ni2 N8 178.3(3)
C1 N1 C4 104.3(7)
C1 N1 Ni1 128.3(6)
C4 N1 Ni1 127.4(6)
C19 N4 C16 105.7(7)
C19 N4 Ni1 128.3(6)
C16 N4 Ni1 126.0(5)
C14 N3 C11 105.1(7)
C14 N3 Ni1 128.0(6)
C11 N3 Ni1 126.6(6)
C9 N2 C6 105.8(7)
C9 N2 Ni1 127.4(6)
C6 N2 Ni1 126.8(6)
C51 N5 C54 105.5(7)
C51 N5 Ni2 128.3(6)
C54 N5 Ni2 126.2(6)
C56 N6 C59 105.2(7)
C56 N6 Ni2 127.7(6)
C59 N6 Ni2 126.9(6)
C64 N7 C61 106.1(7)
C64 N7 Ni2 126.9(6)
C61 N7 Ni2 126.7(6)
C69 N8 C66 105.9(8)
C69 N8 Ni2 128.7(6)
C66 N8 Ni2 125.3(6)
N1 C1 C2 113.3(8)
N1 C1 C20 120.3(8)
C2 C1 C20 126.2(8)
C3 C2 C1 105.4(8)
C3 C2 C21 126.7(8)
C1 C2 C21 127.4(8)
C2 C3 C4 106.6(8)
C2 C3 C23 129.2(8)
C4 C3 C23 124.2(8)
C5 C4 N1 122.8(8)
C5 C4 C3 125.5(9)
N1 C4 C3 110.3(8)
C4 C5 C6 123.1(9)
C4 C5 H5 118.5
C6 C5 H5 118.5
N2 C6 C5 124.8(8)
N2 C6 C7 109.7(8)
C5 C6 C7 124.8(8)
C8 C7 C6 107.3(8)
C8 C7 C25 128.2(9)
C6 C7 C25 124.4(8)
C7 C8 C9 105.4(8)
C7 C8 C27 128.9(8)
C9 C8 C27 125.7(8)
N2 C9 C10 122.9(8)
N2 C9 C8 111.8(8)
C10 C9 C8 124.6(8)
C11 C10 C9 124.7(8)
C11 C10 H10 117.6
C9 C10 H10 117.6
C10 C11 N3 122.6(8)
C10 C11 C12 126.6(8)
N3 C11 C12 110.4(8)
C13 C12 C11 106.0(8)
C13 C12 C29 129.9(8)
C11 C12 C29 124.1(8)
C12 C13 C14 107.3(8)
C12 C13 C31 128.0(8)
C14 C13 C31 124.4(8)
N3 C14 C15 123.6(8)
N3 C14 C13 111.1(7)
C15 C14 C13 125.1(8)
C16 C15 C14 123.8(8)
C16 C15 H15 118.1
C14 C15 H15 118.1
C15 C16 N4 122.9(7)
C15 C16 C17 126.4(8)
N4 C16 C17 109.0(7)
C18 C17 C16 106.4(7)
C18 C17 C33 127.9(8)
C16 C17 C33 125.6(8)
C17 C18 C19 105.8(7)
C17 C18 C35 127.4(8)
C19 C18 C35 126.8(8)
N4 C19 C18 112.8(8)
N4 C19 C20 120.3(7)
C18 C19 C20 127.0(8)
C37 C20 C1 125.9(8)
C37 C20 C19 117.8(8)
C1 C20 C19 115.9(7)
C2 C21 C22 111.3(7)
C2 C21 H21A 109.4
C22 C21 H21A 109.4
C2 C21 H21B 109.4
C22 C21 H21B 109.4
H21A C21 H21B 108.0
C21 C22 H22A 109.5
C21 C22 H22B 109.5
H22A C22 H22B 109.5
C21 C22 H22C 109.5
H22A C22 H22C 109.5
H22B C22 H22C 109.5
C3 C23 C24 111.9(8)
C3 C23 H23A 109.2
C24 C23 H23A 109.2
C3 C23 H23B 109.2
C24 C23 H23B 109.2
H23A C23 H23B 107.9
C23 C24 H24A 109.5
C23 C24 H24B 109.5
H24A C24 H24B 109.5
C23 C24 H24C 109.5
H24A C24 H24C 109.5
H24B C24 H24C 109.5
C26 C25 C7 111.6(8)
C26 C25 H25A 109.3
C7 C25 H25A 109.3
C26 C25 H25B 109.3
C7 C25 H25B 109.3
H25A C25 H25B 108.0
C25 C26 H26A 109.5
C25 C26 H26B 109.5
H26A C26 H26B 109.5
C25 C26 H26C 109.5
H26A C26 H26C 109.5
H26B C26 H26C 109.5
C8 C27 C28 112.5(8)
C8 C27 H27A 109.1
C28 C27 H27A 109.1
C8 C27 H27B 109.1
C28 C27 H27B 109.1
H27A C27 H27B 107.8
C27 C28 H28A 109.5
C27 C28 H28B 109.5
H28A C28 H28B 109.5
C27 C28 H28C 109.5
H28A C28 H28C 109.5
H28B C28 H28C 109.5
C12 C29 C30 114.7(8)
C12 C29 H29A 108.6
C30 C29 H29A 108.6
C12 C29 H29B 108.6
C30 C29 H29B 108.6
H29A C29 H29B 107.6
C29 C30 H30A 109.5
C29 C30 H30B 109.5
H30A C30 H30B 109.5
C29 C30 H30C 109.5
H30A C30 H30C 109.5
H30B C30 H30C 109.5
C13 C31 C32 112.6(8)
C13 C31 H31A 109.1
C32 C31 H31A 109.1
C13 C31 H31B 109.1
C32 C31 H31B 109.1
H31A C31 H31B 107.8
C31 C32 H32A 109.5
C31 C32 H32B 109.5
H32A C32 H32B 109.5
C31 C32 H32C 109.5
H32A C32 H32C 109.5
H32B C32 H32C 109.5
C17 C33 C34 112.2(7)
C17 C33 H33A 109.2
C34 C33 H33A 109.2
C17 C33 H33B 109.2
C34 C33 H33B 109.2
H33A C33 H33B 107.9
C33 C34 H34A 109.5
C33 C34 H34B 109.5
H34A C34 H34B 109.5
C33 C34 H34C 109.5
H34A C34 H34C 109.5
H34B C34 H34C 109.5
C18 C35 C36 114.6(7)
C18 C35 H35A 108.6
C36 C35 H35A 108.6
C18 C35 H35B 108.6
C36 C35 H35B 108.6
H35A C35 H35B 107.6
C35 C36 H36A 109.5
C35 C36 H36B 109.5
H36A C36 H36B 109.5
C35 C36 H36C 109.5
H36A C36 H36C 109.5
H36B C36 H36C 109.5
C20 C37 C38 122.3(8)
C20 C37 H37A 118.9
C38 C37 H37A 118.9
C70 C38 C37 123.0(8)
C70 C38 H38A 118.5
C37 C38 H38A 118.5
N5 C51 C52 112.6(8)
N5 C51 C70 121.5(8)
C52 C51 C70 125.9(8)
C53 C52 C51 105.8(7)
C53 C52 C71 126.0(8)
C51 C52 C71 127.7(8)
C52 C53 C54 107.0(7)
C52 C53 C73 129.2(8)
C54 C53 C73 123.8(8)
C55 C54 N5 123.2(8)
C55 C54 C53 127.0(8)
N5 C54 C53 108.9(7)
C54 C55 C56 124.0(8)
C54 C55 H55 118.0
C56 C55 H55 118.0
N6 C56 C55 124.2(8)
N6 C56 C57 110.6(8)
C55 C56 C57 124.9(8)
C58 C57 C56 106.7(8)
C58 C57 C75 127.4(9)
C56 C57 C75 125.9(8)
C57 C58 C59 106.2(8)
C57 C58 C77 125.9(8)
C59 C58 C77 127.7(8)
N6 C59 C60 122.1(9)
N6 C59 C58 111.2(8)
C60 C59 C58 126.1(9)
C61 C60 C59 125.3(9)
C61 C60 H60 117.3
C59 C60 H60 117.3
C60 C61 N7 123.7(8)
C60 C61 C62 126.1(9)
N7 C61 C62 110.2(8)
C63 C62 C61 106.3(8)
C63 C62 C79 127.2(8)
C61 C62 C79 126.4(9)
C62 C63 C64 106.9(8)
C62 C63 C81 128.5(8)
C64 C63 C81 124.5(9)
N7 C64 C65 125.7(8)
N7 C64 C63 110.5(8)
C65 C64 C63 123.6(8)
C66 C65 C64 122.7(8)
C66 C65 H65 118.6
C64 C65 H65 118.6
C65 C66 N8 124.4(9)
C65 C66 C67 126.7(9)
N8 C66 C67 107.9(8)
C68 C67 C66 107.6(8)
C68 C67 C83 126.9(10)
C66 C67 C83 125.4(9)
C67 C68 C69 104.7(8)
C67 C68 C85 127.4(9)
C69 C68 C85 127.8(9)
N8 C69 C68 113.5(8)
N8 C69 C70 120.8(8)
C68 C69 C70 125.7(8)
C38 C70 C51 123.2(8)
C38 C70 C69 121.2(8)
C51 C70 C69 115.2(8)
C52 C71 C72 112.5(8)
C52 C71 H71A 109.1
C72 C71 H71A 109.1
C52 C71 H71B 109.1
C72 C71 H71B 109.1
H71A C71 H71B 107.8
C71 C72 H72A 109.5
C71 C72 H72B 109.5
H72A C72 H72B 109.5
C71 C72 H72C 109.5
H72A C72 H72C 109.5
H72B C72 H72C 109.5
C74 C73 C53 113.0(7)
C74 C73 H73A 109.0
C53 C73 H73A 109.0
C74 C73 H73B 109.0
C53 C73 H73B 109.0
H73A C73 H73B 107.8
C73 C74 H74A 109.5
C73 C74 H74B 109.5
H74A C74 H74B 109.5
C73 C74 H74C 109.5
H74A C74 H74C 109.5
H74B C74 H74C 109.5
C57 C75 C76 111.1(8)
C57 C75 H75A 109.4
C76 C75 H75A 109.4
C57 C75 H75B 109.4
C76 C75 H75B 109.4
H75A C75 H75B 108.0
C75 C76 H76A 109.5
C75 C76 H76B 109.5
H76A C76 H76B 109.5
C75 C76 H76C 109.5
H76A C76 H76C 109.5
H76B C76 H76C 109.5
C58 C77 C78 111.4(8)
C58 C77 H77A 109.4
C78 C77 H77A 109.4
C58 C77 H77B 109.4
C78 C77 H77B 109.4
H77A C77 H77B 108.0
C77 C78 H78A 109.5
C77 C78 H78B 109.5
H78A C78 H78B 109.5
C77 C78 H78C 109.5
H78A C78 H78C 109.5
H78B C78 H78C 109.5
C62 C79 C80 113.3(8)
C62 C79 H79A 108.9
C80 C79 H79A 108.9
C62 C79 H79B 108.9
C80 C79 H79B 108.9
H79A C79 H79B 107.7
C79 C80 H80A 109.5
C79 C80 H80B 109.5
H80A C80 H80B 109.5
C79 C80 H80C 109.5
H80A C80 H80C 109.5
H80B C80 H80C 109.5
C63 C81 C82 112.6(8)
C63 C81 H81A 109.1
C82 C81 H81A 109.1
C63 C81 H81B 109.1
C82 C81 H81B 109.1
H81A C81 H81B 107.8
C81 C82 H82A 109.5
C81 C82 H82B 109.5
H82A C82 H82B 109.5
C81 C82 H82C 109.5
H82A C82 H82C 109.5
H82B C82 H82C 109.5
C84 C83 C67 111.1(15)
C84 C83 H83A 109.4
C67 C83 H83A 109.4
C84 C83 H83B 109.4
C67 C83 H83B 109.4
H83A C83 H83B 108.0
C83 C84 H84A 109.5
C83 C84 H84B 109.5
H84A C84 H84B 109.5
C83 C84 H84C 109.5
H84A C84 H84C 109.5
H84B C84 H84C 109.5
C68 C85 C86 112.1(10)
C68 C85 H85A 109.2
C86 C85 H85A 109.2
C68 C85 H85B 109.2
C86 C85 H85B 109.2
H85A C85 H85B 107.9
C85 C86 H86A 109.5
C85 C86 H86B 109.5
H86A C86 H86B 109.5
C85 C86 H86C 109.5
H86A C86 H86C 109.5
H86B C86 H86C 109.5
Cl3 Sb1 Cl6 84.7(3)
Cl3 Sb1 Cl1 166.9(5)
Cl6 Sb1 Cl1 90.7(2)
Cl3 Sb1 Cl5 92.3(4)
Cl6 Sb1 Cl5 175.7(4)
Cl1 Sb1 Cl5 92.9(4)
Cl3 Sb1 Cl4 104.4(5)
Cl6 Sb1 Cl4 90.8(2)
Cl1 Sb1 Cl4 87.9(2)
Cl5 Sb1 Cl4 87.0(4)
Cl3 Sb1 Cl2 88.1(5)
Cl6 Sb1 Cl2 93.5(3)
Cl1 Sb1 Cl2 79.9(3)
Cl5 Sb1 Cl2 89.4(4)
Cl4 Sb1 Cl2 167.1(3)
Cl2C Sb1C Cl4C 161.8(6)
Cl2C Sb1C Cl1C 114.6(6)
Cl4C Sb1C Cl1C 83.5(5)
Cl2C Sb1C Cl3C 88.1(8)
Cl4C Sb1C Cl3C 94.3(8)
Cl1C Sb1C Cl3C 87.6(9)
Cl2C Sb1C Cl5C 86.4(5)
Cl4C Sb1C Cl5C 92.8(5)
Cl1C Sb1C Cl5C 89.5(6)
Cl3C Sb1C Cl5C 172.0(9)
Cl2C Sb1C Cl6C 94.0(5)
Cl4C Sb1C Cl6C 68.4(4)
Cl1C Sb1C Cl6C 150.0(6)
Cl3C Sb1C Cl6C 84.2(8)
Cl5C Sb1C Cl6C 101.9(5)
Cl9 Sb2 Cl8 91.10(9)
Cl9 Sb2 Cl12 90.04(9)
Cl8 Sb2 Cl12 90.82(11)
Cl9 Sb2 Cl11 90.21(9)
Cl8 Sb2 Cl11 89.64(10)
Cl12 Sb2 Cl11 179.47(10)
Cl9 Sb2 Cl7 178.99(10)
Cl8 Sb2 Cl7 89.91(10)
Cl12 Sb2 Cl7 89.98(10)
Cl11 Sb2 Cl7 89.76(10)
Cl9 Sb2 Cl10 89.49(9)
Cl8 Sb2 Cl10 179.24(10)
Cl12 Sb2 Cl10 89.65(11)
Cl11 Sb2 Cl10 89.89(10)
Cl7 Sb2 Cl10 89.50(10)
Cl2S C1S Cl1S 103.0(14)
Cl2S C1S H1SA 111.2
Cl1S C1S H1SA 111.2
Cl2S C1S H1SB 111.2
Cl1S C1S H1SB 111.2
H1SA C1S H1SB 109.1
Cl1A C1A Cl2A 103.2(12)
Cl1A C1A H1AA 111.1
Cl2A C1A H1AA 111.1
Cl1A C1A H1AB 111.1
Cl2A C1A H1AB 111.1
H1AA C1A H1AB 109.1
Cl1B C1B Cl2B 107.1(11)
Cl1B C1B H1BA 110.3
Cl2B C1B H1BA 110.3
Cl1B C1B H1BB 110.3
Cl2B C1B H1BB 110.3
H1BA C1B H1BB 108.5
Cl4S C2S Cl3S 126.7(13)
Cl4S C2S H2SA 105.6
Cl3S C2S H2SA 105.6
Cl4S C2S H2SB 105.6
Cl3S C2S H2SB 105.6
H2SA C2S H2SB 106.1
Cl4A C2A Cl3A 129(4)
Cl4A C2A H2AA 105.1
Cl3A C2A H2AA 105.1
Cl4A C2A H2AB 105.1
Cl3A C2A H2AB 105.1
H2AA C2A H2AB 105.9
loop_
_geom_bond_atom_site_label_1
_geom_bond_atom_site_label_2
_geom_bond_distance
Ni1 N3 1.901(7)
Ni1 N1 1.901(7)
Ni1 N2 1.906(7)
Ni1 N4 1.923(7)
Ni2 N5 1.914(7)
Ni2 N7 1.916(7)
Ni2 N6 1.918(8)
Ni2 N8 1.933(8)
N1 C1 1.338(11)
N1 C4 1.392(11)
N4 C19 1.313(11)
N4 C16 1.405(11)
N3 C14 1.355(11)
N3 C11 1.394(11)
N2 C9 1.354(11)
N2 C6 1.363(11)
N5 C51 1.330(11)
N5 C54 1.415(11)
N6 C56 1.359(11)
N6 C59 1.378(11)
N7 C64 1.355(11)
N7 C61 1.382(11)
N8 C69 1.322(11)
N8 C66 1.409(12)
C1 C2 1.429(12)
C1 C20 1.451(12)
C2 C3 1.368(13)
C2 C21 1.509(12)
C3 C4 1.435(12)
C3 C23 1.499(12)
C4 C5 1.361(12)
C5 C6 1.404(13)
C5 H5 0.9500
C6 C7 1.440(12)
C7 C8 1.359(13)
C7 C25 1.527(13)
C8 C9 1.427(12)
C8 C27 1.507(13)
C9 C10 1.406(12)
C10 C11 1.369(12)
C10 H10 0.9500
C11 C12 1.438(12)
C12 C13 1.361(12)
C12 C29 1.488(12)
C13 C14 1.434(12)
C13 C31 1.504(12)
C14 C15 1.427(12)
C15 C16 1.335(11)
C15 H15 0.9500
C16 C17 1.457(11)
C17 C18 1.360(12)
C17 C33 1.479(12)
C18 C19 1.452(12)
C18 C35 1.504(12)
C19 C20 1.469(12)
C20 C37 1.359(12)
C21 C22 1.528(13)
C21 H21A 0.9900
C21 H21B 0.9900
C22 H22A 0.9800
C22 H22B 0.9800
C22 H22C 0.9800
C23 C24 1.539(13)
C23 H23A 0.9900
C23 H23B 0.9900
C24 H24A 0.9800
C24 H24B 0.9800
C24 H24C 0.9800
C25 C26 1.525(13)
C25 H25A 0.9900
C25 H25B 0.9900
C26 H26A 0.9800
C26 H26B 0.9800
C26 H26C 0.9800
C27 C28 1.514(14)
C27 H27A 0.9900
C27 H27B 0.9900
C28 H28A 0.9800
C28 H28B 0.9800
C28 H28C 0.9800
C29 C30 1.528(13)
C29 H29A 0.9900
C29 H29B 0.9900
C30 H30A 0.9800
C30 H30B 0.9800
C30 H30C 0.9800
C31 C32 1.519(13)
C31 H31A 0.9900
C31 H31B 0.9900
C32 H32A 0.9800
C32 H32B 0.9800
C32 H32C 0.9800
C33 C34 1.532(13)
C33 H33A 0.9900
C33 H33B 0.9900
C34 H34A 0.9800
C34 H34B 0.9800
C34 H34C 0.9800
C35 C36 1.518(12)
C35 H35A 0.9900
C35 H35B 0.9900
C36 H36A 0.9800
C36 H36B 0.9800
C36 H36C 0.9800
C37 C38 1.428(12)
C37 H37A 0.9500
C38 C70 1.353(12)
C38 H38A 0.9500
C51 C52 1.438(12)
C51 C70 1.450(12)
C52 C53 1.372(12)
C52 C71 1.506(12)
C53 C54 1.445(12)
C53 C73 1.507(12)
C54 C55 1.350(12)
C55 C56 1.401(12)
C55 H55 0.9500
C56 C57 1.432(13)
C57 C58 1.368(12)
C57 C75 1.504(13)
C58 C59 1.415(13)
C58 C77 1.491(13)
C59 C60 1.398(13)
C60 C61 1.356(13)
C60 H60 0.9500
C61 C62 1.440(12)
C62 C63 1.365(13)
C62 C79 1.492(13)
C63 C64 1.442(12)
C63 C81 1.503(13)
C64 C65 1.394(13)
C65 C66 1.348(13)
C65 H65 0.9500
C66 C67 1.460(14)
C67 C68 1.371(14)
C67 C83 1.533(16)
C68 C69 1.442(13)
C68 C85 1.494(14)
C69 C70 1.453(12)
C71 C72 1.523(13)
C71 H71A 0.9900
C71 H71B 0.9900
C72 H72A 0.9800
C72 H72B 0.9800
C72 H72C 0.9800
C73 C74 1.502(13)
C73 H73A 0.9900
C73 H73B 0.9900
C74 H74A 0.9800
C74 H74B 0.9800
C74 H74C 0.9800
C75 C76 1.528(14)
C75 H75A 0.9900
C75 H75B 0.9900
C76 H76A 0.9800
C76 H76B 0.9800
C76 H76C 0.9800
C77 C78 1.538(13)
C77 H77A 0.9900
C77 H77B 0.9900
C78 H78A 0.9800
C78 H78B 0.9800
C78 H78C 0.9800
C79 C80 1.518(13)
C79 H79A 0.9900
C79 H79B 0.9900
C80 H80A 0.9800
C80 H80B 0.9800
C80 H80C 0.9800
C81 C82 1.518(15)
C81 H81A 0.9900
C81 H81B 0.9900
C82 H82A 0.9800
C82 H82B 0.9800
C82 H82C 0.9800
C83 C84 1.41(2)
C83 H83A 0.9900
C83 H83B 0.9900
C84 H84A 0.9800
C84 H84B 0.9800
C84 H84C 0.9800
C85 C86 1.507(17)
C85 H85A 0.9900
C85 H85B 0.9900
C86 H86A 0.9800
C86 H86B 0.9800
C86 H86C 0.9800
Sb1 Cl3 2.331(8)
Sb1 Cl6 2.346(6)
Sb1 Cl1 2.348(6)
Sb1 Cl5 2.373(9)
Sb1 Cl4 2.411(6)
Sb1 Cl2 2.464(7)
Sb1C Cl2C 2.140(12)
Sb1C Cl4C 2.260(12)
Sb1C Cl1C 2.282(14)
Sb1C Cl3C 2.350(17)
Sb1C Cl5C 2.411(13)
Sb1C Cl6C 2.431(12)
Sb2 Cl9 2.355(2)
Sb2 Cl8 2.357(3)
Sb2 Cl12 2.359(3)
Sb2 Cl11 2.364(3)
Sb2 Cl7 2.365(3)
Sb2 Cl10 2.366(3)
C1S Cl2S 1.61(2)
C1S Cl1S 1.93(3)
C1S H1SA 0.9900
C1S H1SB 0.9900
C1A Cl1A 1.747(10)
C1A Cl2A 1.760(10)
C1A H1AA 0.9900
C1A H1AB 0.9900
C1B Cl1B 1.743(10)
C1B Cl2B 1.753(10)
C1B H1BA 0.9900
C1B H1BB 0.9900
C2S Cl4S 1.39(2)
C2S Cl3S 1.587(17)
C2S H2SA 0.9900
C2S H2SB 0.9900
C2A Cl4A 1.47(5)
C2A Cl3A 1.51(5)
C2A H2AA 0.9900
C2A H2AB 0.9900
loop_
_geom_torsion_atom_site_label_1
_geom_torsion_atom_site_label_2
_geom_torsion_atom_site_label_3
_geom_torsion_atom_site_label_4
_geom_torsion
C4 N1 C1 C2 -3.0(9)
Ni1 N1 C1 C2 175.7(5)
C4 N1 C1 C20 -177.9(7)
Ni1 N1 C1 C20 0.8(11)
N1 C1 C2 C3 0.5(9)
C20 C1 C2 C3 175.0(8)
N1 C1 C2 C21 -171.9(8)
C20 C1 C2 C21 2.7(14)
C1 C2 C3 C4 2.2(9)
C21 C2 C3 C4 174.6(8)
C1 C2 C3 C23 -177.3(8)
C21 C2 C3 C23 -4.9(15)
C1 N1 C4 C5 -163.3(8)
Ni1 N1 C4 C5 18.1(12)
C1 N1 C4 C3 4.3(9)
Ni1 N1 C4 C3 -174.3(5)
C2 C3 C4 C5 163.0(9)
C23 C3 C4 C5 -17.4(14)
C2 C3 C4 N1 -4.2(9)
C23 C3 C4 N1 175.3(7)
N1 C4 C5 C6 2.6(14)
C3 C4 C5 C6 -163.1(9)
C9 N2 C6 C5 171.2(9)
Ni1 N2 C6 C5 -7.3(13)
C9 N2 C6 C7 0.6(10)
Ni1 N2 C6 C7 -177.9(6)
C4 C5 C6 N2 -8.0(15)
C4 C5 C6 C7 161.2(9)
N2 C6 C7 C8 -0.2(11)
C5 C6 C7 C8 -170.8(9)
N2 C6 C7 C25 -177.2(8)
C5 C6 C7 C25 12.2(15)
C6 C7 C8 C9 -0.2(10)
C25 C7 C8 C9 176.6(9)
C6 C7 C8 C27 178.8(9)
C25 C7 C8 C27 -4.4(16)
C6 N2 C9 C10 169.8(9)
Ni1 N2 C9 C10 -11.8(13)
C6 N2 C9 C8 -0.7(11)
Ni1 N2 C9 C8 177.7(6)
C7 C8 C9 N2 0.6(11)
C27 C8 C9 N2 -178.5(9)
C7 C8 C9 C10 -169.7(9)
C27 C8 C9 C10 11.2(15)
N2 C9 C10 C11 -6.3(15)
C8 C9 C10 C11 163.0(9)
C9 C10 C11 N3 5.0(14)
C9 C10 C11 C12 -167.8(9)
C14 N3 C11 C10 -171.7(8)
Ni1 N3 C11 C10 14.0(12)
C14 N3 C11 C12 2.1(9)
Ni1 N3 C11 C12 -172.2(6)
C10 C11 C12 C13 171.4(9)
N3 C11 C12 C13 -2.1(10)
C10 C11 C12 C29 -9.0(14)
N3 C11 C12 C29 177.5(8)
C11 C12 C13 C14 1.2(9)
C29 C12 C13 C14 -178.4(9)
C11 C12 C13 C31 175.3(8)
C29 C12 C13 C31 -4.3(16)
C11 N3 C14 C15 -177.4(8)
Ni1 N3 C14 C15 -3.2(12)
C11 N3 C14 C13 -1.4(9)
Ni1 N3 C14 C13 172.8(6)
C12 C13 C14 N3 0.1(10)
C31 C13 C14 N3 -174.2(8)
C12 C13 C14 C15 176.1(8)
C31 C13 C14 C15 1.7(13)
N3 C14 C15 C16 13.5(13)
C13 C14 C15 C16 -162.0(8)
C14 C15 C16 N4 0.1(13)
C14 C15 C16 C17 163.7(8)
C19 N4 C16 C15 159.9(8)
Ni1 N4 C16 C15 -23.0(11)
C19 N4 C16 C17 -6.2(9)
Ni1 N4 C16 C17 170.9(5)
C15 C16 C17 C18 -159.6(8)
N4 C16 C17 C18 5.9(9)
C15 C16 C17 C33 23.9(14)
N4 C16 C17 C33 -170.6(7)
C16 C17 C18 C19 -3.1(9)
C33 C17 C18 C19 173.2(8)
C16 C17 C18 C35 178.2(8)
C33 C17 C18 C35 -5.4(15)
C16 N4 C19 C18 4.4(9)
Ni1 N4 C19 C18 -172.7(5)
C16 N4 C19 C20 -176.4(7)
Ni1 N4 C19 C20 6.5(11)
C17 C18 C19 N4 -0.7(10)
C35 C18 C19 N4 177.9(8)
C17 C18 C19 C20 -179.9(8)
C35 C18 C19 C20 -1.2(14)
N1 C1 C20 C37 -134.5(9)
C2 C1 C20 C37 51.3(13)
N1 C1 C20 C19 38.0(11)
C2 C1 C20 C19 -136.2(8)
N4 C19 C20 C37 131.3(8)
C18 C19 C20 C37 -49.6(12)
N4 C19 C20 C1 -41.8(11)
C18 C19 C20 C1 137.3(8)
C3 C2 C21 C22 -88.2(12)
C1 C2 C21 C22 82.5(11)
C2 C3 C23 C24 113.2(10)
C4 C3 C23 C24 -66.2(11)
C8 C7 C25 C26 -100.0(11)
C6 C7 C25 C26 76.3(12)
C7 C8 C27 C28 94.7(12)
C9 C8 C27 C28 -86.5(12)
C13 C12 C29 C30 115.7(11)
C11 C12 C29 C30 -63.8(12)
C12 C13 C31 C32 -99.9(11)
C14 C13 C31 C32 73.3(11)
C18 C17 C33 C34 -75.8(12)
C16 C17 C33 C34 99.9(10)
C17 C18 C35 C36 -75.5(12)
C19 C18 C35 C36 106.1(10)
C1 C20 C37 C38 13.1(13)
C19 C20 C37 C38 -159.2(8)
C20 C37 C38 C70 166.4(8)
C54 N5 C51 C52 -4.9(9)
Ni2 N5 C51 C52 171.6(6)
C54 N5 C51 C70 176.1(8)
Ni2 N5 C51 C70 -7.5(12)
N5 C51 C52 C53 2.9(10)
C70 C51 C52 C53 -178.1(8)
N5 C51 C52 C71 -170.2(8)
C70 C51 C52 C71 8.8(14)
C51 C52 C53 C54 0.4(9)
C71 C52 C53 C54 173.6(8)
C51 C52 C53 C73 -178.8(8)
C71 C52 C53 C73 -5.6(15)
C51 N5 C54 C55 -164.6(8)
Ni2 N5 C54 C55 18.9(12)
C51 N5 C54 C53 5.0(9)
Ni2 N5 C54 C53 -171.5(6)
C52 C53 C54 C55 165.7(9)
C73 C53 C54 C55 -15.0(14)
C52 C53 C54 N5 -3.4(9)
C73 C53 C54 N5 175.9(8)
N5 C54 C55 C56 1.4(14)
C53 C54 C55 C56 -166.3(8)
C59 N6 C56 C55 172.6(8)
Ni2 N6 C56 C55 -2.2(12)
C59 N6 C56 C57 -0.8(9)
Ni2 N6 C56 C57 -175.5(6)
C54 C55 C56 N6 -10.0(14)
C54 C55 C56 C57 162.3(9)
N6 C56 C57 C58 3.0(10)
C55 C56 C57 C58 -170.3(8)
N6 C56 C57 C75 -174.1(8)
C55 C56 C57 C75 12.7(15)
C56 C57 C58 C59 -3.8(10)
C75 C57 C58 C59 173.1(9)
C56 C57 C58 C77 171.4(8)
C75 C57 C58 C77 -11.6(15)
C56 N6 C59 C60 169.8(8)
Ni2 N6 C59 C60 -15.4(12)
C56 N6 C59 C58 -1.7(9)
Ni2 N6 C59 C58 173.1(6)
C57 C58 C59 N6 3.6(10)
C77 C58 C59 N6 -171.6(8)
C57 C58 C59 C60 -167.5(9)
C77 C58 C59 C60 17.3(15)
N6 C59 C60 C61 -4.3(14)
C58 C59 C60 C61 165.9(9)
C59 C60 C61 N7 7.5(14)
C59 C60 C61 C62 -168.4(8)
C64 N7 C61 C60 -175.6(8)
Ni2 N7 C61 C60 9.2(12)
C64 N7 C61 C62 0.9(9)
Ni2 N7 C61 C62 -174.3(5)
C60 C61 C62 C63 175.9(9)
N7 C61 C62 C63 -0.5(10)
C60 C61 C62 C79 -1.5(14)
N7 C61 C62 C79 -177.9(8)
C61 C62 C63 C64 -0.1(9)
C79 C62 C63 C64 177.2(8)
C61 C62 C63 C81 174.6(9)
C79 C62 C63 C81 -8.1(15)
C61 N7 C64 C65 -176.5(9)
Ni2 N7 C64 C65 -1.3(13)
C61 N7 C64 C63 -1.0(10)
Ni2 N7 C64 C63 174.2(6)
C62 C63 C64 N7 0.7(10)
C81 C63 C64 N7 -174.3(8)
C62 C63 C64 C65 176.4(8)
C81 C63 C64 C65 1.4(14)
N7 C64 C65 C66 13.1(15)
C63 C64 C65 C66 -161.9(9)
C64 C65 C66 N8 -2.9(16)
C64 C65 C66 C67 164.2(10)
C69 N8 C66 C65 163.7(10)
Ni2 N8 C66 C65 -17.8(14)
C69 N8 C66 C67 -5.5(11)
Ni2 N8 C66 C67 173.1(7)
C65 C66 C67 C68 -162.9(10)
N8 C66 C67 C68 5.9(13)
C65 C66 C67 C83 18(2)
N8 C66 C67 C83 -173.2(12)
C66 C67 C68 C69 -3.8(12)
C83 C67 C68 C69 175.3(13)
C66 C67 C68 C85 -179.8(11)
C83 C67 C68 C85 -1(2)
C66 N8 C69 C68 3.3(11)
Ni2 N8 C69 C68 -175.2(7)
C66 N8 C69 C70 -177.2(8)
Ni2 N8 C69 C70 4.3(13)
C67 C68 C69 N8 0.4(12)
C85 C68 C69 N8 176.3(10)
C67 C68 C69 C70 -179.1(9)
C85 C68 C69 C70 -3.1(17)
C37 C38 C70 C51 10.0(13)
C37 C38 C70 C69 -161.8(8)
N5 C51 C70 C38 -130.5(9)
C52 C51 C70 C38 50.6(13)
N5 C51 C70 C69 41.8(12)
C52 C51 C70 C69 -137.1(9)
N8 C69 C70 C38 132.6(9)
C68 C69 C70 C38 -48.0(13)
N8 C69 C70 C51 -39.9(12)
C68 C69 C70 C51 139.6(9)
C53 C52 C71 C72 -74.1(12)
C51 C52 C71 C72 97.6(11)
C52 C53 C73 C74 106.4(11)
C54 C53 C73 C74 -72.7(11)
C58 C57 C75 C76 -73.2(13)
C56 C57 C75 C76 103.3(11)
C57 C58 C77 C78 -76.7(12)
C59 C58 C77 C78 97.6(11)
C63 C62 C79 C80 -83.2(12)
C61 C62 C79 C80 93.6(11)
C62 C63 C81 C82 -91.9(13)
C64 C63 C81 C82 82.0(12)
C68 C67 C83 C84 82.4(18)
C66 C67 C83 C84 -98.6(15)
C67 C68 C85 C86 107.9(13)
C69 C68 C85 C86 -67.1(15)
