#------------------------------------------------------------------------------
#$Date: 2021-01-07 09:08:28 +0200 (Thu, 07 Jan 2021) $
#$Revision: 260826 $
#$URL: file:///home/coder/svn-repositories/cod/cif/7/15/77/7157771.cif $
#------------------------------------------------------------------------------
#
# This file is available in the Crystallography Open Database (COD),
# http://www.crystallography.net/
#
# All data on this site have been placed in the public domain by the
# contributors.
#
data_7157771
loop_
_publ_author_name
'Hayashi, Satoshi'
'Takamatsu, Rina'
'Takeda, Shiori'
'Noji, Masahiro'
'Takanami, Toshikatsu'
_publ_section_title
;
 Central zinc metal-controlled regioselective meso-bromination of
 zincated\b-silylporphyrins-rapid access to meso,\b-dual-functionalized
 porphyrins.
;
_journal_issue                   48
_journal_name_full               'Organic &amp; biomolecular chemistry'
_journal_page_first              9791
_journal_page_last               9795
_journal_paper_doi               10.1039/d0ob02262d
_journal_volume                  18
_journal_year                    2020
_chemical_formula_moiety         'C39 H53 Br N4 O4 Si3 Zn'
_chemical_formula_sum            'C39 H53 Br N4 O4 Si3 Zn'
_chemical_formula_weight         871.41
_chemical_name_systematic        Zn-3c
_space_group_crystal_system      triclinic
_space_group_IT_number           2
_space_group_name_Hall           '-P 1'
_space_group_name_H-M_alt        'P -1'
_atom_sites_solution_hydrogens   geom
_atom_sites_solution_primary     direct
_atom_sites_solution_secondary   difmap
_audit_update_record
;
2020-10-07 deposited with the CCDC.	2020-11-25 downloaded from the CCDC.
;
_cell_angle_alpha                98.8580
_cell_angle_beta                 102.4700
_cell_angle_gamma                91.9200
_cell_formula_units_Z            2
_cell_length_a                   9.3441
_cell_length_b                   13.5093
_cell_length_c                   16.7025
_cell_measurement_reflns_used    4
_cell_measurement_temperature    93
_cell_measurement_theta_max      70.52
_cell_measurement_theta_min      6.56
_cell_volume                     2029.227
_computing_cell_refinement       'RAPID AUTO'
_computing_data_collection       'RAPID AUTO (Rigaku, ????)'
_computing_data_reduction        'RAPID AUTO'
_computing_molecular_graphics    'CrystalStructure 4.2'
_computing_publication_material  'CrystalStructure 4.2 (Rigaku, 2017)'
_computing_structure_refinement  'SHELXL Version 2014/7 (Sheldrick, 2008)'
_computing_structure_solution    'SHELXT Version 2014/5 (Sheldrick, 2014)'
_diffrn_ambient_temperature      93
_diffrn_detector_area_resol_mean 10.000
_diffrn_measured_fraction_theta_full 0.973
_diffrn_measured_fraction_theta_max 0.967
_diffrn_measurement_device_type  'Rigaku R-AXIS RAPID'
_diffrn_measurement_method       \w
_diffrn_radiation_type           'Cu K\a'
_diffrn_radiation_wavelength     1.54187
_diffrn_reflns_av_R_equivalents  0.2528
_diffrn_reflns_Laue_measured_fraction_full 0.973
_diffrn_reflns_Laue_measured_fraction_max 0.967
_diffrn_reflns_limit_h_max       10
_diffrn_reflns_limit_h_min       -10
_diffrn_reflns_limit_k_max       15
_diffrn_reflns_limit_k_min       -15
_diffrn_reflns_limit_l_max       20
_diffrn_reflns_limit_l_min       -20
_diffrn_reflns_number            23355
_diffrn_reflns_point_group_measured_fraction_full 0.973
_diffrn_reflns_point_group_measured_fraction_max 0.967
_diffrn_reflns_theta_full        67.687
_diffrn_reflns_theta_max         68.251
_diffrn_reflns_theta_min         3.319
_diffrn_standards_number         0
_exptl_absorpt_coefficient_mu    3.199
_exptl_absorpt_correction_T_max  0.984
_exptl_absorpt_correction_T_min  0.367
_exptl_absorpt_correction_type   multi-scan
_exptl_absorpt_process_details   'ABSCOR (Rigaku, 1995)'
_exptl_crystal_colour            purple
_exptl_crystal_density_diffrn    1.426
_exptl_crystal_density_method    'not measured'
_exptl_crystal_description       needle
_exptl_crystal_F_000             908.00
_exptl_crystal_size_max          0.181
_exptl_crystal_size_mid          0.017
_exptl_crystal_size_min          0.005
_refine_diff_density_max         2.38
_refine_diff_density_min         -1.40
_refine_ls_extinction_method     none
_refine_ls_goodness_of_fit_ref   1.046
_refine_ls_hydrogen_treatment    constr
_refine_ls_number_parameters     469
_refine_ls_number_reflns         7189
_refine_ls_number_restraints     0
_refine_ls_R_factor_all          0.2093
_refine_ls_R_factor_gt           0.1381
_refine_ls_shift/su_max          0.000
_refine_ls_structure_factor_coef Fsqd
_refine_ls_weighting_details
'w = 1/[\s^2^(Fo^2^)+(0.1207P)^2^] where P=(Fo^2^+2Fc^2^)/3'
_refine_ls_weighting_scheme      calc
_refine_ls_wR_factor_gt          0.2792
_refine_ls_wR_factor_ref         0.3577
_reflns_Friedel_coverage         0.000
_reflns_number_gt                3010
_reflns_number_total             7189
_reflns_threshold_expression     F^2^>2.0\s(F^2^)
_cod_data_source_file            d0ob02262d2.cif
_cod_data_source_block           Saeki-2_int
_cod_depositor_comments          'Adding full bibliography for 7157771.cif.'
_cod_original_cell_volume        2029.2225
_cod_database_code               7157771
_shelx_res_file
;

    shelxl.res created by SHELXL-2014/7

TITL Saeki-2_int
CELL  1.54187 9.34408 13.50930 16.70250 98.85800 102.47000 91.92000
ZERR  2 0.00000 0.00000 0.00000 0.00000 0.00000 0.00000
LATT 1
SFAC C H BR N O SI ZN
UNIT 78 106 2 8 8 6 2
L.S. 50
FMAP 2
PLAN 60
WPDB -2
HTAB
BOND $H
CONF
LIST 4
TEMP -180.0
ACTA
SIZE 0.181 0.017 0.005
WGHT    0.120700
FVAR       0.20069
BR1   3    0.927196    0.886277    0.630076    11.00000    0.08998    0.04540 =
         0.08737    0.00839    0.05428   -0.00421
ZN1   7    0.740742    0.498948    0.504993    11.00000    0.04867    0.03779 =
         0.05126    0.00757    0.02913    0.00760
SI1   6    0.798317    0.851475    0.793563    11.00000    0.06903    0.03214 =
         0.05481    0.00188    0.02935    0.00107
SI2   6    0.645484    0.821504    0.942842    11.00000    0.08957    0.05447 =
         0.06749    0.00310    0.04367    0.00359
SI3   6    0.740279    1.082518    0.789566    11.00000    0.08120    0.04604 =
         0.07426    0.00591    0.03560    0.00472
O1    5    0.689221    0.051400    0.478990    11.00000    0.15001    0.06931 =
         0.08604    0.02899    0.05640    0.04391
O2    5    0.687237    0.002056    0.349272    11.00000    0.08116    0.04485 =
         0.08372    0.00987    0.03486    0.02597
O3    5    0.703317    0.828616    0.860852    11.00000    0.10932    0.05265 =
         0.07510   -0.00649    0.05787   -0.01633
O4    5    0.752596    0.958250    0.767080    11.00000    0.08371    0.03372 =
         0.05670    0.00419    0.03306    0.01479
N1    4    0.765978    0.398925    0.406787    11.00000    0.05588    0.04476 =
         0.06147    0.00482    0.03092    0.01412
N2    4    0.606587    0.389821    0.531921    11.00000    0.05658    0.04715 =
         0.06462   -0.00525    0.04327   -0.00329
N3    4    0.715024    0.597658    0.604503    11.00000    0.03972    0.03758 =
         0.06009    0.00164    0.02851   -0.00252
N4    4    0.876899    0.607065    0.479216    11.00000    0.07778    0.03520 =
         0.04663    0.00224    0.03816   -0.00001
C1    1    0.857436    0.420784    0.354453    11.00000    0.05602    0.06413 =
         0.03621    0.01592    0.02621    0.01812
C2    1    0.838840    0.330200    0.289470    11.00000    0.08355    0.07762 =
         0.03352    0.00991    0.03339    0.03452
AFIX  43
H2    2    0.881976    0.322305    0.242516    11.00000   -1.20000
AFIX   0
C3    1    0.748225    0.259570    0.309021    11.00000    0.07574    0.05472 =
         0.04628    0.00489    0.03004    0.02321
AFIX  43
H3    2    0.719547    0.193992    0.278501    11.00000   -1.20000
AFIX   0
C4    1    0.706087    0.300741    0.380969    11.00000    0.06610    0.05097 =
         0.04200   -0.00050    0.02150    0.01137
C5    1    0.608114    0.249965    0.417362    11.00000    0.04548    0.03982 =
         0.08128    0.00118    0.01625    0.01171
C6    1    0.568551    0.292646    0.488884    11.00000    0.04383    0.03160 =
         0.05717    0.00515    0.02066    0.01749
C7    1    0.470669    0.235325    0.528038    11.00000    0.05996    0.02911 =
         0.07284    0.01487    0.03248    0.01179
AFIX  43
H7    2    0.430202    0.167991    0.510841    11.00000   -1.20000
AFIX   0
C8    1    0.453534    0.301611    0.593284    11.00000    0.06315    0.04115 =
         0.08026    0.01040    0.05266   -0.00098
AFIX  43
H8    2    0.398171    0.288937    0.632560    11.00000   -1.20000
AFIX   0
C9    1    0.535023    0.397726    0.594045    11.00000    0.04092    0.03088 =
         0.05216    0.00769    0.01652    0.01401
C10   1    0.553086    0.483540    0.656698    11.00000    0.04232    0.04005 =
         0.05657    0.01393    0.03123    0.00323
C11   1    0.635855    0.577716    0.661638    11.00000    0.04451    0.03492 =
         0.03914    0.00948    0.02238    0.00906
C12   1    0.653316    0.661606    0.724205    11.00000    0.07174    0.03074 =
         0.03264   -0.00402    0.03160    0.00753
AFIX  43
H12   2    0.609050    0.665099    0.770608    11.00000   -1.20000
AFIX   0
C13   1    0.740575    0.737837    0.711561    11.00000    0.05231    0.03163 =
         0.07020    0.01045    0.03083    0.00334
C14   1    0.779730    0.697839    0.634676    11.00000    0.04494    0.03597 =
         0.06800   -0.00256    0.03134   -0.00441
C15   1    0.869065    0.746208    0.590806    11.00000    0.05370    0.02014 =
         0.06475    0.01298    0.02029    0.00796
C16   1    0.913810    0.704205    0.519812    11.00000    0.03272    0.05955 =
         0.04301    0.00540    0.02448    0.00288
C17   1    1.013495    0.761082    0.482217    11.00000    0.07041    0.04522 =
         0.06126    0.02019    0.03834    0.00505
AFIX  43
H17   2    1.052202    0.828904    0.498318    11.00000   -1.20000
AFIX   0
C18   1    1.034962    0.692007    0.419540    11.00000    0.06875    0.05435 =
         0.05506    0.03546    0.04560    0.03221
AFIX  43
H18   2    1.096020    0.702911    0.382590    11.00000   -1.20000
AFIX   0
C19   1    0.951077    0.598009    0.416454    11.00000    0.04595    0.05178 =
         0.04955    0.01479    0.01867    0.01458
C20   1    0.936735    0.511563    0.355496    11.00000    0.05260    0.04874 =
         0.06572    0.02247    0.02752    0.00738
C21   1    0.551107    0.137557    0.379478    11.00000    0.06863    0.03376 =
         0.06839   -0.02071    0.02745    0.00167
AFIX  23
H21A  2    0.454173    0.124313    0.392102    11.00000   -1.20000
H21B  2    0.537015    0.128688    0.318264    11.00000   -1.20000
AFIX   0
C22   1    0.651359    0.062758    0.411221    11.00000    0.08720    0.02998 =
         0.09945    0.00346    0.05579    0.00967
C23   1    0.785799   -0.075537    0.373319    11.00000    0.07558    0.05595 =
         0.10010    0.02923    0.04740    0.01764
AFIX  23
H23A  2    0.740788   -0.118872    0.405230    11.00000   -1.20000
H23B  2    0.880066   -0.044048    0.408823    11.00000   -1.20000
AFIX   0
C24   1    0.812630   -0.138285    0.294236    11.00000    0.12701    0.13468 =
         0.09608    0.03394    0.06029    0.06987
AFIX  33
H24A  2    0.878526   -0.190721    0.309163    11.00000   -1.20000
H24B  2    0.718876   -0.169458    0.259642    11.00000   -1.20000
H24C  2    0.857682   -0.094888    0.263223    11.00000   -1.20000
AFIX   0
C25   1    0.471832    0.476399    0.726380    11.00000    0.06467    0.05245 =
         0.05367    0.00831    0.03741    0.00133
AFIX  23
H25A  2    0.441646    0.543412    0.746923    11.00000   -1.20000
H25B  2    0.382492    0.430298    0.705043    11.00000   -1.20000
AFIX   0
C26   1    0.570738    0.438628    0.794330    11.00000    0.07683    0.03984 =
         0.09017    0.00663    0.06699    0.01132
AFIX  23
H26A  2    0.661211    0.484003    0.812897    11.00000   -1.20000
H26B  2    0.599301    0.371625    0.772496    11.00000   -1.20000
AFIX   0
C27   1    0.505687    0.429863    0.869580    11.00000    0.10011    0.04496 =
         0.06323    0.01433    0.05071    0.01680
AFIX  23
H27A  2    0.466903    0.494797    0.887793    11.00000   -1.20000
H27B  2    0.422149    0.378417    0.852694    11.00000   -1.20000
AFIX   0
C28   1    0.611616    0.402901    0.939912    11.00000    0.10116    0.06892 =
         0.07703    0.02649    0.05691    0.00506
AFIX  33
H28A  2    0.563316    0.398497    0.985940    11.00000   -1.20000
H28B  2    0.648801    0.337843    0.922857    11.00000   -1.20000
H28C  2    0.693594    0.454325    0.957987    11.00000   -1.20000
AFIX   0
C29   1    1.014972    0.517674    0.285793    11.00000    0.06770    0.07421 =
         0.06964    0.01331    0.05632    0.01893
AFIX  23
H29A  2    1.103940    0.564200    0.306697    11.00000   -1.20000
H29B  2    1.046463    0.450525    0.266749    11.00000   -1.20000
AFIX   0
C30   1    0.917690    0.553534    0.214472    11.00000    0.06627    0.07512 =
         0.06590    0.03523    0.03794    0.03848
AFIX  23
H30A  2    0.896594    0.623766    0.232531    11.00000   -1.20000
H30B  2    0.823217    0.512351    0.199332    11.00000   -1.20000
AFIX   0
C31   1    0.981176    0.549233    0.137482    11.00000    0.09283    0.07281 =
         0.07614    0.02702    0.06133    0.02828
AFIX  23
H31A  2    1.078641    0.586727    0.152616    11.00000   -1.20000
H31B  2    0.916009    0.581868    0.095761    11.00000   -1.20000
AFIX   0
C32   1    0.996923    0.441137    0.099765    11.00000    0.09257    0.07833 =
         0.05413    0.01716    0.03022    0.02537
AFIX  33
H32A  2    1.037922    0.440564    0.050430    11.00000   -1.20000
H32B  2    1.062721    0.409091    0.140703    11.00000   -1.20000
H32C  2    0.900255    0.404237    0.083907    11.00000   -1.20000
AFIX   0
C33   1    0.994466    0.858757    0.844907    11.00000    0.08059    0.06285 =
         0.08618    0.01046    0.02701    0.02192
AFIX  33
H33A  2    1.020540    0.793603    0.860580    11.00000   -1.20000
H33B  2    1.053637    0.876261    0.806645    11.00000   -1.20000
H33C  2    1.013662    0.910285    0.894834    11.00000   -1.20000
AFIX   0
C34   1    0.728209    0.714399    0.989630    11.00000    0.09760    0.07740 =
         0.09580    0.03077    0.02981    0.02394
AFIX  33
H34A  2    0.693440    0.709184    1.040237    11.00000   -1.20000
H34B  2    0.699243    0.652038    0.949770    11.00000   -1.20000
H34C  2    0.835504    0.725582    1.003518    11.00000   -1.20000
AFIX   0
C35   1    0.701467    0.939976    1.014150    11.00000    0.10375    0.05428 =
         0.06213   -0.00028    0.03236    0.01009
AFIX  33
H35A  2    0.667122    0.937579    1.065308    11.00000   -1.20000
H35B  2    0.808833    0.950464    1.027530    11.00000   -1.20000
H35C  2    0.658460    0.995399    0.987842    11.00000   -1.20000
AFIX   0
C36   1    0.444180    0.797905    0.915497    11.00000    0.08748    0.07089 =
         0.07646    0.01661    0.03050    0.02865
AFIX  33
H36A  2    0.408426    0.793509    0.965932    11.00000   -1.20000
H36B  2    0.399532    0.853033    0.889435    11.00000   -1.20000
H36C  2    0.417472    0.734616    0.876572    11.00000   -1.20000
AFIX   0
C37   1    0.564705    1.102586    0.823649    11.00000    0.09303    0.07125 =
         0.08712    0.00341    0.04201    0.02503
AFIX  33
H37A  2    0.554126    1.174768    0.837311    11.00000   -1.20000
H37B  2    0.482096    1.072368    0.778698    11.00000   -1.20000
H37C  2    0.565589    1.071172    0.872857    11.00000   -1.20000
AFIX   0
C38   1    0.892082    1.140175    0.871080    11.00000    0.08566    0.04127 =
         0.11103   -0.00685    0.03121   -0.00063
AFIX  33
H38C  2    0.881796    1.212606    0.882785    11.00000   -1.20000
H38A  2    0.892763    1.111071    0.921392    11.00000   -1.20000
H38B  2    0.984362    1.128251    0.853459    11.00000   -1.20000
AFIX   0
C39   1    0.739627    1.139839    0.698834    11.00000    0.13535    0.04957 =
         0.11037    0.01515    0.05754    0.01312
AFIX  33
H39A  2    0.732397    1.212399    0.712718    11.00000   -1.20000
H39B  2    0.830761    1.127163    0.680121    11.00000   -1.20000
H39C  2    0.655367    1.111096    0.654369    11.00000   -1.20000
AFIX   0
HKLF 4

REM  Saeki-2_int
REM R1 =  0.1381 for    3010 Fo > 4sig(Fo)  and  0.2093 for all    7189 data
REM    469 parameters refined using      0 restraints

END

WGHT      0.1207      0.0000

REM Instructions for potential hydrogen bonds
EQIV $1 -x+2, -y+1, -z+1
HTAB C23 Br1_$1

REM Highest difference peak  2.379,  deepest hole -1.405,  1-sigma level  0.144
Q1    1   0.8031  0.5377  0.4746  11.00000  0.05    0.77
Q2    1   0.9959  0.8615  0.5893  11.00000  0.05    0.67
Q3    1   0.5060  0.2429  0.5272  11.00000  0.05    0.66
Q4    1   0.7593  0.5643  0.5599  11.00000  0.05    0.57
Q5    1   0.8395  0.8374  0.6653  11.00000  0.05    0.54
Q6    1   0.6710  0.4394  0.5357  11.00000  0.05    0.52
Q7    1   1.0985  0.8774  0.6511  11.00000  0.05    0.52
Q8    1   0.5839  0.5204  0.4842  11.00000  0.05    0.51
Q9    1   0.8224  0.4056  0.3564  11.00000  0.05    0.50
Q10   1   0.6361  0.6151  0.5094  11.00000  0.05    0.50
Q11   1   1.0620  0.7157  0.4355  11.00000  0.05    0.49
Q12   1   0.8220  1.0646  0.7487  11.00000  0.05    0.49
Q13   1   0.9494  0.4806  0.3257  11.00000  0.05    0.48
Q14   1   0.5898  0.1197  0.3521  11.00000  0.05    0.47
Q15   1   1.0841  0.5303  0.0934  11.00000  0.05    0.47
Q16   1   0.6848  1.0301  0.8260  11.00000  0.05    0.46
Q17   1   0.8541  0.4878  0.3913  11.00000  0.05    0.46
Q18   1   0.5074  0.3264  0.5684  11.00000  0.05    0.46
Q19   1   0.5100  0.4589  0.6632  11.00000  0.05    0.45
Q20   1   0.7258  0.8757  0.8391  11.00000  0.05    0.44
Q21   1   0.7587  0.7245  0.6952  11.00000  0.05    0.43
Q22   1   0.9700  0.7802  0.5319  11.00000  0.05    0.42
Q23   1   0.5375  0.5082  0.6872  11.00000  0.05    0.41
Q24   1   0.7773  0.8247  0.8461  11.00000  0.05    0.41
Q25   1   0.8613  0.9224  0.6777  11.00000  0.05    0.41
Q26   1   0.9980  0.5547  0.1202  11.00000  0.05    0.41
Q27   1   0.7535  0.2821  0.2733  11.00000  0.05    0.40
Q28   1   0.9658  1.0828  0.7539  11.00000  0.05    0.40
Q29   1   0.6583  0.5345  0.4128  11.00000  0.05    0.40
Q30   1   1.0996  0.5398  0.4164  11.00000  0.05    0.40
Q31   1   0.6386  0.7827  0.8365  11.00000  0.05    0.40
Q32   1   0.8348  0.7855  0.7426  11.00000  0.05    0.40
Q33   1   0.6821  0.7934  0.8394  11.00000  0.05    0.40
Q34   1   0.8248  0.8376  0.8803  11.00000  0.05    0.39
Q35   1   0.9278  0.6603  0.3970  11.00000  0.05    0.39
Q36   1   0.5823  0.9629  0.8146  11.00000  0.05    0.39
Q37   1   1.0014  0.5697  0.1895  11.00000  0.05    0.39
Q38   1   0.8756  0.9046  0.7543  11.00000  0.05    0.39
Q39   1   0.9129  0.4778  0.5195  11.00000  0.05    0.38
Q40   1   1.0706  0.9409  0.7460  11.00000  0.05    0.38
Q41   1   0.9437  0.8817  0.8154  11.00000  0.05    0.38
Q42   1   0.7082  0.1598  0.3629  11.00000  0.05    0.38
Q43   1   0.6202  0.4550  0.7640  11.00000  0.05    0.38
Q44   1   0.5000  0.3378  0.6134  11.00000  0.05    0.38
Q45   1   0.4944  0.4208  0.8215  11.00000  0.05    0.38
Q46   1   1.0817  0.4875  0.3996  11.00000  0.05    0.37
Q47   1   0.9968  0.9190  0.7414  11.00000  0.05    0.37
Q48   1   0.7582  0.9540  0.6906  11.00000  0.05    0.37
Q49   1   0.6672  0.8632  0.8545  11.00000  0.05    0.37
Q50   1   1.0324  0.6222  0.1424  11.00000  0.05    0.37
Q51   1   0.7557  0.3791  0.5065  11.00000  0.05    0.36
Q52   1   1.1018  0.8445  0.7142  11.00000  0.05    0.36
Q53   1   0.5321  0.1705  0.3890  11.00000  0.05    0.36
Q54   1   0.4129  0.4661  0.9248  11.00000  0.05    0.36
Q55   1   1.0905  0.9157  0.7381  11.00000  0.05    0.35
Q56   1   1.0628  0.5990  0.5063  11.00000  0.05    0.35
Q57   1   0.6321  0.5024  0.8248  11.00000  0.05    0.35
Q58   1   0.7175  0.0194  0.2335  11.00000  0.05    0.35
Q59   1   1.0416  0.5158  0.2690  11.00000  0.05    0.35
Q60   1   0.6404  0.3392  0.4829  11.00000  0.05    0.35
;
_shelx_res_checksum              87173
loop_
_space_group_symop_id
_space_group_symop_operation_xyz
1 +X,+Y,+Z
2 -X,-Y,-Z
loop_
_atom_site_label
_atom_site_type_symbol
_atom_site_fract_x
_atom_site_fract_y
_atom_site_fract_z
_atom_site_U_iso_or_equiv
_atom_site_adp_type
_atom_site_occupancy
_atom_site_site_symmetry_order
_atom_site_calc_flag
_atom_site_refinement_flags_posn
_atom_site_refinement_flags_adp
_atom_site_refinement_flags_occupancy
_atom_site_disorder_assembly
_atom_site_disorder_group
Br1 Br 0.92720(13) 0.88628(8) 0.63008(7) 0.0695(5) Uani 1 1 d . . . . .
Zn1 Zn 0.74074(12) 0.49895(8) 0.50499(7) 0.0430(5) Uani 1 1 d . . . . .
Si1 Si 0.7983(3) 0.85147(18) 0.79356(17) 0.0502(8) Uani 1 1 d . . . . .
Si2 Si 0.6455(4) 0.8215(2) 0.9428(2) 0.0673(10) Uani 1 1 d . . . . .
Si3 Si 0.7403(4) 1.0825(2) 0.7896(2) 0.0648(10) Uani 1 1 d . . . . .
O1 O 0.6892(10) 0.0514(6) 0.4790(6) 0.095(3) Uani 1 1 d . . . . .
O2 O 0.6872(8) 0.0021(5) 0.3493(4) 0.067(2) Uani 1 1 d . . . . .
O3 O 0.7033(8) 0.8286(5) 0.8609(4) 0.076(2) Uani 1 1 d . . . . .
O4 O 0.7526(7) 0.9583(4) 0.7671(4) 0.0555(18) Uani 1 1 d . . . . .
N1 N 0.7660(8) 0.3989(6) 0.4068(5) 0.051(2) Uani 1 1 d . . . . .
N2 N 0.6066(8) 0.3898(6) 0.5319(5) 0.053(2) Uani 1 1 d . . . . .
N3 N 0.7150(7) 0.5977(5) 0.6045(5) 0.044(2) Uani 1 1 d . . . . .
N4 N 0.8769(8) 0.6071(5) 0.4792(5) 0.050(2) Uani 1 1 d . . . . .
C1 C 0.8574(10) 0.4208(8) 0.3545(6) 0.049(3) Uani 1 1 d . . . . .
C2 C 0.8388(12) 0.3302(8) 0.2895(6) 0.061(3) Uani 1 1 d . . . . .
H2 H 0.8820 0.3223 0.2425 0.073 Uiso 1 1 calc R U . . .
C3 C 0.7482(11) 0.2596(8) 0.3090(6) 0.056(3) Uani 1 1 d . . . . .
H3 H 0.7195 0.1940 0.2785 0.068 Uiso 1 1 calc R U . . .
C4 C 0.7061(11) 0.3007(8) 0.3810(6) 0.052(3) Uani 1 1 d . . . . .
C5 C 0.6081(10) 0.2500(7) 0.4174(7) 0.056(3) Uani 1 1 d . . . . .
C6 C 0.5686(10) 0.2926(7) 0.4889(6) 0.043(2) Uani 1 1 d . . . . .
C7 C 0.4707(10) 0.2353(7) 0.5280(6) 0.050(3) Uani 1 1 d . . . . .
H7 H 0.4302 0.1680 0.5108 0.060 Uiso 1 1 calc R U . . .
C8 C 0.4535(10) 0.3016(7) 0.5933(7) 0.056(3) Uani 1 1 d . . . . .
H8 H 0.3982 0.2889 0.6326 0.067 Uiso 1 1 calc R U . . .
C9 C 0.5350(9) 0.3977(6) 0.5940(6) 0.040(2) Uani 1 1 d . . . . .
C10 C 0.5531(9) 0.4835(7) 0.6567(6) 0.043(2) Uani 1 1 d . . . . .
C11 C 0.6359(9) 0.5777(6) 0.6616(5) 0.037(2) Uani 1 1 d . . . . .
C12 C 0.6533(10) 0.6616(6) 0.7242(5) 0.043(2) Uani 1 1 d . . . . .
H12 H 0.6091 0.6651 0.7706 0.051 Uiso 1 1 calc R U . . .
C13 C 0.7406(10) 0.7378(7) 0.7116(6) 0.049(3) Uani 1 1 d . . . . .
C14 C 0.7797(10) 0.6978(7) 0.6347(6) 0.048(3) Uani 1 1 d . . . . .
C15 C 0.8691(10) 0.7462(6) 0.5908(6) 0.044(2) Uani 1 1 d . . . . .
C16 C 0.9138(9) 0.7042(8) 0.5198(6) 0.043(2) Uani 1 1 d . . . . .
C17 C 1.0135(10) 0.7611(8) 0.4822(6) 0.054(3) Uani 1 1 d . . . . .
H17 H 1.0522 0.8289 0.4983 0.065 Uiso 1 1 calc R U . . .
C18 C 1.0350(10) 0.6920(7) 0.4195(6) 0.051(3) Uani 1 1 d . . . . .
H18 H 1.0960 0.7029 0.3826 0.061 Uiso 1 1 calc R U . . .
C19 C 0.9511(10) 0.5980(8) 0.4165(6) 0.047(3) Uani 1 1 d . . . . .
C20 C 0.9367(10) 0.5116(8) 0.3555(6) 0.052(3) Uani 1 1 d . . . . .
C21 C 0.5511(11) 0.1376(7) 0.3795(7) 0.058(3) Uani 1 1 d . . . . .
H21A H 0.4542 0.1243 0.3921 0.070 Uiso 1 1 calc R U . . .
H21B H 0.5370 0.1287 0.3183 0.070 Uiso 1 1 calc R U . . .
C22 C 0.6514(14) 0.0628(8) 0.4112(9) 0.068(4) Uani 1 1 d . . . . .
C23 C 0.7858(12) -0.0755(8) 0.3733(7) 0.071(3) Uani 1 1 d . . . . .
H23A H 0.7408 -0.1189 0.4052 0.085 Uiso 1 1 calc R U . . .
H23B H 0.8801 -0.0440 0.4088 0.085 Uiso 1 1 calc R U . . .
C24 C 0.8126(15) -0.1383(11) 0.2942(8) 0.111(5) Uani 1 1 d . . . . .
H24A H 0.8785 -0.1907 0.3092 0.133 Uiso 1 1 calc R U . . .
H24B H 0.7189 -0.1695 0.2596 0.133 Uiso 1 1 calc R U . . .
H24C H 0.8577 -0.0949 0.2632 0.133 Uiso 1 1 calc R U . . .
C25 C 0.4718(11) 0.4764(8) 0.7264(6) 0.053(3) Uani 1 1 d . . . . .
H25A H 0.4416 0.5434 0.7469 0.064 Uiso 1 1 calc R U . . .
H25B H 0.3825 0.4303 0.7050 0.064 Uiso 1 1 calc R U . . .
C26 C 0.5707(11) 0.4386(7) 0.7943(7) 0.062(3) Uani 1 1 d . . . . .
H26A H 0.6612 0.4840 0.8129 0.074 Uiso 1 1 calc R U . . .
H26B H 0.5993 0.3716 0.7725 0.074 Uiso 1 1 calc R U . . .
C27 C 0.5057(12) 0.4299(8) 0.8696(6) 0.064(3) Uani 1 1 d . . . . .
H27A H 0.4669 0.4948 0.8878 0.076 Uiso 1 1 calc R U . . .
H27B H 0.4221 0.3784 0.8527 0.076 Uiso 1 1 calc R U . . .
C28 C 0.6116(12) 0.4029(8) 0.9399(7) 0.075(4) Uani 1 1 d . . . . .
H28A H 0.5633 0.3985 0.9859 0.090 Uiso 1 1 calc R U . . .
H28B H 0.6488 0.3378 0.9229 0.090 Uiso 1 1 calc R U . . .
H28C H 0.6936 0.4543 0.9580 0.090 Uiso 1 1 calc R U . . .
C29 C 1.0150(11) 0.5177(8) 0.2858(6) 0.064(3) Uani 1 1 d . . . . .
H29A H 1.1039 0.5642 0.3067 0.077 Uiso 1 1 calc R U . . .
H29B H 1.0465 0.4505 0.2667 0.077 Uiso 1 1 calc R U . . .
C30 C 0.9177(11) 0.5535(8) 0.2145(6) 0.062(3) Uani 1 1 d . . . . .
H30A H 0.8966 0.6238 0.2325 0.075 Uiso 1 1 calc R U . . .
H30B H 0.8232 0.5124 0.1993 0.075 Uiso 1 1 calc R U . . .
C31 C 0.9812(12) 0.5492(8) 0.1375(7) 0.072(3) Uani 1 1 d . . . . .
H31A H 1.0786 0.5867 0.1526 0.086 Uiso 1 1 calc R U . . .
H31B H 0.9160 0.5819 0.0958 0.086 Uiso 1 1 calc R U . . .
C32 C 0.9969(12) 0.4411(8) 0.0998(6) 0.072(3) Uani 1 1 d . . . . .
H32A H 1.0379 0.4406 0.0504 0.086 Uiso 1 1 calc R U . . .
H32B H 1.0627 0.4091 0.1407 0.086 Uiso 1 1 calc R U . . .
H32C H 0.9003 0.4042 0.0839 0.086 Uiso 1 1 calc R U . . .
C33 C 0.9945(11) 0.8588(8) 0.8449(7) 0.075(3) Uani 1 1 d . . . . .
H33A H 1.0205 0.7936 0.8606 0.090 Uiso 1 1 calc R U . . .
H33B H 1.0536 0.8763 0.8066 0.090 Uiso 1 1 calc R U . . .
H33C H 1.0137 0.9103 0.8948 0.090 Uiso 1 1 calc R U . . .
C34 C 0.7282(13) 0.7144(8) 0.9896(7) 0.087(4) Uani 1 1 d . . . . .
H34A H 0.6934 0.7092 1.0402 0.104 Uiso 1 1 calc R U . . .
H34B H 0.6992 0.6520 0.9498 0.104 Uiso 1 1 calc R U . . .
H34C H 0.8355 0.7256 1.0035 0.104 Uiso 1 1 calc R U . . .
C35 C 0.7015(13) 0.9400(7) 1.0141(6) 0.072(3) Uani 1 1 d . . . . .
H35A H 0.6671 0.9376 1.0653 0.087 Uiso 1 1 calc R U . . .
H35B H 0.8088 0.9505 1.0275 0.087 Uiso 1 1 calc R U . . .
H35C H 0.6585 0.9954 0.9878 0.087 Uiso 1 1 calc R U . . .
C36 C 0.4442(11) 0.7979(8) 0.9155(7) 0.075(3) Uani 1 1 d . . . . .
H36A H 0.4084 0.7935 0.9659 0.090 Uiso 1 1 calc R U . . .
H36B H 0.3995 0.8530 0.8894 0.090 Uiso 1 1 calc R U . . .
H36C H 0.4175 0.7346 0.8766 0.090 Uiso 1 1 calc R U . . .
C37 C 0.5647(12) 1.1026(8) 0.8236(7) 0.081(4) Uani 1 1 d . . . . .
H37A H 0.5541 1.1748 0.8373 0.097 Uiso 1 1 calc R U . . .
H37B H 0.4821 1.0724 0.7787 0.097 Uiso 1 1 calc R U . . .
H37C H 0.5656 1.0712 0.8729 0.097 Uiso 1 1 calc R U . . .
C38 C 0.8921(12) 1.1402(7) 0.8711(7) 0.080(4) Uani 1 1 d . . . . .
H38C H 0.8818 1.2126 0.8828 0.096 Uiso 1 1 calc R U . . .
H38A H 0.8928 1.1111 0.9214 0.096 Uiso 1 1 calc R U . . .
H38B H 0.9844 1.1283 0.8535 0.096 Uiso 1 1 calc R U . . .
C39 C 0.7396(14) 1.1398(8) 0.6988(8) 0.093(4) Uani 1 1 d . . . . .
H39A H 0.7324 1.2124 0.7127 0.112 Uiso 1 1 calc R U . . .
H39B H 0.8308 1.1272 0.6801 0.112 Uiso 1 1 calc R U . . .
H39C H 0.6554 1.1111 0.6544 0.112 Uiso 1 1 calc R U . . .
loop_
_atom_site_aniso_label
_atom_site_aniso_U_11
_atom_site_aniso_U_22
_atom_site_aniso_U_33
_atom_site_aniso_U_23
_atom_site_aniso_U_13
_atom_site_aniso_U_12
Br1 0.0900(10) 0.0454(8) 0.0874(11) 0.0084(7) 0.0543(8) -0.0042(7)
Zn1 0.0487(9) 0.0378(9) 0.0513(9) 0.0076(7) 0.0291(7) 0.0076(7)
Si1 0.069(2) 0.0321(16) 0.0548(18) 0.0019(14) 0.0293(16) 0.0011(14)
Si2 0.090(3) 0.054(2) 0.067(2) 0.0031(17) 0.044(2) 0.0036(18)
Si3 0.081(2) 0.0460(19) 0.074(2) 0.0059(17) 0.0356(19) 0.0047(17)
O1 0.150(8) 0.069(6) 0.086(6) 0.029(5) 0.056(6) 0.044(6)
O2 0.081(5) 0.045(4) 0.084(6) 0.010(4) 0.035(4) 0.026(4)
O3 0.109(6) 0.053(4) 0.075(5) -0.006(4) 0.058(5) -0.016(4)
O4 0.084(5) 0.034(4) 0.057(4) 0.004(3) 0.033(4) 0.015(4)
N1 0.056(5) 0.045(5) 0.061(6) 0.005(4) 0.031(5) 0.014(4)
N2 0.057(5) 0.047(5) 0.065(6) -0.005(4) 0.043(5) -0.003(4)
N3 0.040(4) 0.038(4) 0.060(5) 0.002(4) 0.029(4) -0.003(4)
N4 0.078(6) 0.035(5) 0.047(5) 0.002(4) 0.038(4) 0.000(4)
C1 0.056(6) 0.064(7) 0.036(6) 0.016(5) 0.026(5) 0.018(5)
C2 0.084(8) 0.078(8) 0.034(6) 0.010(6) 0.033(6) 0.035(7)
C3 0.076(7) 0.055(7) 0.046(6) 0.005(5) 0.030(6) 0.023(6)
C4 0.066(7) 0.051(7) 0.042(6) 0.000(5) 0.022(5) 0.011(6)
C5 0.045(6) 0.040(6) 0.081(8) 0.001(6) 0.016(6) 0.012(5)
C6 0.044(6) 0.032(5) 0.057(7) 0.005(5) 0.021(5) 0.017(5)
C7 0.060(6) 0.029(5) 0.073(7) 0.015(5) 0.032(6) 0.012(5)
C8 0.063(7) 0.041(6) 0.080(8) 0.010(6) 0.053(6) -0.001(5)
C9 0.041(5) 0.031(5) 0.052(6) 0.008(5) 0.017(5) 0.014(4)
C10 0.042(5) 0.040(6) 0.057(6) 0.014(5) 0.031(5) 0.003(4)
C11 0.045(6) 0.035(5) 0.039(5) 0.009(4) 0.022(5) 0.009(4)
C12 0.072(7) 0.031(5) 0.033(5) -0.004(4) 0.032(5) 0.008(5)
C13 0.052(6) 0.032(5) 0.070(7) 0.010(5) 0.031(5) 0.003(5)
C14 0.045(6) 0.036(6) 0.068(7) -0.003(5) 0.031(5) -0.004(5)
C15 0.054(6) 0.020(5) 0.065(7) 0.013(5) 0.020(5) 0.008(4)
C16 0.033(5) 0.060(7) 0.043(6) 0.005(5) 0.024(4) 0.003(5)
C17 0.070(7) 0.045(6) 0.061(7) 0.020(5) 0.038(6) 0.005(5)
C18 0.069(7) 0.054(6) 0.055(6) 0.035(5) 0.046(6) 0.032(6)
C19 0.046(6) 0.052(7) 0.050(6) 0.015(5) 0.019(5) 0.015(5)
C20 0.053(6) 0.049(6) 0.066(7) 0.022(6) 0.028(6) 0.007(5)
C21 0.069(7) 0.034(6) 0.068(7) -0.021(5) 0.027(6) 0.002(5)
C22 0.087(9) 0.030(6) 0.099(10) 0.003(7) 0.056(9) 0.010(6)
C23 0.076(8) 0.056(7) 0.100(9) 0.029(7) 0.047(7) 0.018(6)
C24 0.127(12) 0.135(13) 0.096(11) 0.034(10) 0.060(9) 0.070(11)
C25 0.065(7) 0.052(6) 0.054(6) 0.008(5) 0.037(6) 0.001(6)
C26 0.077(8) 0.040(6) 0.090(8) 0.007(6) 0.067(7) 0.011(6)
C27 0.100(9) 0.045(6) 0.063(7) 0.014(6) 0.051(7) 0.017(6)
C28 0.101(9) 0.069(8) 0.077(8) 0.026(7) 0.057(8) 0.005(7)
C29 0.068(7) 0.074(7) 0.070(8) 0.013(6) 0.056(7) 0.019(6)
C30 0.066(7) 0.075(8) 0.066(7) 0.035(6) 0.038(6) 0.038(6)
C31 0.093(9) 0.073(8) 0.076(8) 0.027(7) 0.061(7) 0.028(7)
C32 0.093(9) 0.078(8) 0.054(7) 0.017(6) 0.030(7) 0.025(7)
C33 0.081(9) 0.063(8) 0.086(8) 0.010(7) 0.027(7) 0.022(7)
C34 0.098(10) 0.077(9) 0.096(9) 0.031(7) 0.030(8) 0.024(8)
C35 0.104(9) 0.054(7) 0.062(7) 0.000(6) 0.032(7) 0.010(7)
C36 0.087(9) 0.071(8) 0.076(8) 0.017(6) 0.030(7) 0.029(7)
C37 0.093(9) 0.071(8) 0.087(9) 0.003(7) 0.042(7) 0.025(7)
C38 0.086(8) 0.041(7) 0.111(10) -0.007(7) 0.031(8) -0.001(6)
C39 0.135(11) 0.050(7) 0.110(10) 0.015(7) 0.058(9) 0.013(8)
loop_
_atom_type_symbol
_atom_type_description
_atom_type_scat_dispersion_real
_atom_type_scat_dispersion_imag
_atom_type_scat_source
C C 0.0181 0.0091
;
International Tables for Crystallography
(Vol. C, Tables 4.2.6.8 and 6.1.1.4)
;
H H 0.0000 0.0000
;
International Tables for Crystallography
(Vol. C, Table 6.1.1.4)
;
Br Br -0.6763 1.2805
;
International Tables for Crystallography
(Vol. C, Tables 4.2.6.8 and 6.1.1.4)
;
N N 0.0311 0.0180
;
International Tables for Crystallography
(Vol. C, Tables 4.2.6.8 and 6.1.1.4)
;
O O 0.0492 0.0322
;
International Tables for Crystallography
(Vol. C, Tables 4.2.6.8 and 6.1.1.4)
;
Si Si 0.2541 0.3302
;
International Tables for Crystallography
(Vol. C, Tables 4.2.6.8 and 6.1.1.4)
;
Zn Zn -1.5491 0.6778
;
International Tables for Crystallography
(Vol. C, Tables 4.2.6.8 and 6.1.1.4)
;
loop_
_geom_angle_atom_site_label_1
_geom_angle_atom_site_label_2
_geom_angle_atom_site_label_3
_geom_angle
_geom_angle_site_symmetry_1
_geom_angle_site_symmetry_3
_geom_angle_publ_flag
N1 Zn1 N3 179.1(3) . . ?
N1 Zn1 N4 92.3(3) . . ?
N3 Zn1 N4 88.4(3) . . ?
N1 Zn1 N2 87.7(3) . . ?
N3 Zn1 N2 91.6(3) . . ?
N4 Zn1 N2 179.2(3) . . ?
O4 Si1 O3 107.1(3) . . ?
O4 Si1 C33 110.4(4) . . ?
O3 Si1 C33 108.0(5) . . ?
O4 Si1 C13 116.5(4) . . ?
O3 Si1 C13 100.7(4) . . ?
C33 Si1 C13 113.1(4) . . ?
O3 Si2 C35 107.8(4) . . ?
O3 Si2 C36 109.4(5) . . ?
C35 Si2 C36 111.3(5) . . ?
O3 Si2 C34 108.6(5) . . ?
C35 Si2 C34 110.9(5) . . ?
C36 Si2 C34 108.8(5) . . ?
O4 Si3 C38 111.4(4) . . ?
O4 Si3 C39 110.2(4) . . ?
C38 Si3 C39 108.3(6) . . ?
O4 Si3 C37 107.4(4) . . ?
C38 Si3 C37 109.7(5) . . ?
C39 Si3 C37 109.8(6) . . ?
C22 O2 C23 115.9(9) . . ?
Si2 O3 Si1 165.5(5) . . ?
Si1 O4 Si3 151.8(4) . . ?
C4 N1 C1 109.0(8) . . ?
C4 N1 Zn1 128.7(6) . . ?
C1 N1 Zn1 122.3(7) . . ?
C9 N2 C6 104.9(7) . . ?
C9 N2 Zn1 127.6(6) . . ?
C6 N2 Zn1 127.6(6) . . ?
C11 N3 C14 105.1(7) . . ?
C11 N3 Zn1 125.5(6) . . ?
C14 N3 Zn1 129.3(5) . . ?
C19 N4 C16 104.1(7) . . ?
C19 N4 Zn1 127.2(7) . . ?
C16 N4 Zn1 128.6(5) . . ?
N1 C1 C20 128.9(9) . . ?
N1 C1 C2 104.7(9) . . ?
C20 C1 C2 126.0(9) . . ?
C3 C2 C1 108.1(8) . . ?
C3 C2 H2 125.9 . . ?
C1 C2 H2 125.9 . . ?
C2 C3 C4 108.1(9) . . ?
C2 C3 H3 125.9 . . ?
C4 C3 H3 125.9 . . ?
C3 C4 N1 109.8(9) . . ?
C3 C4 C5 123.4(10) . . ?
N1 C4 C5 126.6(8) . . ?
C6 C5 C4 122.1(9) . . ?
C6 C5 C21 118.0(9) . . ?
C4 C5 C21 119.6(9) . . ?
C5 C6 N2 127.1(8) . . ?
C5 C6 C7 120.9(9) . . ?
N2 C6 C7 112.0(8) . . ?
C8 C7 C6 103.5(8) . . ?
C8 C7 H7 128.3 . . ?
C6 C7 H7 128.3 . . ?
C7 C8 C9 108.8(8) . . ?
C7 C8 H8 125.6 . . ?
C9 C8 H8 125.6 . . ?
N2 C9 C10 122.9(8) . . ?
N2 C9 C8 110.8(8) . . ?
C10 C9 C8 125.8(8) . . ?
C9 C10 C11 127.8(7) . . ?
C9 C10 C25 115.8(8) . . ?
C11 C10 C25 116.4(8) . . ?
N3 C11 C12 108.5(8) . . ?
N3 C11 C10 124.4(8) . . ?
C12 C11 C10 127.1(8) . . ?
C13 C12 C11 112.8(8) . . ?
C13 C12 H12 123.6 . . ?
C11 C12 H12 123.6 . . ?
C12 C13 C14 103.1(8) . . ?
C12 C13 Si1 120.3(7) . . ?
C14 C13 Si1 136.0(7) . . ?
C15 C14 N3 121.7(8) . . ?
C15 C14 C13 127.7(8) . . ?
N3 C14 C13 110.6(7) . . ?
C16 C15 C14 126.9(8) . . ?
C16 C15 Br1 115.7(6) . . ?
C14 C15 Br1 117.3(7) . . ?
N4 C16 C15 124.8(8) . . ?
N4 C16 C17 113.4(7) . . ?
C15 C16 C17 121.8(9) . . ?
C18 C17 C16 102.2(8) . . ?
C18 C17 H17 128.9 . . ?
C16 C17 H17 128.9 . . ?
C17 C18 C19 110.2(8) . . ?
C17 C18 H18 124.9 . . ?
C19 C18 H18 124.9 . . ?
N4 C19 C20 123.3(9) . . ?
N4 C19 C18 110.0(8) . . ?
C20 C19 C18 126.5(9) . . ?
C1 C20 C19 125.7(9) . . ?
C1 C20 C29 117.8(9) . . ?
C19 C20 C29 116.5(9) . . ?
C22 C21 C5 113.8(9) . . ?
C22 C21 H21A 108.8 . . ?
C5 C21 H21A 108.8 . . ?
C22 C21 H21B 108.8 . . ?
C5 C21 H21B 108.8 . . ?
H21A C21 H21B 107.7 . . ?
O1 C22 O2 121.7(12) . . ?
O1 C22 C21 127.0(11) . . ?
O2 C22 C21 111.1(11) . . ?
O2 C23 C24 108.3(9) . . ?
O2 C23 H23A 110.0 . . ?
C24 C23 H23A 110.0 . . ?
O2 C23 H23B 110.0 . . ?
C24 C23 H23B 110.0 . . ?
H23A C23 H23B 108.4 . . ?
C23 C24 H24A 109.5 . . ?
C23 C24 H24B 109.5 . . ?
H24A C24 H24B 109.5 . . ?
C23 C24 H24C 109.5 . . ?
H24A C24 H24C 109.5 . . ?
H24B C24 H24C 109.5 . . ?
C26 C25 C10 108.6(7) . . ?
C26 C25 H25A 110.0 . . ?
C10 C25 H25A 110.0 . . ?
C26 C25 H25B 110.0 . . ?
C10 C25 H25B 110.0 . . ?
H25A C25 H25B 108.3 . . ?
C25 C26 C27 114.6(8) . . ?
C25 C26 H26A 108.6 . . ?
C27 C26 H26A 108.6 . . ?
C25 C26 H26B 108.6 . . ?
C27 C26 H26B 108.6 . . ?
H26A C26 H26B 107.6 . . ?
C28 C27 C26 113.5(9) . . ?
C28 C27 H27A 108.9 . . ?
C26 C27 H27A 108.9 . . ?
C28 C27 H27B 108.9 . . ?
C26 C27 H27B 108.9 . . ?
H27A C27 H27B 107.7 . . ?
C27 C28 H28A 109.5 . . ?
C27 C28 H28B 109.5 . . ?
H28A C28 H28B 109.5 . . ?
C27 C28 H28C 109.5 . . ?
H28A C28 H28C 109.5 . . ?
H28B C28 H28C 109.5 . . ?
C30 C29 C20 111.2(8) . . ?
C30 C29 H29A 109.4 . . ?
C20 C29 H29A 109.4 . . ?
C30 C29 H29B 109.4 . . ?
C20 C29 H29B 109.4 . . ?
H29A C29 H29B 108.0 . . ?
C29 C30 C31 114.4(8) . . ?
C29 C30 H30A 108.6 . . ?
C31 C30 H30A 108.6 . . ?
C29 C30 H30B 108.6 . . ?
C31 C30 H30B 108.6 . . ?
H30A C30 H30B 107.6 . . ?
C30 C31 C32 111.2(9) . . ?
C30 C31 H31A 109.4 . . ?
C32 C31 H31A 109.4 . . ?
C30 C31 H31B 109.4 . . ?
C32 C31 H31B 109.4 . . ?
H31A C31 H31B 108.0 . . ?
C31 C32 H32A 109.5 . . ?
C31 C32 H32B 109.5 . . ?
H32A C32 H32B 109.5 . . ?
C31 C32 H32C 109.5 . . ?
H32A C32 H32C 109.5 . . ?
H32B C32 H32C 109.5 . . ?
Si1 C33 H33A 109.5 . . ?
Si1 C33 H33B 109.5 . . ?
H33A C33 H33B 109.5 . . ?
Si1 C33 H33C 109.5 . . ?
H33A C33 H33C 109.5 . . ?
H33B C33 H33C 109.5 . . ?
Si2 C34 H34A 109.5 . . ?
Si2 C34 H34B 109.5 . . ?
H34A C34 H34B 109.5 . . ?
Si2 C34 H34C 109.5 . . ?
H34A C34 H34C 109.5 . . ?
H34B C34 H34C 109.5 . . ?
Si2 C35 H35A 109.5 . . ?
Si2 C35 H35B 109.5 . . ?
H35A C35 H35B 109.5 . . ?
Si2 C35 H35C 109.5 . . ?
H35A C35 H35C 109.5 . . ?
H35B C35 H35C 109.5 . . ?
Si2 C36 H36A 109.5 . . ?
Si2 C36 H36B 109.5 . . ?
H36A C36 H36B 109.5 . . ?
Si2 C36 H36C 109.5 . . ?
H36A C36 H36C 109.5 . . ?
H36B C36 H36C 109.5 . . ?
Si3 C37 H37A 109.5 . . ?
Si3 C37 H37B 109.5 . . ?
H37A C37 H37B 109.5 . . ?
Si3 C37 H37C 109.5 . . ?
H37A C37 H37C 109.5 . . ?
H37B C37 H37C 109.5 . . ?
Si3 C38 H38C 109.5 . . ?
Si3 C38 H38A 109.5 . . ?
H38C C38 H38A 109.5 . . ?
Si3 C38 H38B 109.5 . . ?
H38C C38 H38B 109.5 . . ?
H38A C38 H38B 109.5 . . ?
Si3 C39 H39A 109.5 . . ?
Si3 C39 H39B 109.5 . . ?
H39A C39 H39B 109.5 . . ?
Si3 C39 H39C 109.5 . . ?
H39A C39 H39C 109.5 . . ?
H39B C39 H39C 109.5 . . ?
loop_
_geom_bond_atom_site_label_1
_geom_bond_atom_site_label_2
_geom_bond_distance
_geom_bond_site_symmetry_2
_geom_bond_publ_flag
Br1 C15 1.924(9) . ?
Zn1 N1 2.019(8) . ?
Zn1 N3 2.027(7) . ?
Zn1 N4 2.060(7) . ?
Zn1 N2 2.067(7) . ?
Si1 O4 1.617(6) . ?
Si1 O3 1.633(6) . ?
Si1 C33 1.841(11) . ?
Si1 C13 1.871(10) . ?
Si2 O3 1.592(7) . ?
Si2 C35 1.828(10) . ?
Si2 C36 1.842(11) . ?
Si2 C34 1.861(11) . ?
Si3 O4 1.676(6) . ?
Si3 C38 1.799(11) . ?
Si3 C39 1.804(12) . ?
Si3 C37 1.864(10) . ?
O1 C22 1.146(13) . ?
O2 C22 1.328(11) . ?
O2 C23 1.464(11) . ?
N1 C4 1.389(12) . ?
N1 C1 1.402(10) . ?
N2 C9 1.344(9) . ?
N2 C6 1.391(11) . ?
N3 C11 1.379(9) . ?
N3 C14 1.433(11) . ?
N4 C19 1.369(10) . ?
N4 C16 1.377(11) . ?
C1 C20 1.407(12) . ?
C1 C2 1.484(13) . ?
C2 C3 1.377(14) . ?
C2 H2 0.9500 . ?
C3 C4 1.386(11) . ?
C3 H3 0.9500 . ?
C4 C5 1.416(13) . ?
C5 C6 1.374(12) . ?
C5 C21 1.579(13) . ?
C6 C7 1.494(11) . ?
C7 C8 1.341(12) . ?
C7 H7 0.9500 . ?
C8 C9 1.480(12) . ?
C8 H8 0.9500 . ?
C9 C10 1.416(12) . ?
C10 C11 1.448(11) . ?
C10 C25 1.534(10) . ?
C11 C12 1.397(11) . ?
C12 C13 1.362(11) . ?
C12 H12 0.9500 . ?
C13 C14 1.441(11) . ?
C14 C15 1.427(11) . ?
C15 C16 1.388(11) . ?
C16 C17 1.485(11) . ?
C17 C18 1.345(12) . ?
C17 H17 0.9500 . ?
C18 C19 1.458(13) . ?
C18 H18 0.9500 . ?
C19 C20 1.408(13) . ?
C20 C29 1.513(11) . ?
C21 C22 1.481(14) . ?
C21 H21A 0.9900 . ?
C21 H21B 0.9900 . ?
C23 C24 1.529(14) . ?
C23 H23A 0.9900 . ?
C23 H23B 0.9900 . ?
C24 H24A 0.9800 . ?
C24 H24B 0.9800 . ?
C24 H24C 0.9800 . ?
C25 C26 1.470(13) . ?
C25 H25A 0.9900 . ?
C25 H25B 0.9900 . ?
C26 C27 1.528(12) . ?
C26 H26A 0.9900 . ?
C26 H26B 0.9900 . ?
C27 C28 1.465(14) . ?
C27 H27A 0.9900 . ?
C27 H27B 0.9900 . ?
C28 H28A 0.9800 . ?
C28 H28B 0.9800 . ?
C28 H28C 0.9800 . ?
C29 C30 1.490(13) . ?
C29 H29A 0.9900 . ?
C29 H29B 0.9900 . ?
C30 C31 1.522(12) . ?
C30 H30A 0.9900 . ?
C30 H30B 0.9900 . ?
C31 C32 1.524(13) . ?
C31 H31A 0.9900 . ?
C31 H31B 0.9900 . ?
C32 H32A 0.9800 . ?
C32 H32B 0.9800 . ?
C32 H32C 0.9800 . ?
C33 H33A 0.9800 . ?
C33 H33B 0.9800 . ?
C33 H33C 0.9800 . ?
C34 H34A 0.9800 . ?
C34 H34B 0.9800 . ?
C34 H34C 0.9800 . ?
C35 H35A 0.9800 . ?
C35 H35B 0.9800 . ?
C35 H35C 0.9800 . ?
C36 H36A 0.9800 . ?
C36 H36B 0.9800 . ?
C36 H36C 0.9800 . ?
C37 H37A 0.9800 . ?
C37 H37B 0.9800 . ?
C37 H37C 0.9800 . ?
C38 H38C 0.9800 . ?
C38 H38A 0.9800 . ?
C38 H38B 0.9800 . ?
C39 H39A 0.9800 . ?
C39 H39B 0.9800 . ?
C39 H39C 0.9800 . ?
loop_
_geom_torsion_atom_site_label_1
_geom_torsion_atom_site_label_2
_geom_torsion_atom_site_label_3
_geom_torsion_atom_site_label_4
_geom_torsion
_geom_torsion_site_symmetry_1
_geom_torsion_site_symmetry_2
_geom_torsion_site_symmetry_3
_geom_torsion_site_symmetry_4
_geom_torsion_publ_flag
C35 Si2 O3 Si1 37(2) . . . . ?
C36 Si2 O3 Si1 158(2) . . . . ?
C34 Si2 O3 Si1 -83(2) . . . . ?
O4 Si1 O3 Si2 -89(2) . . . . ?
C33 Si1 O3 Si2 30(2) . . . . ?
C13 Si1 O3 Si2 148(2) . . . . ?
O3 Si1 O4 Si3 61.4(10) . . . . ?
C33 Si1 O4 Si3 -55.9(10) . . . . ?
C13 Si1 O4 Si3 173.2(8) . . . . ?
C38 Si3 O4 Si1 33.6(10) . . . . ?
C39 Si3 O4 Si1 153.9(9) . . . . ?
C37 Si3 O4 Si1 -86.5(10) . . . . ?
C4 N1 C1 C20 177.8(10) . . . . ?
Zn1 N1 C1 C20 -4.4(14) . . . . ?
C4 N1 C1 C2 4.7(11) . . . . ?
Zn1 N1 C1 C2 -177.5(6) . . . . ?
N1 C1 C2 C3 -3.7(11) . . . . ?
C20 C1 C2 C3 -177.1(10) . . . . ?
C1 C2 C3 C4 1.3(11) . . . . ?
C2 C3 C4 N1 1.6(12) . . . . ?
C2 C3 C4 C5 177.6(10) . . . . ?
C1 N1 C4 C3 -4.1(12) . . . . ?
Zn1 N1 C4 C3 178.3(6) . . . . ?
C1 N1 C4 C5 -180.0(9) . . . . ?
Zn1 N1 C4 C5 2.4(16) . . . . ?
C3 C4 C5 C6 179.9(9) . . . . ?
N1 C4 C5 C6 -4.8(17) . . . . ?
C3 C4 C5 C21 4.8(15) . . . . ?
N1 C4 C5 C21 -179.9(10) . . . . ?
C4 C5 C6 N2 4.9(16) . . . . ?
C21 C5 C6 N2 -179.9(9) . . . . ?
C4 C5 C6 C7 -177.0(9) . . . . ?
C21 C5 C6 C7 -1.9(13) . . . . ?
C9 N2 C6 C5 176.4(9) . . . . ?
Zn1 N2 C6 C5 -2.6(15) . . . . ?
C9 N2 C6 C7 -1.8(10) . . . . ?
Zn1 N2 C6 C7 179.2(6) . . . . ?
C5 C6 C7 C8 -178.0(9) . . . . ?
N2 C6 C7 C8 0.3(11) . . . . ?
C6 C7 C8 C9 1.2(10) . . . . ?
C6 N2 C9 C10 175.1(8) . . . . ?
Zn1 N2 C9 C10 -5.9(13) . . . . ?
C6 N2 C9 C8 2.5(10) . . . . ?
Zn1 N2 C9 C8 -178.5(7) . . . . ?
C7 C8 C9 N2 -2.4(11) . . . . ?
C7 C8 C9 C10 -174.8(9) . . . . ?
N2 C9 C10 C11 6.2(15) . . . . ?
C8 C9 C10 C11 177.6(9) . . . . ?
N2 C9 C10 C25 -175.5(8) . . . . ?
C8 C9 C10 C25 -4.0(14) . . . . ?
C14 N3 C11 C12 -0.7(10) . . . . ?
Zn1 N3 C11 C12 175.5(6) . . . . ?
C14 N3 C11 C10 -179.1(8) . . . . ?
Zn1 N3 C11 C10 -2.9(13) . . . . ?
C9 C10 C11 N3 -1.5(15) . . . . ?
C25 C10 C11 N3 -179.8(8) . . . . ?
C9 C10 C11 C12 -179.6(9) . . . . ?
C25 C10 C11 C12 2.1(14) . . . . ?
N3 C11 C12 C13 0.3(11) . . . . ?
C10 C11 C12 C13 178.7(9) . . . . ?
C11 C12 C13 C14 0.2(11) . . . . ?
C11 C12 C13 Si1 -172.5(7) . . . . ?
O4 Si1 C13 C12 -121.3(8) . . . . ?
O3 Si1 C13 C12 -5.9(9) . . . . ?
C33 Si1 C13 C12 109.1(8) . . . . ?
O4 Si1 C13 C14 68.9(11) . . . . ?
O3 Si1 C13 C14 -175.7(10) . . . . ?
C33 Si1 C13 C14 -60.7(12) . . . . ?
C11 N3 C14 C15 -179.0(8) . . . . ?
Zn1 N3 C14 C15 5.0(14) . . . . ?
C11 N3 C14 C13 0.9(11) . . . . ?
Zn1 N3 C14 C13 -175.1(6) . . . . ?
C12 C13 C14 C15 179.1(10) . . . . ?
Si1 C13 C14 C15 -9.9(17) . . . . ?
C12 C13 C14 N3 -0.7(11) . . . . ?
Si1 C13 C14 N3 170.3(8) . . . . ?
N3 C14 C15 C16 -4.9(15) . . . . ?
C13 C14 C15 C16 175.3(10) . . . . ?
N3 C14 C15 Br1 171.9(7) . . . . ?
C13 C14 C15 Br1 -7.9(14) . . . . ?
C19 N4 C16 C15 -176.9(8) . . . . ?
Zn1 N4 C16 C15 3.5(14) . . . . ?
C19 N4 C16 C17 0.7(11) . . . . ?
Zn1 N4 C16 C17 -178.9(6) . . . . ?
C14 C15 C16 N4 0.6(15) . . . . ?
Br1 C15 C16 N4 -176.2(8) . . . . ?
C14 C15 C16 C17 -176.8(9) . . . . ?
Br1 C15 C16 C17 6.3(12) . . . . ?
N4 C16 C17 C18 -1.3(11) . . . . ?
C15 C16 C17 C18 176.4(9) . . . . ?
C16 C17 C18 C19 1.3(10) . . . . ?
C16 N4 C19 C20 -175.6(9) . . . . ?
Zn1 N4 C19 C20 4.0(13) . . . . ?
C16 N4 C19 C18 0.1(10) . . . . ?
Zn1 N4 C19 C18 179.8(6) . . . . ?
C17 C18 C19 N4 -1.0(11) . . . . ?
C17 C18 C19 C20 174.6(9) . . . . ?
N1 C1 C20 C19 6.8(17) . . . . ?
C2 C1 C20 C19 178.5(10) . . . . ?
N1 C1 C20 C29 -173.7(9) . . . . ?
C2 C1 C20 C29 -2.0(15) . . . . ?
N4 C19 C20 C1 -6.3(16) . . . . ?
C18 C19 C20 C1 178.7(9) . . . . ?
N4 C19 C20 C29 174.2(8) . . . . ?
C18 C19 C20 C29 -0.8(15) . . . . ?
C6 C5 C21 C22 -90.0(11) . . . . ?
C4 C5 C21 C22 85.3(12) . . . . ?
C23 O2 C22 O1 -4.0(15) . . . . ?
C23 O2 C22 C21 -179.7(8) . . . . ?
C5 C21 C22 O1 59.6(15) . . . . ?
C5 C21 C22 O2 -124.9(9) . . . . ?
C22 O2 C23 C24 179.3(9) . . . . ?
C9 C10 C25 C26 91.9(10) . . . . ?
C11 C10 C25 C26 -89.6(10) . . . . ?
C10 C25 C26 C27 178.6(8) . . . . ?
C25 C26 C27 C28 -173.5(9) . . . . ?
C1 C20 C29 C30 89.6(11) . . . . ?
C19 C20 C29 C30 -90.8(11) . . . . ?
C20 C29 C30 C31 -172.6(9) . . . . ?
C29 C30 C31 C32 66.0(13) . . . . ?
