#------------------------------------------------------------------------------
#$Date: 2016-03-26 22:36:24 +0200 (Sat, 26 Mar 2016) $
#$Revision: 180512 $
#$URL: svn://www.crystallography.net/cod/cif/7/21/81/7218168.cif $
#------------------------------------------------------------------------------
#
# This file is available in the Crystallography Open Database (COD),
# http://www.crystallography.net/
#
# All data on this site have been placed in the public domain by the
# contributors.
#
data_7218168
loop_
_publ_author_name
'Zubatyuk, Roman I.'
'Sinelshchikova, Anna A.'
'Enakieva, Yulia Y.'
'Gorbunova, Yulia G.'
'Tsivadze, Aslan Y.'
'Nefedov, Sergey E.'
'Bessmertnykh-Lemeune, Alla'
'Guilard, Roger'
'Shishkin, Oleg V.'
_publ_section_title
;
 Insights into the crystal packing of phosphorylporphyrins based on the
 topology of their intermolecular interaction energies
;
_journal_issue                   45
_journal_name_full               CrystEngComm
_journal_page_first              10428
_journal_paper_doi               10.1039/C4CE01623H
_journal_volume                  16
_journal_year                    2014
_chemical_formula_moiety         '2(C40 H38 N4 Ni O6 P2), C6 H14'
_chemical_formula_sum            'C86 H90 N8 Ni2 O12 P4'
_chemical_formula_weight         1668.95
_chemical_name_systematic
;
 ?
;
_space_group_crystal_system      triclinic
_space_group_IT_number           2
_space_group_name_Hall           '-P 1'
_space_group_name_H-M_alt        'P -1'
_symmetry_space_group_name_Hall  '-P 1'
_symmetry_space_group_name_H-M   'P -1'
_atom_sites_solution_hydrogens   geom
_audit_creation_date             2014-04-22
_audit_creation_method
;
Olex2 1.2
(compiled 2014.03.20 svn.r2914 for OlexSys, GUI svn.r4816)
;
_cell_angle_alpha                91.426(6)
_cell_angle_beta                 110.824(5)
_cell_angle_gamma                107.172(5)
_cell_formula_units_Z            1
_cell_length_a                   13.151(5)
_cell_length_b                   13.187(5)
_cell_length_c                   13.280(5)
_cell_measurement_reflns_used    4070
_cell_measurement_temperature    150(2)
_cell_measurement_theta_max      25.09
_cell_measurement_theta_min      2.28
_cell_volume                     2034.8(13)
_computing_molecular_graphics    'Olex2 (Dolomanov et al., 2009)'
_computing_publication_material  'Olex2 (Dolomanov et al., 2009)'
_computing_structure_refinement  'ShelXL (Sheldrick, 2008)'
_diffrn_ambient_temperature      150.15
_diffrn_measured_fraction_theta_full 0.984
_diffrn_measured_fraction_theta_max 0.982
_diffrn_measurement_device_type  'Bruker APEX-II CCD'
_diffrn_measurement_method       '\f and \w scans'
_diffrn_radiation_monochromator  graphite
_diffrn_radiation_type           MoK\a
_diffrn_radiation_wavelength     0.71073
_diffrn_reflns_av_unetI/netI     0.0845
_diffrn_reflns_Laue_measured_fraction_full 0.984
_diffrn_reflns_Laue_measured_fraction_max 0.982
_diffrn_reflns_limit_h_max       14
_diffrn_reflns_limit_h_min       -16
_diffrn_reflns_limit_k_max       16
_diffrn_reflns_limit_k_min       -16
_diffrn_reflns_limit_l_max       16
_diffrn_reflns_limit_l_min       -4
_diffrn_reflns_number            7866
_diffrn_reflns_point_group_measured_fraction_full 0.984
_diffrn_reflns_point_group_measured_fraction_max 0.982
_diffrn_reflns_theta_full        25.242
_diffrn_reflns_theta_max         26.017
_diffrn_reflns_theta_min         1.634
_diffrn_standards_number         0
_exptl_absorpt_coefficient_mu    0.608
_exptl_absorpt_correction_type   none
_exptl_crystal_density_diffrn    1.362
_exptl_crystal_F_000             874
_exptl_crystal_size_max          0.12
_exptl_crystal_size_mid          0.1
_exptl_crystal_size_min          0.08
_refine_diff_density_max         1.820
_refine_diff_density_min         -1.002
_refine_diff_density_rms         0.136
_refine_ls_extinction_method     none
_refine_ls_goodness_of_fit_ref   1.075
_refine_ls_hydrogen_treatment    constr
_refine_ls_matrix_type           full
_refine_ls_number_parameters     535
_refine_ls_number_reflns         7866
_refine_ls_number_restraints     24
_refine_ls_restrained_S_all      1.074
_refine_ls_R_factor_all          0.1268
_refine_ls_R_factor_gt           0.0806
_refine_ls_shift/su_max          0.001
_refine_ls_shift/su_mean         0.000
_refine_ls_structure_factor_coef Fsqd
_refine_ls_weighting_details
'w=1/[\s^2^(Fo^2^)+(0.1488P)^2^+0.0306P] where P=(Fo^2^+2Fc^2^)/3'
_refine_ls_weighting_scheme      calc
_refine_ls_wR_factor_gt          0.2270
_refine_ls_wR_factor_ref         0.2460
_reflns_Friedel_coverage         0.000
_reflns_number_gt                5094
_reflns_number_total             7866
_reflns_threshold_expression     'I > 2\s(I)'
_cod_data_source_file            c4ce01623h2.cif
_cod_data_source_block           ni
_cod_depositor_comments
'Adding full bibliography for 7218167--7218170.cif.'
_cod_database_code               7218168
#BEGIN Tags that were not found in dictionaries:
_shelxl_version_number           2013-4
_shelx_space_group_comment
;
The symmetry employed for this shelxl refinement is uniquely defined
by the following loop, which should always be used as a source of
symmetry information in preference to the above space-group names.
They are only intended as comments.
;
_shelx_estimated_absorpt_t_max   0.953
_shelx_estimated_absorpt_t_min   0.931
_olex2_refinement_description
;
1. Fixed Uiso
 At 1.2 times of:
  All C(H) groups, All C(H,H) groups
 At 1.5 times of:
  All C(H,H,H) groups
2. Rigid bond restraints
 C25A, C26A, C27A, C28A, C29A, C30A, C25B, C26B, C27B, C28B, C29B, C30B
 with sigma for 1-2 distances of 0.01 and sigma for 1-3 distances of 0.01
3. Uiso/Uaniso restraints and constraints
Uanis(C25A) = Uanis(C25B)
4. Others
 Sof(C25B)=Sof(C26B)=Sof(H26B)=Sof(C27B)=Sof(H27B)=Sof(C28B)=Sof(H28B)=
 Sof(C29B)=Sof(H29B)=Sof(C30B)=Sof(H30B)=1-FVAR(1)
 Sof(C25A)=Sof(C26A)=Sof(H26A)=Sof(C27A)=Sof(H27A)=Sof(C28A)=Sof(H28A)=
 Sof(C29A)=Sof(H29A)=Sof(C30A)=Sof(H30A)=FVAR(1)
5.a Secondary CH2 refined with riding coordinates:
 C21(H21A,H21B), C23(H23A,H23B), C31(H31A,H31B), C33(H33A,H33B), C42(H42A,
 H42B), C43(H43A,H43B)
5.b Me refined with riding coordinates:
 C41(H41A,H41B,H41C)
5.c Aromatic/amide H refined with riding coordinates:
 C3(H3), C8(H8), C9(H9), C13(H13), C14(H14), C18(H18), C19(H19), C26A(H26A),
 C27A(H27A), C28A(H28A), C29A(H29A), C30A(H30A), C26B(H26B), C27B(H27B),
 C28B(H28B), C29B(H29B), C30B(H30B), C36(H36), C37(H37), C38(H38), C39(H39),
 C40(H40), C17(H17)
5.d Fitted hexagon refined as free rotating group:
 C25A(C26A,C27A,C28A,C29A,C30A), C25B(C26B,C27B,C28B,C29B,C30B)
5.e Idealised Me refined as rotating group:
 C22(H22A,H22B,H22C), C24(H24A,H24B,H24C), C32(H32A,H32B,H32C), C34(H34A,H34B,
 H34C)
;
_shelx_res_file
;
TITL 2sep110_0m in P-1 #2
CELL 0.71073 13.1514 13.1871 13.2799 91.4261 110.8244 107.1721
ZERR 1 0.0049 0.005 0.005 0.0057 0.0051 0.0053
LATT 1

SFAC C H N O P Ni
UNIT 86 90 8 12 4 2
DELU C25A > C30B
EADP C25A C25B

L.S. 10
PLAN  20
SIZE 0.12 0.1 0.08
TEMP -123
REM Best SHELXD solution FINAL CC 61.32
MORE -1
BOND $H
CONF
fmap 2 53
acta
OMIT 8 0 7
OMIT -4 1 7
OMIT 2 9 5
OMIT -3 8 4
OMIT 3 -5 6
OMIT 6 -6 2
OMIT 9 0 5
OMIT 1 -12 3
OMIT -8 9 1
OMIT 1 -6 1
OMIT -7 5 0
OMIT -4 13 3
OMIT 1 -7 1
OMIT 0 0 1
OMIT 1 0 0
OMIT 0 1 10
OMIT -9 4 6
OMIT 4 6 2
OMIT 9 -4 5
OMIT -4 -3 10
OMIT 5 -5 2
OMIT 5 -8 3
OMIT -12 2 0
OMIT -13 2 2
OMIT -10 12 4
OMIT -9 -2 7
OMIT -6 0 11
OMIT 7 0 9
OMIT -7 -3 3
OMIT -2 9 3
OMIT -8 12 0
OMIT 2 10 3
OMIT -11 -5 2
OMIT -5 2 10
OMIT -8 8 1
OMIT -4 -6 11
OMIT -3 5 5
OMIT -2 -4 6
OMIT -1 5 1
OMIT -12 7 0
OMIT -3 1 5
OMIT -5 1 9
OMIT 11 -5 1
OMIT -12 5 1
OMIT -2 8 2
OMIT -5 -4 1
OMIT 3 9 3
OMIT 5 -6 4
OMIT -2 12 1
OMIT -1 1 12
OMIT -5 8 8
OMIT 2 -8 9
OMIT 1 9 7
OMIT -4 -13 2
OMIT -3 -6 9
OMIT 7 1 9
OMIT 4 -6 6
OMIT -3 4 0
OMIT -6 8 10
OMIT -7 11 0
OMIT 2 0 0
OMIT -1 1 0
OMIT -2 1 3
OMIT -1 0 3
OMIT 0 -7 3
OMIT -1 4 0
REM <HKL>D:/Work/XRAY/Nefedov/deposit/ni/ni.hkl</HKL>

WGHT    0.148800    0.030600
BASF   0.44324
FVAR      13.03496   0.54844
NI1   6    0.009016    0.738121    0.232715    11.00000    0.01842    0.02436 =
         0.02713   -0.00437   -0.00016   -0.00100
P1    5    0.378203    0.691126    0.502354    11.00000    0.02532    0.02868 =
         0.04150    0.00041   -0.00048    0.00650
P2    5   -0.388941    0.780301    0.146228    11.00000    0.02177    0.05850 =
         0.04583    0.00492    0.00357    0.00731
O1    4    0.458232    0.792077    0.570435    11.00000    0.03112    0.03157 =
         0.05240   -0.00415   -0.01260    0.00621
O2    4    0.324627    0.603276    0.563260    11.00000    0.03918    0.04089 =
         0.04665    0.00492    0.00945    0.01158
O3    4    0.432590    0.621899    0.452869    11.00000    0.03092    0.03365 =
         0.05448    0.00719    0.01323    0.01241
O4    4   -0.481244    0.681719    0.136994    11.00000    0.02361    0.07065 =
         0.05663    0.01369    0.00600    0.00113
O5    4   -0.419639    0.842707    0.046304    11.00000    0.02669    0.05757 =
         0.06222    0.00774    0.00588    0.00943
O6    4   -0.354283    0.865548    0.245091    11.00000    0.02785    0.07223 =
         0.06798   -0.00481    0.01368    0.01681
N1    3    0.065321    0.619842    0.256057    11.00000    0.02311    0.02330 =
         0.02642   -0.00741    0.00262   -0.00324
N2    3   -0.144541    0.642753    0.160152    11.00000    0.02606    0.03252 =
         0.02753    0.00276    0.00383   -0.00141
N3    3   -0.047127    0.855696    0.206141    11.00000    0.01627    0.02811 =
         0.02720   -0.00505   -0.00230   -0.00068
N4    3    0.162867    0.834235    0.302111    11.00000    0.01768    0.02319 =
         0.02637   -0.00487    0.00015    0.00147
C1    1    0.257648    0.709289    0.394289    11.00000    0.02291    0.02486 =
         0.03327   -0.00070    0.00399    0.00387
C2    1    0.166997    0.617798    0.332133    11.00000    0.01869    0.02734 =
         0.03921   -0.00174    0.00273    0.00375
C3    1    0.173100    0.510923    0.326806    11.00000    0.02635    0.02353 =
         0.06365   -0.00845    0.00791    0.00533
AFIX  43
H3    2    0.233279    0.487769    0.372972    11.00000   -1.20000
AFIX   0
C4    1    0.204725    0.940119    0.286262    11.00000    0.02342    0.02915 =
         0.02035   -0.00670    0.00432   -0.00128
C5    1    0.008627    0.515501    0.201028    11.00000    0.03004    0.02423 =
         0.03606   -0.00690    0.00840   -0.00006
C6    1   -0.103886    0.478908    0.124919    11.00000    0.02597    0.03492 =
         0.02562   -0.00873    0.00862   -0.01106
C7    1   -0.176626    0.538296    0.110082    11.00000    0.02982    0.03592 =
         0.02457   -0.00074   -0.00145   -0.00410
C8    1   -0.299630    0.496964    0.056776    11.00000    0.03146    0.03360 =
         0.05805    0.00225   -0.01170   -0.00652
AFIX  43
H8    2   -0.343330    0.428904    0.013342    11.00000   -1.20000
AFIX   0
C9    1    0.077975    0.450020    0.244498    11.00000    0.03117    0.03010 =
         0.06301   -0.01060    0.01295    0.00662
AFIX  43
H9    2    0.060029    0.376325    0.219609    11.00000   -1.20000
AFIX   0
C10   1   -0.246179    0.664221    0.142752    11.00000    0.02314    0.03781 =
         0.03663   -0.00085   -0.00322   -0.00124
C11   1   -0.251471    0.765293    0.164751    11.00000    0.01731    0.04693 =
         0.03137    0.00215   -0.00145    0.00428
C12   1   -0.157341    0.856640    0.186370    11.00000    0.02276    0.03835 =
         0.02933   -0.00316    0.00076    0.00710
C13   1   -0.159941    0.963751    0.175851    11.00000    0.02309    0.04163 =
         0.04907   -0.00140    0.00040    0.00861
AFIX  43
H13   2   -0.224381    0.986870    0.165650    11.00000   -1.20000
AFIX   0
C14   1   -0.054933    1.026315    0.182933    11.00000    0.02786    0.03424 =
         0.04329    0.00141    0.00098    0.00877
AFIX  43
H14   2   -0.032914    1.099948    0.174369    11.00000   -1.20000
AFIX   0
C15   1    0.016039    0.959906    0.205769    11.00000    0.02398    0.02370 =
         0.02962   -0.00116    0.00442    0.00158
C16   1    0.135093    0.999626    0.234335    11.00000    0.02209    0.02950 =
         0.02241   -0.00318    0.00423    0.00272
C18   1    0.327118    0.981280    0.340774    11.00000    0.01998    0.02785 =
         0.03644   -0.00378    0.00277    0.00141
AFIX  43
H18   2    0.376489    1.049801    0.339222    11.00000   -1.20000
AFIX   0
C19   1    0.358407    0.903136    0.394913    11.00000    0.02203    0.02872 =
         0.03428   -0.00422    0.00048    0.00553
AFIX  43
H19   2    0.434211    0.908205    0.441692    11.00000   -1.20000
AFIX   0
C20   1    0.257867    0.811565    0.369704    11.00000    0.01997    0.03043 =
         0.03068   -0.00458    0.00175    0.00499
C21   1    0.265200    0.628003    0.628894    11.00000    0.07656    0.06785 =
         0.07829   -0.00157    0.04585    0.01072
AFIX  23
H21A  2    0.320439    0.655672    0.704729    11.00000   -1.20000
H21B  2    0.231772    0.684363    0.599997    11.00000   -1.20000
AFIX   0
C22   1    0.177041    0.535256    0.627525    11.00000    0.16679    0.16244 =
         0.14942   -0.00965    0.11972   -0.01567
AFIX 137
H22A  2    0.142632    0.491540    0.555613    11.00000   -1.50000
H22B  2    0.117900    0.556154    0.642990    11.00000   -1.50000
H22C  2    0.209299    0.493596    0.683020    11.00000   -1.50000
AFIX   0
C23   1    0.494051    0.664993    0.385130    11.00000    0.05691    0.06016 =
         0.06390    0.02084    0.02659    0.02919
AFIX  23
H23A  2    0.540401    0.741182    0.413748    11.00000   -1.20000
H23B  2    0.439043    0.661153    0.310200    11.00000   -1.20000
AFIX   0
C24   1    0.571301    0.601486    0.383798    11.00000    0.08198    0.10328 =
         0.10062    0.05424    0.06114    0.05904
AFIX 137
H24A  2    0.619222    0.634884    0.343733    11.00000   -1.50000
H24B  2    0.524473    0.527996    0.348090    11.00000   -1.50000
H24C  2    0.620699    0.600072    0.458698    11.00000   -1.50000
AFIX  66
PART 1
C25A  1   -0.139889    0.359318    0.074763    21.00000    0.02019    0.02111 =
         0.02944   -0.00293   -0.00145   -0.00025
C26A  1   -0.084446    0.329177    0.013369    21.00000    0.05188    0.02426 =
         0.03530    0.00287    0.01899    0.00003
AFIX  43
H26A  2   -0.020738    0.380629    0.005579    21.00000   -1.20000
AFIX  65
C27A  1   -0.122217    0.223753   -0.036627    21.00000    0.06269    0.04040 =
         0.03354   -0.01120    0.01687    0.00885
AFIX  43
H27A  2   -0.084323    0.203153   -0.078588    21.00000   -1.20000
AFIX  65
C28A  1   -0.215431    0.148471   -0.025230    21.00000    0.04095    0.02548 =
         0.05319   -0.01683    0.00055    0.00065
AFIX  43
H28A  2   -0.241246    0.076419   -0.059400    21.00000   -1.20000
AFIX  65
C29A  1   -0.270875    0.178611    0.036164    21.00000    0.03756    0.01718 =
         0.07091   -0.00065    0.01023    0.00175
AFIX  43
H29A  2   -0.334583    0.127158    0.043954    21.00000   -1.20000
AFIX  65
C30A  1   -0.233106    0.284034    0.086161    21.00000    0.02461    0.02784 =
         0.04713   -0.00662    0.00968    0.00140
AFIX  43
H30A  2   -0.270999    0.304634    0.128121    21.00000   -1.20000
AFIX  66
PART 0
PART 2
C25B  1   -0.163460    0.375376    0.061559   -21.00000    0.02019    0.02111 =
         0.02944   -0.00293   -0.00145   -0.00025
C26B  1   -0.195584    0.359421   -0.050779   -21.00000    0.05944    0.04706 =
         0.04987   -0.01630    0.02724   -0.01245
AFIX  43
H26B  2   -0.182421    0.419188   -0.088478   -21.00000   -1.20000
AFIX  65
C27B  1   -0.246969    0.256019   -0.107956   -21.00000    0.06905    0.06033 =
         0.09465   -0.04797    0.04658   -0.01613
AFIX  43
H27B  2   -0.268924    0.245115   -0.184734   -21.00000   -1.20000
AFIX  65
C28B  1   -0.266229    0.168570   -0.052797   -21.00000    0.03759    0.03754 =
         0.14305   -0.02740    0.01250    0.01409
AFIX  43
H28B  2   -0.301348    0.097899   -0.091876   -21.00000   -1.20000
AFIX  65
C29B  1   -0.234105    0.184523    0.059541   -21.00000    0.05080    0.02676 =
         0.13525    0.00803   -0.01510   -0.00316
AFIX  43
H29B  2   -0.247268    0.124756    0.097240   -21.00000   -1.20000
AFIX  65
C30B  1   -0.182720    0.287925    0.116720   -21.00000    0.05077    0.03588 =
         0.07219    0.01615    0.00390    0.01225
AFIX  43
H30B  2   -0.160765    0.298828    0.193498   -21.00000   -1.20000
AFIX   0
PART 0
C31   1   -0.457107    0.782496   -0.063554    11.00000    0.06308    0.07101 =
         0.04124    0.00454   -0.00667    0.01251
AFIX  23
H31A  2   -0.402128    0.744999   -0.063812    11.00000   -1.20000
H31B  2   -0.533781    0.727938   -0.082457    11.00000   -1.20000
AFIX   0
C32   1   -0.462449    0.854225   -0.141645    11.00000    0.08973    0.10517 =
         0.06493    0.02577    0.02557    0.02246
AFIX 137
H32A  2   -0.484062    0.814513   -0.213519    11.00000   -1.50000
H32B  2   -0.387016    0.909402   -0.121443    11.00000   -1.50000
H32C  2   -0.519963    0.888324   -0.143935    11.00000   -1.50000
AFIX   0
C33   1   -0.430463    0.920346    0.255768    11.00000    0.05529    0.05519 =
         0.09056    0.01313    0.03077    0.02430
AFIX  23
H33A  2   -0.494369    0.870363    0.270852    11.00000   -1.20000
H33B  2   -0.463470    0.948487    0.187500    11.00000   -1.20000
AFIX   0
C34   1   -0.362709    1.009601    0.346903    11.00000    0.08448    0.11635 =
         0.06960   -0.00714    0.02480    0.05267
AFIX 137
H34A  2   -0.302119    1.060417    0.329526    11.00000   -1.50000
H34B  2   -0.327726    0.981163    0.413337    11.00000   -1.50000
H34C  2   -0.413384    1.046369    0.358238    11.00000   -1.50000
AFIX   0
C35   1    0.186146    1.111467    0.217239    11.00000    0.02143    0.03000 =
         0.03274    0.00309    0.00484    0.00800
C36   1    0.151045    1.139133    0.113246    11.00000    0.03509    0.03498 =
         0.03627    0.00270    0.00311    0.00465
AFIX  43
H36   2    0.098206    1.085402    0.053587    11.00000   -1.20000
AFIX   0
C37   1    0.191580    1.243641    0.094729    11.00000    0.05441    0.04333 =
         0.04147    0.00945    0.01177    0.01740
AFIX  43
H37   2    0.166453    1.260967    0.022904    11.00000   -1.20000
AFIX   0
C38   1    0.268732    1.322883    0.180893    11.00000    0.05514    0.03053 =
         0.06037    0.00892    0.01621    0.00796
AFIX  43
H38   2    0.296397    1.394747    0.168714    11.00000   -1.20000
AFIX   0
C39   1    0.305223    1.295971    0.285487    11.00000    0.03776    0.02585 =
         0.04970   -0.00349    0.00149    0.00530
AFIX  43
H39   2    0.359308    1.349367    0.344948    11.00000   -1.20000
AFIX   0
C40   1    0.263262    1.192518    0.302895    11.00000    0.02786    0.03189 =
         0.03162   -0.00370   -0.00211    0.00570
AFIX  43
H40   2    0.287298    1.175693    0.374986    11.00000   -1.20000
AFIX   0
C17   1   -0.341297    0.571369    0.079291    11.00000    0.02458    0.04454 =
         0.07584    0.00479   -0.00591   -0.00170
AFIX  43
H17   2   -0.420438    0.564339    0.057194    11.00000   -1.20000
AFIX   0

C41   1   -0.024850    0.748598    0.537290    11.00000    0.46432    0.07939 =
         0.39107    0.01475    0.18497    0.06367
AFIX  33
H41A  2   -0.085556    0.685031    0.539132    11.00000   -1.50000
H41B  2    0.039078    0.768780    0.608405    11.00000   -1.50000
H41C  2    0.002706    0.732529    0.481203    11.00000   -1.50000
AFIX   0
C42   1   -0.074510    0.844525    0.510069    11.00000    0.15573    0.29145 =
         0.10698    0.00754    0.05397   -0.05408
AFIX  23
H42A  2   -0.139451    0.823255    0.438468    11.00000   -1.20000
H42B  2   -0.104889    0.858380    0.565488    11.00000   -1.20000
AFIX   0
C43   1    0.011891    0.944302    0.507217    11.00000    0.12927    0.31991 =
         0.05980    0.01208    0.01492    0.02095
AFIX  23
H43A  2    0.035972    0.928582    0.447552    11.00000   -1.20000
H43B  2    0.079777    0.957153    0.575798    11.00000   -1.20000
AFIX   0
HKLF 5

REM  2sep110_0m in P-1 #2
REM R1 =  0.0806 for    5094 Fo > 4sig(Fo)  and  0.1268 for all    7866 data
REM    535 parameters refined using     24 restraints

END

WGHT      0.1484      0.0612

REM Highest difference peak  1.820,  deepest hole -1.002,  1-sigma level  0.136
Q1    1  -0.1724  0.7038  0.1402  11.00000  0.05    1.82
Q2    1   0.1839  0.7641  0.3192  11.00000  0.05    1.66
Q3    1  -0.0107  0.7949  0.2190  11.00000  0.05    1.31
Q4    1   0.0377  0.7607  0.1823  11.00000  0.05    0.75
Q5    1  -0.3769  0.9175  0.2000  11.00000  0.05    0.74
Q6    1   0.3853  0.6822  0.4168  11.00000  0.05    0.74
Q7    1  -0.4052  0.8400  0.1155  11.00000  0.05    0.73
Q8    1  -0.0453  0.7379  0.6158  11.00000  0.05    0.72
Q9    1  -0.5648  0.7558  0.0461  11.00000  0.05    0.71
Q10   1  -0.3374  0.6732  0.0547  11.00000  0.05    0.70
Q11   1   0.2216  0.6727  0.3269  11.00000  0.05    0.65
Q12   1   0.1535  0.8945  0.3013  11.00000  0.05    0.64
Q13   1  -0.0847  0.7544  0.4873  11.00000  0.05    0.64
Q14   1   0.0545  0.6626  0.2551  11.00000  0.05    0.62
Q15   1   0.5462  0.7205  0.5878  11.00000  0.05    0.62
Q16   1  -0.0024  0.7358  0.3094  11.00000  0.05    0.61
Q17   1  -0.2148  0.8048  0.2230  11.00000  0.05    0.59
Q18   1   0.4130  0.7035  0.3489  11.00000  0.05    0.57
Q19   1   0.1962  0.6629  0.4195  11.00000  0.05    0.53
Q20   1   0.0186  0.8781  0.2774  11.00000  0.05    0.52
;
_shelx_res_checksum              20071
#END Tags that were not found in dictionaries
loop_
_space_group_symop_operation_xyz
'x, y, z'
'-x, -y, -z'
loop_
_atom_site_label
_atom_site_type_symbol
_atom_site_fract_x
_atom_site_fract_y
_atom_site_fract_z
_atom_site_U_iso_or_equiv
_atom_site_adp_type
_atom_site_occupancy
_atom_site_site_symmetry_order
_atom_site_calc_flag
_atom_site_refinement_flags_posn
_atom_site_refinement_flags_adp
_atom_site_refinement_flags_occupancy
_atom_site_disorder_assembly
_atom_site_disorder_group
Ni1 Ni 0.00902(5) 0.73812(5) 0.23272(5) 0.0279(2) Uani 1 1 d . . . . .
P1 P 0.37820(12) 0.69113(12) 0.50235(12) 0.0363(4) Uani 1 1 d . . . . .
P2 P -0.38894(13) 0.78030(15) 0.14623(14) 0.0461(4) Uani 1 1 d . . . . .
O1 O 0.4582(3) 0.7921(3) 0.5704(3) 0.0478(11) Uani 1 1 d . . . . .
O2 O 0.3246(3) 0.6033(3) 0.5633(3) 0.0446(10) Uani 1 1 d . . . . .
O3 O 0.4326(3) 0.6219(3) 0.4529(3) 0.0401(10) Uani 1 1 d . . . . .
O4 O -0.4812(3) 0.6817(4) 0.1370(4) 0.0562(13) Uani 1 1 d . . . . .
O5 O -0.4196(3) 0.8427(4) 0.0463(4) 0.0530(12) Uani 1 1 d . . . . .
O6 O -0.3543(4) 0.8655(4) 0.2451(4) 0.0575(13) Uani 1 1 d . . . . .
N1 N 0.0653(4) 0.6198(3) 0.2561(3) 0.0290(10) Uani 1 1 d . . . . .
N2 N -0.1445(4) 0.6428(4) 0.1602(4) 0.0332(11) Uani 1 1 d . . . . .
N3 N -0.0471(3) 0.8557(3) 0.2061(3) 0.0290(10) Uani 1 1 d . . . . .
N4 N 0.1629(3) 0.8342(3) 0.3021(3) 0.0262(9) Uani 1 1 d . . . . .
C1 C 0.2576(4) 0.7093(4) 0.3943(4) 0.0300(12) Uani 1 1 d . . . . .
C2 C 0.1670(4) 0.6178(4) 0.3321(4) 0.0318(12) Uani 1 1 d . . . . .
C3 C 0.1731(5) 0.5109(4) 0.3268(5) 0.0414(15) Uani 1 1 d . . . . .
H3 H 0.2333 0.4878 0.3730 0.050 Uiso 1 1 calc R . . . .
C4 C 0.2047(4) 0.9401(4) 0.2863(4) 0.0280(11) Uani 1 1 d . . . . .
C5 C 0.0086(5) 0.5155(4) 0.2010(4) 0.0336(13) Uani 1 1 d . . . . .
C6 C -0.1039(5) 0.4789(4) 0.1249(4) 0.0344(13) Uani 1 1 d . . . . .
C7 C -0.1766(5) 0.5383(5) 0.1101(4) 0.0371(14) Uani 1 1 d . . . . .
C8 C -0.2996(5) 0.4970(5) 0.0568(5) 0.0535(19) Uani 1 1 d . . . . .
H8 H -0.3433 0.4289 0.0133 0.064 Uiso 1 1 calc R . . . .
C9 C 0.0780(5) 0.4500(5) 0.2445(5) 0.0440(15) Uani 1 1 d . . . . .
H9 H 0.0600 0.3763 0.2196 0.053 Uiso 1 1 calc R . . . .
C10 C -0.2462(5) 0.6642(5) 0.1428(5) 0.0395(14) Uani 1 1 d . . . . .
C11 C -0.2515(4) 0.7653(5) 0.1648(4) 0.0365(13) Uani 1 1 d . . . . .
C12 C -0.1573(4) 0.8566(4) 0.1864(4) 0.0336(13) Uani 1 1 d . . . . .
C13 C -0.1599(5) 0.9638(5) 0.1759(5) 0.0424(15) Uani 1 1 d . . . . .
H13 H -0.2244 0.9869 0.1657 0.051 Uiso 1 1 calc R . . . .
C14 C -0.0549(5) 1.0263(5) 0.1829(5) 0.0392(14) Uani 1 1 d . . . . .
H14 H -0.0329 1.0999 0.1744 0.047 Uiso 1 1 calc R . . . .
C15 C 0.0160(4) 0.9599(4) 0.2058(4) 0.0290(12) Uani 1 1 d . . . . .
C16 C 0.1351(4) 0.9996(4) 0.2343(4) 0.0274(11) Uani 1 1 d . . . . .
C18 C 0.3271(4) 0.9813(4) 0.3408(4) 0.0321(12) Uani 1 1 d . . . . .
H18 H 0.3765 1.0498 0.3392 0.038 Uiso 1 1 calc R . . . .
C19 C 0.3584(4) 0.9031(4) 0.3949(4) 0.0321(12) Uani 1 1 d . . . . .
H19 H 0.4342 0.9082 0.4417 0.039 Uiso 1 1 calc R . . . .
C20 C 0.2579(4) 0.8116(4) 0.3697(4) 0.0302(12) Uani 1 1 d . . . . .
C21 C 0.2652(7) 0.6280(7) 0.6289(7) 0.073(2) Uani 1 1 d . . . . .
H21A H 0.3204 0.6557 0.7047 0.087 Uiso 1 1 calc R . . . .
H21B H 0.2318 0.6844 0.6000 0.087 Uiso 1 1 calc R . . . .
C22 C 0.1770(12) 0.5353(11) 0.6275(11) 0.159(6) Uani 1 1 d . . . . .
H22A H 0.1426 0.4915 0.5556 0.239 Uiso 1 1 calc GR . . . .
H22B H 0.1179 0.5562 0.6430 0.239 Uiso 1 1 calc GR . . . .
H22C H 0.2093 0.4936 0.6830 0.239 Uiso 1 1 calc GR . . . .
C23 C 0.4941(6) 0.6650(6) 0.3851(6) 0.0567(18) Uani 1 1 d . . . . .
H23A H 0.5404 0.7412 0.4137 0.068 Uiso 1 1 calc R . . . .
H23B H 0.4390 0.6612 0.3102 0.068 Uiso 1 1 calc R . . . .
C24 C 0.5713(7) 0.6015(8) 0.3838(8) 0.080(3) Uani 1 1 d . . . . .
H24A H 0.6192 0.6349 0.3437 0.120 Uiso 1 1 calc GR . . . .
H24B H 0.5245 0.5280 0.3481 0.120 Uiso 1 1 calc GR . . . .
H24C H 0.6207 0.6001 0.4587 0.120 Uiso 1 1 calc GR . . . .
C25A C -0.1399(6) 0.3593(5) 0.0748(6) 0.029(2) Uani 0.548(7) 1 d . U P A 1
C26A C -0.0844(6) 0.3292(5) 0.0134(6) 0.039(3) Uani 0.548(7) 1 d G U P A 1
H26A H -0.0207 0.3806 0.0056 0.047 Uiso 0.548(7) 1 calc R . P A 1
C27A C -0.1222(7) 0.2238(6) -0.0366(6) 0.048(3) Uani 0.548(7) 1 d G U P A 1
H27A H -0.0843 0.2032 -0.0786 0.058 Uiso 0.548(7) 1 calc R . P A 1
C28A C -0.2154(7) 0.1485(4) -0.0252(7) 0.048(3) Uani 0.548(7) 1 d G U P A 1
H28A H -0.2412 0.0764 -0.0594 0.057 Uiso 0.548(7) 1 calc R . P A 1
C29A C -0.2709(6) 0.1786(6) 0.0362(8) 0.047(3) Uani 0.548(7) 1 d G U P A 1
H29A H -0.3346 0.1272 0.0440 0.056 Uiso 0.548(7) 1 calc R . P A 1
C30A C -0.2331(6) 0.2840(7) 0.0862(7) 0.036(3) Uani 0.548(7) 1 d G U P A 1
H30A H -0.2710 0.3046 0.1281 0.043 Uiso 0.548(7) 1 calc R . P A 1
C25B C -0.1635(9) 0.3754(8) 0.0616(8) 0.029(2) Uani 0.452(7) 1 d . U P A 2
C26B C -0.1956(10) 0.3594(7) -0.0508(8) 0.058(4) Uani 0.452(7) 1 d G U P A 2
H26B H -0.1824 0.4192 -0.0885 0.069 Uiso 0.452(7) 1 calc R . P A 2
C27B C -0.2470(10) 0.2560(9) -0.1080(8) 0.080(6) Uani 0.452(7) 1 d G U P A 2
H27B H -0.2689 0.2451 -0.1847 0.096 Uiso 0.452(7) 1 calc R . P A 2
C28B C -0.2662(10) 0.1686(7) -0.0528(12) 0.079(6) Uani 0.452(7) 1 d G U P A 2
H28B H -0.3013 0.0979 -0.0919 0.095 Uiso 0.452(7) 1 calc R . P A 2
C29B C -0.2341(11) 0.1845(9) 0.0595(12) 0.089(8) Uani 0.452(7) 1 d G U P A 2
H29B H -0.2473 0.1248 0.0972 0.107 Uiso 0.452(7) 1 calc R . P A 2
C30B C -0.1827(11) 0.2879(11) 0.1167(8) 0.059(5) Uani 0.452(7) 1 d G U P A 2
H30B H -0.1608 0.2988 0.1935 0.071 Uiso 0.452(7) 1 calc R . P A 2
C31 C -0.4571(7) 0.7825(6) -0.0636(6) 0.068(2) Uani 1 1 d . . . . .
H31A H -0.4021 0.7450 -0.0638 0.082 Uiso 1 1 calc R . . . .
H31B H -0.5338 0.7279 -0.0825 0.082 Uiso 1 1 calc R . . . .
C32 C -0.4624(8) 0.8542(8) -0.1416(7) 0.090(3) Uani 1 1 d . . . . .
H32A H -0.4841 0.8145 -0.2135 0.134 Uiso 1 1 calc GR . . . .
H32B H -0.3870 0.9094 -0.1214 0.134 Uiso 1 1 calc GR . . . .
H32C H -0.5200 0.8883 -0.1439 0.134 Uiso 1 1 calc GR . . . .
C33 C -0.4305(6) 0.9203(6) 0.2558(7) 0.065(2) Uani 1 1 d . . . . .
H33A H -0.4944 0.8704 0.2709 0.078 Uiso 1 1 calc R . . . .
H33B H -0.4635 0.9485 0.1875 0.078 Uiso 1 1 calc R . . . .
C34 C -0.3627(8) 1.0096(8) 0.3469(7) 0.087(3) Uani 1 1 d . . . . .
H34A H -0.3021 1.0604 0.3295 0.131 Uiso 1 1 calc GR . . . .
H34B H -0.3277 0.9812 0.4133 0.131 Uiso 1 1 calc GR . . . .
H34C H -0.4134 1.0464 0.3582 0.131 Uiso 1 1 calc GR . . . .
C35 C 0.1861(4) 1.1115(4) 0.2172(4) 0.0298(12) Uani 1 1 d . . . . .
C36 C 0.1510(5) 1.1391(5) 0.1132(5) 0.0401(14) Uani 1 1 d . . . . .
H36 H 0.0982 1.0854 0.0536 0.048 Uiso 1 1 calc R . . . .
C37 C 0.1916(6) 1.2436(5) 0.0947(5) 0.0479(16) Uani 1 1 d . . . . .
H37 H 0.1665 1.2610 0.0229 0.057 Uiso 1 1 calc R . . . .
C38 C 0.2687(6) 1.3229(5) 0.1809(6) 0.0517(17) Uani 1 1 d . . . . .
H38 H 0.2964 1.3947 0.1687 0.062 Uiso 1 1 calc R . . . .
C39 C 0.3052(5) 1.2960(5) 0.2855(5) 0.0435(15) Uani 1 1 d . . . . .
H39 H 0.3593 1.3494 0.3449 0.052 Uiso 1 1 calc R . . . .
C40 C 0.2633(5) 1.1925(4) 0.3029(5) 0.0354(13) Uani 1 1 d . . . . .
H40 H 0.2873 1.1757 0.3750 0.043 Uiso 1 1 calc R . . . .
C17 C -0.3413(5) 0.5714(5) 0.0793(6) 0.059(2) Uani 1 1 d . . . . .
H17 H -0.4204 0.5643 0.0572 0.070 Uiso 1 1 calc R . . . .
C41 C -0.025(2) 0.7486(13) 0.537(3) 0.311(18) Uani 1 1 d . . . . .
H41A H -0.0856 0.6850 0.5391 0.467 Uiso 1 1 calc R . . . .
H41B H 0.0391 0.7688 0.6084 0.467 Uiso 1 1 calc R . . . .
H41C H 0.0027 0.7325 0.4812 0.467 Uiso 1 1 calc R . . . .
C42 C -0.0745(15) 0.8445(19) 0.5101(13) 0.214(12) Uani 1 1 d . . . . .
H42A H -0.1395 0.8233 0.4385 0.257 Uiso 1 1 calc R . . . .
H42B H -0.1049 0.8584 0.5655 0.257 Uiso 1 1 calc R . . . .
C43 C 0.0119(17) 0.9443(15) 0.5072(13) 0.188(11) Uani 1 1 d . . . . .
H43A H 0.0360 0.9286 0.4476 0.226 Uiso 1 1 calc R . . . .
H43B H 0.0798 0.9572 0.5758 0.226 Uiso 1 1 calc R . . . .
loop_
_atom_site_aniso_label
_atom_site_aniso_U_11
_atom_site_aniso_U_22
_atom_site_aniso_U_33
_atom_site_aniso_U_23
_atom_site_aniso_U_13
_atom_site_aniso_U_12
Ni1 0.0184(4) 0.0244(4) 0.0271(4) -0.0044(3) -0.0002(3) -0.0010(3)
P1 0.0253(8) 0.0287(8) 0.0415(9) 0.0004(6) -0.0005(6) 0.0065(6)
P2 0.0218(8) 0.0585(11) 0.0458(10) 0.0049(8) 0.0036(7) 0.0073(7)
O1 0.031(2) 0.032(2) 0.052(3) -0.0041(19) -0.0126(19) 0.0062(17)
O2 0.039(2) 0.041(2) 0.047(2) 0.0049(19) 0.009(2) 0.0116(19)
O3 0.031(2) 0.034(2) 0.054(3) 0.0072(19) 0.0132(19) 0.0124(17)
O4 0.024(2) 0.071(3) 0.057(3) 0.014(2) 0.006(2) 0.001(2)
O5 0.027(2) 0.058(3) 0.062(3) 0.008(2) 0.006(2) 0.009(2)
O6 0.028(2) 0.072(3) 0.068(3) -0.005(3) 0.014(2) 0.017(2)
N1 0.023(2) 0.023(2) 0.026(2) -0.0074(18) 0.0026(18) -0.0032(17)
N2 0.026(2) 0.033(2) 0.028(2) 0.0028(19) 0.0038(19) -0.0014(19)
N3 0.016(2) 0.028(2) 0.027(2) -0.0051(18) -0.0023(18) -0.0007(17)
N4 0.018(2) 0.023(2) 0.026(2) -0.0049(17) 0.0001(17) 0.0015(17)
C1 0.023(3) 0.025(3) 0.033(3) -0.001(2) 0.004(2) 0.004(2)
C2 0.019(3) 0.027(3) 0.039(3) -0.002(2) 0.003(2) 0.004(2)
C3 0.026(3) 0.024(3) 0.064(4) -0.008(3) 0.008(3) 0.005(2)
C4 0.023(3) 0.029(3) 0.020(2) -0.007(2) 0.004(2) -0.001(2)
C5 0.030(3) 0.024(3) 0.036(3) -0.007(2) 0.008(2) 0.000(2)
C6 0.026(3) 0.035(3) 0.026(3) -0.009(2) 0.009(2) -0.011(2)
C7 0.030(3) 0.036(3) 0.025(3) -0.001(2) -0.001(2) -0.004(2)
C8 0.031(3) 0.034(3) 0.058(4) 0.002(3) -0.012(3) -0.007(3)
C9 0.031(3) 0.030(3) 0.063(4) -0.011(3) 0.013(3) 0.007(3)
C10 0.023(3) 0.038(3) 0.037(3) -0.001(3) -0.003(2) -0.001(2)
C11 0.017(3) 0.047(3) 0.031(3) 0.002(3) -0.001(2) 0.004(2)
C12 0.023(3) 0.038(3) 0.029(3) -0.003(2) 0.001(2) 0.007(2)
C13 0.023(3) 0.042(3) 0.049(4) -0.001(3) 0.000(3) 0.009(3)
C14 0.028(3) 0.034(3) 0.043(3) 0.001(3) 0.001(3) 0.009(2)
C15 0.024(3) 0.024(3) 0.030(3) -0.001(2) 0.004(2) 0.002(2)
C16 0.022(3) 0.030(3) 0.022(2) -0.003(2) 0.004(2) 0.003(2)
C18 0.020(3) 0.028(3) 0.036(3) -0.004(2) 0.003(2) 0.001(2)
C19 0.022(3) 0.029(3) 0.034(3) -0.004(2) 0.000(2) 0.006(2)
C20 0.020(3) 0.030(3) 0.031(3) -0.005(2) 0.002(2) 0.005(2)
C21 0.077(6) 0.068(5) 0.078(6) -0.002(4) 0.046(5) 0.011(4)
C22 0.167(13) 0.162(13) 0.149(12) -0.010(10) 0.120(11) -0.016(10)
C23 0.057(5) 0.060(5) 0.064(5) 0.021(4) 0.027(4) 0.029(4)
C24 0.082(6) 0.103(7) 0.101(7) 0.054(6) 0.061(5) 0.059(5)
C25A 0.020(4) 0.021(3) 0.029(3) -0.003(3) -0.001(3) 0.000(3)
C26A 0.052(7) 0.024(5) 0.035(6) 0.003(4) 0.019(5) 0.000(4)
C27A 0.063(8) 0.040(6) 0.034(6) -0.011(5) 0.017(5) 0.009(5)
C28A 0.041(8) 0.025(6) 0.053(8) -0.017(5) 0.001(6) 0.001(5)
C29A 0.038(8) 0.017(5) 0.071(10) -0.001(6) 0.010(6) 0.002(5)
C30A 0.025(7) 0.028(5) 0.047(7) -0.007(5) 0.010(6) 0.001(5)
C25B 0.020(4) 0.021(3) 0.029(3) -0.003(3) -0.001(3) 0.000(3)
C26B 0.059(10) 0.047(7) 0.050(7) -0.016(6) 0.027(8) -0.012(7)
C27B 0.069(12) 0.060(9) 0.095(11) -0.048(7) 0.047(10) -0.016(9)
C28B 0.038(10) 0.038(7) 0.143(14) -0.027(8) 0.013(11) 0.014(8)
C29B 0.051(12) 0.027(7) 0.135(13) 0.008(9) -0.015(13) -0.003(8)
C30B 0.051(13) 0.036(8) 0.072(9) 0.016(6) 0.004(10) 0.012(9)
C31 0.063(5) 0.071(5) 0.041(4) 0.005(4) -0.007(4) 0.013(4)
C32 0.090(7) 0.105(8) 0.065(6) 0.026(5) 0.026(5) 0.022(6)
C33 0.055(5) 0.055(5) 0.091(6) 0.013(4) 0.031(4) 0.024(4)
C34 0.084(6) 0.116(8) 0.070(6) -0.007(5) 0.025(5) 0.053(6)
C35 0.021(3) 0.030(3) 0.033(3) 0.003(2) 0.005(2) 0.008(2)
C36 0.035(3) 0.035(3) 0.036(3) 0.003(3) 0.003(3) 0.005(3)
C37 0.054(4) 0.043(4) 0.041(3) 0.009(3) 0.012(3) 0.017(3)
C38 0.055(4) 0.031(3) 0.060(4) 0.009(3) 0.016(3) 0.008(3)
C39 0.038(3) 0.026(3) 0.050(4) -0.003(3) 0.001(3) 0.005(2)
C40 0.028(3) 0.032(3) 0.032(3) -0.004(2) -0.002(2) 0.006(2)
C17 0.025(3) 0.045(4) 0.076(5) 0.005(4) -0.006(3) -0.002(3)
C41 0.46(4) 0.079(12) 0.39(4) 0.015(17) 0.18(3) 0.06(2)
C42 0.156(17) 0.29(3) 0.107(11) 0.008(14) 0.054(11) -0.054(18)
C43 0.129(14) 0.32(4) 0.060(7) 0.012(15) 0.015(8) 0.021(19)
loop_
_atom_type_symbol
_atom_type_description
_atom_type_scat_dispersion_real
_atom_type_scat_dispersion_imag
_atom_type_scat_source
C C 0.0033 0.0016 'International Tables Vol C Tables 4.2.6.8 and 6.1.1.4'
H H 0.0000 0.0000 'International Tables Vol C Tables 4.2.6.8 and 6.1.1.4'
N N 0.0061 0.0033 'International Tables Vol C Tables 4.2.6.8 and 6.1.1.4'
O O 0.0106 0.0060 'International Tables Vol C Tables 4.2.6.8 and 6.1.1.4'
P P 0.1023 0.0942 'International Tables Vol C Tables 4.2.6.8 and 6.1.1.4'
Ni Ni 0.3393 1.1124 'International Tables Vol C Tables 4.2.6.8 and 6.1.1.4'
loop_
_geom_angle_atom_site_label_1
_geom_angle_atom_site_label_2
_geom_angle_atom_site_label_3
_geom_angle
_geom_angle_site_symmetry_1
_geom_angle_site_symmetry_3
N1 Ni1 N2 90.62(19) . .
N1 Ni1 N4 89.65(17) . .
N2 Ni1 N4 178.66(19) . .
N3 Ni1 N1 178.67(19) . .
N3 Ni1 N2 89.19(19) . .
N3 Ni1 N4 90.52(17) . .
O1 P1 O2 115.7(3) . .
O1 P1 O3 115.7(3) . .
O1 P1 C1 112.5(2) . .
O2 P1 O3 96.9(2) . .
O2 P1 C1 105.6(2) . .
O3 P1 C1 109.0(2) . .
O4 P2 O5 113.3(3) . .
O4 P2 O6 115.3(3) . .
O4 P2 C11 115.9(3) . .
O5 P2 C11 106.5(3) . .
O6 P2 O5 103.4(3) . .
O6 P2 C11 101.0(2) . .
C21 O2 P1 120.1(5) . .
C23 O3 P1 120.8(4) . .
C31 O5 P2 117.3(4) . .
C33 O6 P2 122.4(5) . .
C2 N1 Ni1 127.7(3) . .
C2 N1 C5 105.6(4) . .
C5 N1 Ni1 126.6(4) . .
C7 N2 Ni1 126.3(4) . .
C10 N2 Ni1 127.5(4) . .
C10 N2 C7 106.1(4) . .
C12 N3 Ni1 127.9(4) . .
C15 N3 Ni1 126.4(3) . .
C15 N3 C12 105.7(4) . .
C4 N4 Ni1 126.8(3) . .
C20 N4 Ni1 127.8(4) . .
C20 N4 C4 105.1(4) . .
C2 C1 P1 118.2(4) . .
C20 C1 P1 120.7(4) . .
C20 C1 C2 121.0(5) . .
N1 C2 C1 124.3(5) . .
N1 C2 C3 110.0(4) . .
C1 C2 C3 125.2(5) . .
C2 C3 H3 126.4 . .
C9 C3 C2 107.1(5) . .
C9 C3 H3 126.4 . .
N4 C4 C18 110.5(5) . .
C16 C4 N4 123.9(5) . .
C16 C4 C18 125.3(5) . .
N1 C5 C9 109.5(5) . .
C6 C5 N1 124.7(5) . .
C6 C5 C9 125.4(5) . .
C5 C6 C25A 111.9(5) . .
C5 C6 C25B 127.0(7) . .
C7 C6 C5 122.0(5) . .
C7 C6 C25A 125.4(5) . .
C7 C6 C25B 110.7(6) . .
N2 C7 C8 109.2(5) . .
C6 C7 N2 124.7(5) . .
C6 C7 C8 125.3(5) . .
C7 C8 H8 126.2 . .
C17 C8 C7 107.5(5) . .
C17 C8 H8 126.2 . .
C3 C9 C5 107.8(5) . .
C3 C9 H9 126.1 . .
C5 C9 H9 126.1 . .
N2 C10 C17 108.6(6) . .
C11 C10 N2 124.0(5) . .
C11 C10 C17 126.3(6) . .
C10 C11 P2 119.2(4) . .
C12 C11 P2 118.7(5) . .
C12 C11 C10 121.5(5) . .
N3 C12 C11 124.1(5) . .
N3 C12 C13 108.9(5) . .
C11 C12 C13 126.3(5) . .
C12 C13 H13 125.9 . .
C14 C13 C12 108.3(5) . .
C14 C13 H13 125.9 . .
C13 C14 H14 126.8 . .
C13 C14 C15 106.3(5) . .
C15 C14 H14 126.8 . .
N3 C15 C14 110.6(5) . .
N3 C15 C16 125.9(5) . .
C16 C15 C14 123.2(5) . .
C4 C16 C15 120.9(5) . .
C4 C16 C35 120.9(4) . .
C15 C16 C35 118.0(5) . .
C4 C18 H18 126.9 . .
C19 C18 C4 106.2(5) . .
C19 C18 H18 126.9 . .
C18 C19 H19 125.9 . .
C18 C19 C20 108.2(5) . .
C20 C19 H19 125.9 . .
N4 C20 C1 124.2(5) . .
N4 C20 C19 109.9(5) . .
C1 C20 C19 125.1(5) . .
O2 C21 H21A 109.6 . .
O2 C21 H21B 109.6 . .
H21A C21 H21B 108.2 . .
C22 C21 O2 110.1(8) . .
C22 C21 H21A 109.6 . .
C22 C21 H21B 109.6 . .
C21 C22 H22A 109.5 . .
C21 C22 H22B 109.5 . .
C21 C22 H22C 109.5 . .
H22A C22 H22B 109.5 . .
H22A C22 H22C 109.5 . .
H22B C22 H22C 109.5 . .
O3 C23 H23A 109.9 . .
O3 C23 H23B 109.9 . .
O3 C23 C24 109.1(6) . .
H23A C23 H23B 108.3 . .
C24 C23 H23A 109.9 . .
C24 C23 H23B 109.9 . .
C23 C24 H24A 109.5 . .
C23 C24 H24B 109.5 . .
C23 C24 H24C 109.5 . .
H24A C24 H24B 109.5 . .
H24A C24 H24C 109.5 . .
H24B C24 H24C 109.5 . .
C26A C25A C6 120.6(5) . .
C26A C25A C30A 120.0 . .
C30A C25A C6 119.2(5) . .
C25A C26A H26A 120.0 . .
C25A C26A C27A 120.0 . .
C27A C26A H26A 120.0 . .
C26A C27A H27A 120.0 . .
C26A C27A C28A 120.0 . .
C28A C27A H27A 120.0 . .
C27A C28A H28A 120.0 . .
C29A C28A C27A 120.0 . .
C29A C28A H28A 120.0 . .
C28A C29A H29A 120.0 . .
C28A C29A C30A 120.0 . .
C30A C29A H29A 120.0 . .
C25A C30A H30A 120.0 . .
C29A C30A C25A 120.0 . .
C29A C30A H30A 120.0 . .
C26B C25B C6 122.3(8) . .
C26B C25B C30B 120.0 . .
C30B C25B C6 117.6(8) . .
C25B C26B H26B 120.0 . .
C27B C26B C25B 120.0 . .
C27B C26B H26B 120.0 . .
C26B C27B H27B 120.0 . .
C28B C27B C26B 120.0 . .
C28B C27B H27B 120.0 . .
C27B C28B H28B 120.0 . .
C27B C28B C29B 120.0 . .
C29B C28B H28B 120.0 . .
C28B C29B H29B 120.0 . .
C30B C29B C28B 120.0 . .
C30B C29B H29B 120.0 . .
C25B C30B H30B 120.0 . .
C29B C30B C25B 120.0 . .
C29B C30B H30B 120.0 . .
O5 C31 H31A 109.7 . .
O5 C31 H31B 109.7 . .
H31A C31 H31B 108.2 . .
C32 C31 O5 109.8(7) . .
C32 C31 H31A 109.7 . .
C32 C31 H31B 109.7 . .
C31 C32 H32A 109.5 . .
C31 C32 H32B 109.5 . .
C31 C32 H32C 109.5 . .
H32A C32 H32B 109.5 . .
H32A C32 H32C 109.5 . .
H32B C32 H32C 109.5 . .
O6 C33 H33A 110.2 . .
O6 C33 H33B 110.2 . .
O6 C33 C34 107.7(6) . .
H33A C33 H33B 108.5 . .
C34 C33 H33A 110.2 . .
C34 C33 H33B 110.2 . .
C33 C34 H34A 109.5 . .
C33 C34 H34B 109.5 . .
C33 C34 H34C 109.5 . .
H34A C34 H34B 109.5 . .
H34A C34 H34C 109.5 . .
H34B C34 H34C 109.5 . .
C36 C35 C16 119.4(5) . .
C36 C35 C40 117.8(5) . .
C40 C35 C16 122.6(5) . .
C35 C36 H36 119.4 . .
C37 C36 C35 121.3(5) . .
C37 C36 H36 119.4 . .
C36 C37 H37 120.0 . .
C38 C37 C36 120.0(6) . .
C38 C37 H37 120.0 . .
C37 C38 H38 120.4 . .
C37 C38 C39 119.2(6) . .
C39 C38 H38 120.4 . .
C38 C39 H39 119.9 . .
C40 C39 C38 120.1(5) . .
C40 C39 H39 119.9 . .
C35 C40 H40 119.2 . .
C39 C40 C35 121.5(5) . .
C39 C40 H40 119.2 . .
C8 C17 C10 108.4(6) . .
C8 C17 H17 125.8 . .
C10 C17 H17 125.8 . .
H41A C41 H41B 109.5 . .
H41A C41 H41C 109.5 . .
H41B C41 H41C 109.5 . .
C42 C41 H41A 109.5 . .
C42 C41 H41B 109.5 . .
C42 C41 H41C 109.5 . .
C41 C42 H42A 109.0 . .
C41 C42 H42B 109.0 . .
H42A C42 H42B 107.8 . .
C43 C42 C41 113.1(19) . .
C43 C42 H42A 109.0 . .
C43 C42 H42B 109.0 . .
C42 C43 C43 123(2) . 2_576
C42 C43 H43A 106.5 . .
C42 C43 H43B 106.5 . .
C43 C43 H43A 106.5 2_576 .
C43 C43 H43B 106.5 2_576 .
H43A C43 H43B 106.5 . .
loop_
_geom_bond_atom_site_label_1
_geom_bond_atom_site_label_2
_geom_bond_distance
_geom_bond_site_symmetry_2
Ni1 N1 1.903(4) .
Ni1 N2 1.909(4) .
Ni1 N3 1.895(4) .
Ni1 N4 1.911(4) .
P1 O1 1.461(4) .
P1 O2 1.569(5) .
P1 O3 1.571(4) .
P1 C1 1.804(5) .
P2 O4 1.460(5) .
P2 O5 1.572(5) .
P2 O6 1.547(5) .
P2 C11 1.807(6) .
O2 C21 1.448(9) .
O3 C23 1.434(8) .
O5 C31 1.484(9) .
O6 C33 1.439(8) .
N1 C2 1.368(7) .
N1 C5 1.393(6) .
N2 C7 1.389(7) .
N2 C10 1.388(8) .
N3 C12 1.382(7) .
N3 C15 1.381(6) .
N4 C4 1.393(7) .
N4 C20 1.376(7) .
C1 C2 1.400(7) .
C1 C20 1.395(8) .
C2 C3 1.437(7) .
C3 H3 0.9500 .
C3 C9 1.340(8) .
C4 C16 1.390(8) .
C4 C18 1.430(7) .
C5 C6 1.391(7) .
C5 C9 1.423(8) .
C6 C7 1.372(9) .
C6 C25A 1.561(8) .
C6 C25B 1.424(9) .
C7 C8 1.436(8) .
C8 H8 0.9500 .
C8 C17 1.331(10) .
C9 H9 0.9500 .
C10 C11 1.384(9) .
C10 C17 1.438(8) .
C11 C12 1.384(8) .
C12 C13 1.432(8) .
C13 H13 0.9500 .
C13 C14 1.352(8) .
C14 H14 0.9500 .
C14 C15 1.423(8) .
C15 C16 1.398(7) .
C16 C35 1.489(7) .
C18 H18 0.9500 .
C18 C19 1.351(8) .
C19 H19 0.9500 .
C19 C20 1.429(7) .
C21 H21A 0.9900 .
C21 H21B 0.9900 .
C21 C22 1.410(13) .
C22 H22A 0.9800 .
C22 H22B 0.9800 .
C22 H22C 0.9800 .
C23 H23A 0.9900 .
C23 H23B 0.9900 .
C23 C24 1.499(10) .
C24 H24A 0.9800 .
C24 H24B 0.9800 .
C24 H24C 0.9800 .
C25A C26A 1.3900 .
C25A C30A 1.3900 .
C26A H26A 0.9500 .
C26A C27A 1.3900 .
C27A H27A 0.9500 .
C27A C28A 1.3900 .
C28A H28A 0.9500 .
C28A C29A 1.3900 .
C29A H29A 0.9500 .
C29A C30A 1.3900 .
C30A H30A 0.9500 .
C25B C26B 1.3900 .
C25B C30B 1.3900 .
C26B H26B 0.9500 .
C26B C27B 1.3900 .
C27B H27B 0.9500 .
C27B C28B 1.3900 .
C28B H28B 0.9500 .
C28B C29B 1.3900 .
C29B H29B 0.9500 .
C29B C30B 1.3900 .
C30B H30B 0.9500 .
C31 H31A 0.9900 .
C31 H31B 0.9900 .
C31 C32 1.418(11) .
C32 H32A 0.9800 .
C32 H32B 0.9800 .
C32 H32C 0.9800 .
C33 H33A 0.9900 .
C33 H33B 0.9900 .
C33 C34 1.479(11) .
C34 H34A 0.9800 .
C34 H34B 0.9800 .
C34 H34C 0.9800 .
C35 C36 1.387(8) .
C35 C40 1.394(7) .
C36 H36 0.9500 .
C36 C37 1.386(8) .
C37 H37 0.9500 .
C37 C38 1.386(8) .
C38 H38 0.9500 .
C38 C39 1.392(9) .
C39 H39 0.9500 .
C39 C40 1.371(8) .
C40 H40 0.9500 .
C17 H17 0.9500 .
C41 H41A 0.9800 .
C41 H41B 0.9800 .
C41 H41C 0.9800 .
C41 C42 1.58(3) .
C42 H42A 0.9900 .
C42 H42B 0.9900 .
C42 C43 1.47(2) .
C43 C43 1.59(4) 2_576
C43 H43A 0.9900 .
C43 H43B 0.9900 .
loop_
_geom_torsion_atom_site_label_1
_geom_torsion_atom_site_label_2
_geom_torsion_atom_site_label_3
_geom_torsion_atom_site_label_4
_geom_torsion
_geom_torsion_site_symmetry_4
Ni1 N1 C2 C1 -12.1(8) .
Ni1 N1 C2 C3 176.4(4) .
Ni1 N1 C5 C6 -5.5(8) .
Ni1 N1 C5 C9 -178.2(4) .
Ni1 N2 C7 C6 15.0(8) .
Ni1 N2 C7 C8 -174.9(4) .
Ni1 N2 C10 C11 8.4(9) .
Ni1 N2 C10 C17 176.7(4) .
Ni1 N3 C12 C11 -11.3(8) .
Ni1 N3 C12 C13 177.3(4) .
Ni1 N3 C15 C14 -179.9(4) .
Ni1 N3 C15 C16 -6.0(8) .
Ni1 N4 C4 C16 14.3(7) .
Ni1 N4 C4 C18 -171.9(3) .
Ni1 N4 C20 C1 3.8(8) .
Ni1 N4 C20 C19 173.9(4) .
P1 O2 C21 C22 149.0(9) .
P1 O3 C23 C24 159.2(5) .
P1 C1 C2 N1 172.5(4) .
P1 C1 C2 C3 -17.3(8) .
P1 C1 C20 N4 -168.5(4) .
P1 C1 C20 C19 22.8(8) .
P2 O5 C31 C32 -170.2(6) .
P2 O6 C33 C34 -169.1(6) .
P2 C11 C12 N3 177.4(4) .
P2 C11 C12 C13 -12.7(8) .
O1 P1 O2 C21 54.7(6) .
O1 P1 O3 C23 -58.0(5) .
O1 P1 C1 C2 -171.7(5) .
O1 P1 C1 C20 11.8(6) .
O2 P1 O3 C23 179.2(5) .
O2 P1 C1 C2 -44.6(5) .
O2 P1 C1 C20 138.9(5) .
O3 P1 O2 C21 177.5(5) .
O3 P1 C1 C2 58.6(5) .
O3 P1 C1 C20 -118.0(5) .
O4 P2 O5 C31 -54.5(6) .
O4 P2 O6 C33 -66.5(6) .
O4 P2 C11 C10 15.8(6) .
O4 P2 C11 C12 -172.8(4) .
O5 P2 O6 C33 57.7(6) .
O5 P2 C11 C10 -111.2(5) .
O5 P2 C11 C12 60.2(5) .
O6 P2 O5 C31 180.0(5) .
O6 P2 C11 C10 141.1(5) .
O6 P2 C11 C12 -47.5(5) .
N1 C2 C3 C9 2.8(7) .
N1 C5 C6 C7 -11.2(9) .
N1 C5 C6 C25A 177.6(6) .
N1 C5 C6 C25B 175.8(7) .
N1 C5 C9 C3 2.2(7) .
N2 Ni1 N3 C12 23.0(5) .
N2 Ni1 N3 C15 -159.0(4) .
N2 C7 C8 C17 -3.6(8) .
N2 C10 C11 P2 -176.1(4) .
N2 C10 C11 C12 12.7(9) .
N2 C10 C17 C8 -1.3(8) .
N3 C12 C13 C14 3.3(7) .
N3 C15 C16 C4 -12.3(8) .
N3 C15 C16 C35 173.5(5) .
N4 Ni1 N3 C12 -158.3(5) .
N4 Ni1 N3 C15 19.7(4) .
N4 C4 C16 C15 7.9(8) .
N4 C4 C16 C35 -178.0(5) .
N4 C4 C18 C19 -3.7(6) .
C1 P1 O2 C21 -70.5(6) .
C1 P1 O3 C23 70.0(5) .
C1 C2 C3 C9 -168.6(6) .
C2 N1 C5 C6 172.4(5) .
C2 N1 C5 C9 -0.4(6) .
C2 C1 C20 N4 15.0(9) .
C2 C1 C20 C19 -153.6(6) .
C2 C3 C9 C5 -3.0(7) .
C4 N4 C20 C1 -170.6(5) .
C4 N4 C20 C19 -0.4(6) .
C4 C16 C35 C36 126.2(6) .
C4 C16 C35 C40 -58.0(7) .
C4 C18 C19 C20 3.3(6) .
C5 N1 C2 C1 170.0(6) .
C5 N1 C2 C3 -1.4(6) .
C5 C6 C7 N2 6.2(9) .
C5 C6 C7 C8 -162.2(6) .
C5 C6 C25A C26A -63.6(7) .
C5 C6 C25A C30A 120.5(6) .
C5 C6 C25B C26B -112.6(9) .
C5 C6 C25B C30B 63.4(10) .
C6 C5 C9 C3 -170.5(6) .
C6 C7 C8 C17 166.3(6) .
C6 C25A C26A C27A -175.9(7) .
C6 C25A C30A C29A 175.9(7) .
C6 C25B C26B C27B 175.8(10) .
C6 C25B C30B C29B -176.0(10) .
C7 N2 C10 C11 -169.3(6) .
C7 N2 C10 C17 -1.0(7) .
C7 C6 C25A C26A 125.6(6) .
C7 C6 C25A C30A -50.3(8) .
C7 C6 C25B C26B 73.7(9) .
C7 C6 C25B C30B -110.3(8) .
C7 C8 C17 C10 2.9(8) .
C9 C5 C6 C7 160.5(6) .
C9 C5 C6 C25A -10.7(8) .
C9 C5 C6 C25B -12.5(11) .
C10 N2 C7 C6 -167.3(6) .
C10 N2 C7 C8 2.8(6) .
C10 C11 C12 N3 -11.3(9) .
C10 C11 C12 C13 158.5(6) .
C11 P2 O5 C31 74.0(5) .
C11 P2 O6 C33 167.8(6) .
C11 C10 C17 C8 166.7(7) .
C11 C12 C13 C14 -167.8(6) .
C12 N3 C15 C14 -1.5(6) .
C12 N3 C15 C16 172.4(5) .
C12 C13 C14 C15 -4.1(7) .
C13 C14 C15 N3 3.6(7) .
C13 C14 C15 C16 -170.5(5) .
C14 C15 C16 C4 160.8(5) .
C14 C15 C16 C35 -13.4(8) .
C15 N3 C12 C11 170.3(5) .
C15 N3 C12 C13 -1.0(6) .
C15 C16 C35 C36 -59.6(7) .
C15 C16 C35 C40 116.2(6) .
C16 C4 C18 C19 169.9(5) .
C16 C35 C36 C37 176.4(6) .
C16 C35 C40 C39 -177.1(5) .
C18 C4 C16 C15 -164.9(5) .
C18 C4 C16 C35 9.1(8) .
C18 C19 C20 N4 -1.9(6) .
C18 C19 C20 C1 168.2(5) .
C20 N4 C4 C16 -171.2(5) .
C20 N4 C4 C18 2.5(6) .
C20 C1 C2 N1 -10.9(9) .
C20 C1 C2 C3 159.3(6) .
C25A C6 C7 N2 176.2(6) .
C25A C6 C7 C8 7.8(10) .
C25A C6 C25B C26B -119(3) .
C25A C6 C25B C30B 57(2) .
C25A C26A C27A C28A 0.0 .
C26A C25A C30A C29A 0.0 .
C26A C27A C28A C29A 0.0 .
C27A C28A C29A C30A 0.0 .
C28A C29A C30A C25A 0.0 .
C30A C25A C26A C27A 0.0 .
C25B C6 C7 N2 -179.7(7) .
C25B C6 C7 C8 11.8(9) .
C25B C6 C25A C26A 111(3) .
C25B C6 C25A C30A -65(3) .
C25B C26B C27B C28B 0.0 .
C26B C25B C30B C29B 0.0 .
C26B C27B C28B C29B 0.0 .
C27B C28B C29B C30B 0.0 .
C28B C29B C30B C25B 0.0 .
C30B C25B C26B C27B 0.0 .
C35 C36 C37 C38 0.0(10) .
C36 C35 C40 C39 -1.2(9) .
C36 C37 C38 C39 0.4(10) .
C37 C38 C39 C40 -1.3(10) .
C38 C39 C40 C35 1.7(10) .
C40 C35 C36 C37 0.3(9) .
C17 C10 C11 P2 17.7(9) .
C17 C10 C11 C12 -153.5(7) .
C41 C42 C43 C43 -174(2) 2_576
