#------------------------------------------------------------------------------
#$Date: 2019-11-07 21:55:33 +0200 (Thu, 07 Nov 2019) $
#$Revision: 223651 $
#$URL: file:///home/coder/svn-repositories/cod/cif/7/23/21/7232118.cif $
#------------------------------------------------------------------------------
#
# This file is available in the Crystallography Open Database (COD),
# http://www.crystallography.net/
#
# All data on this site have been placed in the public domain by the
# contributors.
#
data_7232118
loop_
_publ_author_name
'Rani, Jyoti'
'Kaur, Gurkiran'
'Sushila, Sushila'
'Diksha, Diksha'
'Yadav, Rashmi'
'Kataria, Ramesh'
'Venugopalan, Paloth'
'Natarajan, Palani'
'Chaudhary, Arvind'
'Patra, Ranjan'
_publ_section_title
;
 Wheel-and-axle topology-driven halogen bonds: formation of ladder, 1D and
 2D networks in hexa-coordinated Sn(iv) porphyrins
;
_journal_issue                   7
_journal_name_full               CrystEngComm
_journal_page_first              1150
_journal_paper_doi               10.1039/C8CE01877D
_journal_volume                  21
_journal_year                    2019
_chemical_formula_sum            'C66 H52 I4 N6 O10 Sn'
_chemical_formula_weight         1715.42
_chemical_name_common            3-Nitrobenzoate-tin-tetraiodoporphrin
_space_group_crystal_system      triclinic
_space_group_IT_number           2
_space_group_name_Hall           '-P 1'
_space_group_name_H-M_alt        'P -1'
_symmetry_space_group_name_Hall  '-P 1'
_symmetry_space_group_name_H-M   'P -1'
_atom_sites_solution_hydrogens   geom
_audit_creation_method           SHELXL-2018/3
_audit_update_record
;
2018-10-31 deposited with the CCDC.
2019-01-02 downloaded from the CCDC.
;
_cell_angle_alpha                103.991(2)
_cell_angle_beta                 95.327(2)
_cell_angle_gamma                111.000(2)
_cell_formula_units_Z            1
_cell_length_a                   11.2861(4)
_cell_length_b                   11.7958(3)
_cell_length_c                   13.3288(3)
_cell_measurement_reflns_used    13774
_cell_measurement_temperature    293(2)
_cell_measurement_theta_max      27.1310
_cell_measurement_theta_min      3.4130
_cell_volume                     1575.58(8)
_computing_cell_refinement       'CrysAlisPro 1.171.39.33c (Rigaku OD, 2017)'
_computing_data_collection       'CrysAlisPro 1.171.39.33c (Rigaku OD, 2017)'
_computing_data_reduction        'CrysAlisPro 1.171.39.33c (Rigaku OD, 2017)'
_computing_molecular_graphics    SHELX
_computing_structure_refinement  'SHELXL-2018/3 (Sheldrick, 2018)'
_computing_structure_solution    'SHELXT 2014/5 (Sheldrick, 2014)'
_diffrn_ambient_temperature      293(2)
_diffrn_measured_fraction_theta_full 0.997
_diffrn_measured_fraction_theta_max 0.997
_diffrn_measurement_device_type
'SuperNova, Single source at offset/far, HyPix3000'
_diffrn_measurement_method       '\w scans'
_diffrn_radiation_type           MoK\a
_diffrn_radiation_wavelength     0.71073
_diffrn_reflns_av_R_equivalents  0.0341
_diffrn_reflns_av_unetI/netI     0.0362
_diffrn_reflns_Laue_measured_fraction_full 0.997
_diffrn_reflns_Laue_measured_fraction_max 0.997
_diffrn_reflns_limit_h_max       13
_diffrn_reflns_limit_h_min       -13
_diffrn_reflns_limit_k_max       14
_diffrn_reflns_limit_k_min       -14
_diffrn_reflns_limit_l_max       14
_diffrn_reflns_limit_l_min       -16
_diffrn_reflns_number            20620
_diffrn_reflns_point_group_measured_fraction_full 0.997
_diffrn_reflns_point_group_measured_fraction_max 0.997
_diffrn_reflns_theta_full        25.242
_diffrn_reflns_theta_max         25.998
_diffrn_reflns_theta_min         3.214
_diffrn_source                   'micro-focus sealed X-ray tube'
_exptl_absorpt_coefficient_mu    2.429
_exptl_absorpt_correction_T_max  1.00000
_exptl_absorpt_correction_T_min  0.63477
_exptl_absorpt_correction_type   multi-scan
_exptl_absorpt_process_details
;
CrysAlisPro 1.171.39.46 (Rigaku Oxford Diffraction, 2018)
Empirical absorption correction using spherical harmonics,
 implemented in SCALE3 ABSPACK scaling algorithm.
;
_exptl_crystal_colour            purple
_exptl_crystal_density_diffrn    1.808
_exptl_crystal_description       Block
_exptl_crystal_F_000             832
_exptl_crystal_size_max          0.240
_exptl_crystal_size_mid          0.220
_exptl_crystal_size_min          0.180
_refine_diff_density_max         1.260
_refine_diff_density_min         -1.221
_refine_diff_density_rms         0.088
_refine_ls_extinction_method     none
_refine_ls_goodness_of_fit_ref   1.093
_refine_ls_hydrogen_treatment    constr
_refine_ls_matrix_type           full
_refine_ls_number_parameters     394
_refine_ls_number_reflns         6193
_refine_ls_number_restraints     0
_refine_ls_restrained_S_all      1.093
_refine_ls_R_factor_all          0.0461
_refine_ls_R_factor_gt           0.0363
_refine_ls_shift/su_max          0.001
_refine_ls_shift/su_mean         0.000
_refine_ls_structure_factor_coef Fsqd
_refine_ls_weighting_details
'w=1/[\s^2^(Fo^2^)+(0.0326P)^2^+1.1224P] where P=(Fo^2^+2Fc^2^)/3'
_refine_ls_weighting_scheme      calc
_refine_ls_wR_factor_gt          0.0797
_refine_ls_wR_factor_ref         0.0839
_reflns_Friedel_coverage         0.000
_reflns_number_gt                5125
_reflns_number_total             6193
_reflns_threshold_expression     'I > 2\s(I)'
_cod_data_source_file            c8ce01877d2.cif
_cod_data_source_block           shelx_CCDC2
_cod_depositor_comments
'Adding full bibliography for 7232116--7232123.cif.'
_cod_original_cell_volume        1575.57(8)
_cod_database_code               7232118
_shelx_shelxl_version_number     2018/3
_shelx_space_group_comment
;
The symmetry employed for this shelxl refinement is uniquely defined
by the following loop, which should always be used as a source of
symmetry information in preference to the above space-group names.
They are only intended as comments.
;
_shelx_estimated_absorpt_t_min   0.593
_shelx_estimated_absorpt_t_max   0.669
_shelx_res_file
;
TITL rkm-z9a_a.res in P-1
    shelx.res
    created by SHELXL-2018/3 at 21:13:35 on 23-Oct-2018
CELL  0.71073  11.2861  11.7958  13.3288  103.991   95.327  111.000
ZERR     1.00   0.0004   0.0003   0.0003    0.002    0.002    0.002
LATT   1
SFAC  C    H    I    N    O    SN
UNIT  66 52 4 6 10 1
OMIT     0.00  52.00
FMAP   2
PLAN   10
BOND   $H
CONF
LIST   6
L.S.   20
ACTA
SIZE 0.24 0.22 0.18
WGHT    0.032600    1.122400
FVAR       0.59656
SN1   6    1.000000    1.000000    0.500000    10.50000    0.02792    0.02589 =
         0.02744    0.01159    0.01000    0.00753
I1    3    0.609850    0.732397    1.073670    11.00000    0.08188    0.07558 =
         0.05313    0.03895    0.03962    0.03039
I2    3    0.719058    0.111467    0.062292    11.00000    0.08298    0.03485 =
         0.06160    0.00099    0.01826    0.01211
N1    4    0.992745    1.094860    0.651785    11.00000    0.03425    0.02764 =
         0.02852    0.01164    0.01129    0.00839
N2    4    0.923311    0.823800    0.530349    11.00000    0.03495    0.02831 =
         0.02639    0.01094    0.00901    0.00993
N3    4    0.344562    0.745955    0.488279    11.00000    0.05315    0.05389 =
         0.08516    0.02289    0.02477    0.01333
O1    5    0.806492    0.969871    0.460218    11.00000    0.03180    0.05383 =
         0.04198    0.02229    0.00871    0.01616
O2    5    0.803108    1.044633    0.323311    11.00000    0.04573    0.10214 =
         0.07440    0.05782    0.01362    0.01781
O3    5    0.411843    0.729253    0.556397    11.00000    0.07323    0.10223 =
         0.11217    0.07113    0.02810    0.02984
O4    5    0.226944    0.700587    0.471462    11.00000    0.04471    0.10379 =
         0.15130    0.06008    0.03391    0.00796
O5    5    0.668214    0.486173    0.756724    11.00000    0.08061    0.08603 =
         0.09094    0.05040    0.04070    0.03551
C1    1    1.028461    1.224011    0.693603    11.00000    0.02665    0.02774 =
         0.03183    0.00820    0.00476    0.00753
C2    1    0.992123    1.244963    0.794117    11.00000    0.03778    0.03634 =
         0.02867    0.00930    0.01120    0.01321
AFIX  43
H2A   2    1.006301    1.323583    0.840402    11.00000   -1.20000
AFIX   0
C3    1    0.933595    1.130877    0.810376    11.00000    0.03314    0.04045 =
         0.02902    0.01167    0.01092    0.01247
AFIX  43
H3A   2    0.898718    1.116995    0.868990    11.00000   -1.20000
AFIX   0
C4    1    0.934781    1.035956    0.722117    11.00000    0.02652    0.03512 =
         0.03044    0.01445    0.00857    0.01016
C5    1    0.882577    0.903798    0.706964    11.00000    0.03051    0.03448 =
         0.02977    0.01632    0.00993    0.01039
C6    1    0.879036    0.807523    0.620263    11.00000    0.03029    0.03071 =
         0.03152    0.01443    0.01123    0.00706
C7    1    0.823168    0.673727    0.607811    11.00000    0.03925    0.03405 =
         0.04155    0.01960    0.01378    0.00734
AFIX  43
H7A   2    0.787296    0.636032    0.657570    11.00000   -1.20000
AFIX   0
C8    1    0.831850    0.612545    0.511547    11.00000    0.05388    0.02623 =
         0.03621    0.01214    0.01360    0.01066
AFIX  43
H8A   2    0.803102    0.524928    0.482955    11.00000   -1.20000
AFIX   0
C9    1    0.893393    0.706176    0.460326    11.00000    0.03134    0.02790 =
         0.03625    0.01284    0.01107    0.00971
C10   1    0.914770    0.682953    0.356752    11.00000    0.03235    0.03072 =
         0.03035    0.01182    0.00859    0.01294
C11   1    0.817665    0.862820    0.793262    11.00000    0.03720    0.02734 =
         0.03040    0.01191    0.01221    0.01087
C12   1    0.888753    0.863325    0.882937    11.00000    0.03336    0.07141 =
         0.04266    0.02876    0.01042    0.01420
AFIX  43
H12A  2    0.977977    0.888647    0.890232    11.00000   -1.20000
AFIX   0
C13   1    0.828885    0.826510    0.962569    11.00000    0.05060    0.07780 =
         0.03831    0.03270    0.00818    0.01937
AFIX  43
H13A  2    0.877804    0.826830    1.022841    11.00000   -1.20000
AFIX   0
C14   1    0.698147    0.789781    0.952570    11.00000    0.05368    0.03593 =
         0.03365    0.01495    0.02099    0.01578
C15   1    0.625380    0.789095    0.864412    11.00000    0.03640    0.06226 =
         0.05289    0.02931    0.02011    0.01738
AFIX  43
H15A  2    0.536307    0.764490    0.857917    11.00000   -1.20000
AFIX   0
C16   1    0.685861    0.825516    0.784688    11.00000    0.03906    0.05954 =
         0.03914    0.02643    0.00938    0.01232
AFIX  43
H16A  2    0.636505    0.824710    0.724430    11.00000   -1.20000
AFIX   0
C17   1    0.868935    0.547334    0.290376    11.00000    0.03456    0.02916 =
         0.03560    0.01069    0.00982    0.00876
C18   1    0.783138    0.506293    0.195062    11.00000    0.03863    0.03433 =
         0.04074    0.01372    0.00764    0.01185
AFIX  43
H18A  2    0.753776    0.562822    0.173998    11.00000   -1.20000
AFIX   0
C19   1    0.740524    0.382027    0.130715    11.00000    0.04558    0.04089 =
         0.03636    0.00745    0.00422    0.00844
AFIX  43
H19A  2    0.683866    0.355530    0.066502    11.00000   -1.20000
AFIX   0
C20   1    0.782942    0.298709    0.162919    11.00000    0.04817    0.02842 =
         0.04596    0.00587    0.01614    0.00925
C21   1    0.865585    0.334479    0.257874    11.00000    0.05582    0.03520 =
         0.05391    0.01408    0.01297    0.02256
AFIX  43
H21A  2    0.890907    0.276006    0.279699    11.00000   -1.20000
AFIX   0
C22   1    0.910435    0.459976    0.320509    11.00000    0.04891    0.03756 =
         0.03928    0.01305    0.00588    0.01742
AFIX  43
H22A  2    0.969104    0.486299    0.383594    11.00000   -1.20000
AFIX   0
C23   1    0.749447    0.990884    0.383436    11.00000    0.03709    0.04109 =
         0.04388    0.01673    0.01073    0.01349
C24   1    0.604711    0.939985    0.371929    11.00000    0.03553    0.03842 =
         0.04257    0.01016    0.00736    0.01629
C25   1    0.543305    0.869072    0.435497    11.00000    0.04004    0.03923 =
         0.04926    0.01214    0.00683    0.01456
AFIX  43
H25A  2    0.591603    0.852982    0.486604    11.00000   -1.20000
AFIX   0
C26   1    0.410074    0.822764    0.422109    11.00000    0.03924    0.04256 =
         0.06262    0.01444    0.01241    0.01398
C27   1    0.336143    0.844578    0.347226    11.00000    0.03659    0.07147 =
         0.06735    0.01749    0.00439    0.01807
AFIX  43
H27A  2    0.246485    0.813150    0.339320    11.00000   -1.20000
AFIX   0
C28   1    0.397211    0.913622    0.284382    11.00000    0.04750    0.09080 =
         0.06309    0.03074   -0.00207    0.03284
AFIX  43
H28A  2    0.348039    0.928305    0.232877    11.00000   -1.20000
AFIX   0
C29   1    0.529797    0.961698    0.295884    11.00000    0.04591    0.06427 =
         0.05461    0.02555    0.00765    0.02215
AFIX  43
H29A  2    0.569367    1.008828    0.252672    11.00000   -1.20000
AFIX   0
C30   1    0.716432    0.465639    0.849353    11.00000    0.10905    0.08618 =
         0.08879    0.04432    0.04624    0.05340
AFIX  23
H30A  2    0.678320    0.375879    0.843733    11.00000   -1.20000
H30B  2    0.693377    0.511897    0.909704    11.00000   -1.20000
AFIX   0
C31   1    0.858214    0.509315    0.864033    11.00000    0.11333    0.15692 =
         0.15982    0.08117    0.05811    0.09141
AFIX  33
H31A  2    0.891103    0.495395    0.927000    11.00000   -1.50000
H31B  2    0.880498    0.462694    0.804441    11.00000   -1.50000
H31C  2    0.895515    0.598344    0.870234    11.00000   -1.50000
AFIX   0
C32   1    0.533307    0.451056    0.741364    11.00000    0.07650    0.06937 =
         0.08828    0.02073    0.04121    0.01472
AFIX  23
H32A  2    0.511903    0.500357    0.800983    11.00000   -1.20000
H32B  2    0.490496    0.361806    0.736230    11.00000   -1.20000
AFIX   0
C33   1    0.488330    0.473915    0.644299    11.00000    0.08065    0.11485 =
         0.09369    0.01496    0.01327    0.02695
AFIX  33
H33A  2    0.396308    0.449944    0.633866    11.00000   -1.50000
H33B  2    0.530289    0.562479    0.650026    11.00000   -1.50000
H33C  2    0.508938    0.424290    0.585442    11.00000   -1.50000

AFIX   0
HKLF    4




REM  rkm-z9a_a.res in P-1
REM wR2 = 0.0839, GooF = S = 1.093, Restrained GooF = 1.093 for all data
REM R1 = 0.0363 for 5125 Fo > 4sig(Fo) and 0.0461 for all 6193 data
REM 394 parameters refined using 0 restraints

END

WGHT      0.0289      1.3787

REM Highest difference peak  1.260,  deepest hole -1.221,  1-sigma level  0.088
Q1    1   0.6932  0.7800  1.1140  11.00000  0.05    1.26
Q2    1   0.6016  0.6705  1.0201  11.00000  0.05    0.83
Q3    1   0.5813  0.7816  1.0607  11.00000  0.05    0.78
Q4    1   0.6458  0.1149  0.0765  11.00000  0.05    0.64
Q5    1   0.9986  1.0660  0.5812  11.00000  0.05    0.59
Q6    1   0.6689  1.1569  0.3682  11.00000  0.05    0.48
Q7    1   0.6472  0.6392  1.0682  11.00000  0.05    0.39
Q8    1   0.5178  0.6843  0.9860  11.00000  0.05    0.39
Q9    1   0.6691  0.1705  0.0365  11.00000  0.05    0.39
Q10   1   0.7648  0.1704  0.0481  11.00000  0.05    0.34
;
_shelx_res_checksum              45766
loop_
_space_group_symop_operation_xyz
'x, y, z'
'-x, -y, -z'
loop_
_atom_site_label
_atom_site_type_symbol
_atom_site_fract_x
_atom_site_fract_y
_atom_site_fract_z
_atom_site_U_iso_or_equiv
_atom_site_adp_type
_atom_site_occupancy
_atom_site_site_symmetry_order
_atom_site_calc_flag
_atom_site_refinement_flags_posn
_atom_site_refinement_flags_adp
_atom_site_refinement_flags_occupancy
Sn1 Sn 1.000000 1.000000 0.500000 0.02696(10) Uani 1 2 d S . P
I1 I 0.60985(3) 0.73240(3) 1.07367(2) 0.06474(12) Uani 1 1 d . . .
I2 I 0.71906(3) 0.11147(2) 0.06229(2) 0.06531(12) Uani 1 1 d . . .
N1 N 0.9927(3) 1.0949(2) 0.6518(2) 0.0303(6) Uani 1 1 d . . .
N2 N 0.9233(3) 0.8238(2) 0.5303(2) 0.0299(6) Uani 1 1 d . . .
N3 N 0.3446(4) 0.7460(4) 0.4883(4) 0.0651(11) Uani 1 1 d . . .
O1 O 0.8065(2) 0.9699(2) 0.4602(2) 0.0411(6) Uani 1 1 d . . .
O2 O 0.8031(3) 1.0446(3) 0.3233(3) 0.0713(10) Uani 1 1 d . . .
O3 O 0.4118(4) 0.7293(4) 0.5564(3) 0.0891(12) Uani 1 1 d . . .
O4 O 0.2269(4) 0.7006(4) 0.4715(4) 0.1009(14) Uani 1 1 d . . .
O5 O 0.6682(4) 0.4862(3) 0.7567(3) 0.0788(10) Uani 1 1 d . . .
C1 C 1.0285(3) 1.2240(3) 0.6936(3) 0.0299(8) Uani 1 1 d . . .
C2 C 0.9921(3) 1.2450(3) 0.7941(3) 0.0344(8) Uani 1 1 d . . .
H2A H 1.006301 1.323583 0.840402 0.041 Uiso 1 1 calc R U .
C3 C 0.9336(3) 1.1309(3) 0.8104(3) 0.0342(8) Uani 1 1 d . . .
H3A H 0.898718 1.116995 0.868990 0.041 Uiso 1 1 calc R U .
C4 C 0.9348(3) 1.0360(3) 0.7221(3) 0.0302(8) Uani 1 1 d . . .
C5 C 0.8826(3) 0.9038(3) 0.7070(3) 0.0307(8) Uani 1 1 d . . .
C6 C 0.8790(3) 0.8075(3) 0.6203(3) 0.0309(8) Uani 1 1 d . . .
C7 C 0.8232(4) 0.6737(3) 0.6078(3) 0.0384(9) Uani 1 1 d . . .
H7A H 0.787296 0.636032 0.657570 0.046 Uiso 1 1 calc R U .
C8 C 0.8319(4) 0.6125(3) 0.5115(3) 0.0394(9) Uani 1 1 d . . .
H8A H 0.803102 0.524928 0.482955 0.047 Uiso 1 1 calc R U .
C9 C 0.8934(3) 0.7062(3) 0.4603(3) 0.0315(8) Uani 1 1 d . . .
C10 C 0.9148(3) 0.6830(3) 0.3568(3) 0.0303(8) Uani 1 1 d . . .
C11 C 0.8177(3) 0.8628(3) 0.7933(3) 0.0312(8) Uani 1 1 d . . .
C12 C 0.8888(4) 0.8633(4) 0.8829(3) 0.0486(10) Uani 1 1 d . . .
H12A H 0.977977 0.888647 0.890232 0.058 Uiso 1 1 calc R U .
C13 C 0.8289(4) 0.8265(4) 0.9626(3) 0.0544(11) Uani 1 1 d . . .
H13A H 0.877804 0.826830 1.022841 0.065 Uiso 1 1 calc R U .
C14 C 0.6981(4) 0.7898(3) 0.9526(3) 0.0399(9) Uani 1 1 d . . .
C15 C 0.6254(4) 0.7891(4) 0.8644(3) 0.0480(10) Uani 1 1 d . . .
H15A H 0.536307 0.764490 0.857917 0.058 Uiso 1 1 calc R U .
C16 C 0.6859(4) 0.8255(4) 0.7847(3) 0.0456(10) Uani 1 1 d . . .
H16A H 0.636505 0.824710 0.724430 0.055 Uiso 1 1 calc R U .
C17 C 0.8689(3) 0.5473(3) 0.2904(3) 0.0338(8) Uani 1 1 d . . .
C18 C 0.7831(4) 0.5063(3) 0.1951(3) 0.0382(9) Uani 1 1 d . . .
H18A H 0.753776 0.562822 0.173998 0.046 Uiso 1 1 calc R U .
C19 C 0.7405(4) 0.3820(3) 0.1307(3) 0.0445(10) Uani 1 1 d . . .
H19A H 0.683866 0.355530 0.066502 0.053 Uiso 1 1 calc R U .
C20 C 0.7829(4) 0.2987(3) 0.1629(3) 0.0431(10) Uani 1 1 d . . .
C21 C 0.8656(4) 0.3345(3) 0.2579(3) 0.0466(10) Uani 1 1 d . . .
H21A H 0.890907 0.276006 0.279699 0.056 Uiso 1 1 calc R U .
C22 C 0.9104(4) 0.4600(3) 0.3205(3) 0.0417(9) Uani 1 1 d . . .
H22A H 0.969104 0.486299 0.383594 0.050 Uiso 1 1 calc R U .
C23 C 0.7494(4) 0.9909(3) 0.3834(3) 0.0403(9) Uani 1 1 d . . .
C24 C 0.6047(4) 0.9400(3) 0.3719(3) 0.0387(9) Uani 1 1 d . . .
C25 C 0.5433(4) 0.8691(3) 0.4355(3) 0.0435(9) Uani 1 1 d . . .
H25A H 0.591603 0.852982 0.486604 0.052 Uiso 1 1 calc R U .
C26 C 0.4101(4) 0.8228(4) 0.4221(4) 0.0488(10) Uani 1 1 d . . .
C27 C 0.3361(4) 0.8446(4) 0.3472(4) 0.0604(12) Uani 1 1 d . . .
H27A H 0.246485 0.813150 0.339320 0.073 Uiso 1 1 calc R U .
C28 C 0.3972(5) 0.9136(5) 0.2844(4) 0.0649(13) Uani 1 1 d . . .
H28A H 0.348039 0.928305 0.232877 0.078 Uiso 1 1 calc R U .
C29 C 0.5298(4) 0.9617(4) 0.2959(3) 0.0535(11) Uani 1 1 d . . .
H29A H 0.569367 1.008828 0.252672 0.064 Uiso 1 1 calc R U .
C30 C 0.7164(6) 0.4656(6) 0.8494(5) 0.0849(17) Uani 1 1 d . . .
H30A H 0.678320 0.375879 0.843733 0.102 Uiso 1 1 calc R U .
H30B H 0.693377 0.511897 0.909704 0.102 Uiso 1 1 calc R U .
C31 C 0.8582(7) 0.5093(7) 0.8640(6) 0.123(3) Uani 1 1 d . . .
H31A H 0.891103 0.495395 0.927000 0.185 Uiso 1 1 calc R U .
H31B H 0.880498 0.462694 0.804441 0.185 Uiso 1 1 calc R U .
H31C H 0.895515 0.598344 0.870234 0.185 Uiso 1 1 calc R U .
C32 C 0.5333(6) 0.4511(5) 0.7414(5) 0.0809(17) Uani 1 1 d . . .
H32A H 0.511903 0.500357 0.800983 0.097 Uiso 1 1 calc R U .
H32B H 0.490496 0.361806 0.736230 0.097 Uiso 1 1 calc R U .
C33 C 0.4883(6) 0.4739(6) 0.6443(5) 0.103(2) Uani 1 1 d . . .
H33A H 0.396308 0.449944 0.633866 0.155 Uiso 1 1 calc R U .
H33B H 0.530289 0.562479 0.650026 0.155 Uiso 1 1 calc R U .
H33C H 0.508938 0.424290 0.585442 0.155 Uiso 1 1 calc R U .
loop_
_atom_site_aniso_label
_atom_site_aniso_U_11
_atom_site_aniso_U_22
_atom_site_aniso_U_33
_atom_site_aniso_U_23
_atom_site_aniso_U_13
_atom_site_aniso_U_12
Sn1 0.02792(19) 0.02589(17) 0.02744(18) 0.01159(13) 0.01000(14) 0.00753(14)
I1 0.0819(3) 0.0756(2) 0.0531(2) 0.03895(16) 0.03962(17) 0.03039(18)
I2 0.0830(3) 0.03485(16) 0.0616(2) 0.00099(13) 0.01826(17) 0.01211(15)
N1 0.0342(17) 0.0276(14) 0.0285(16) 0.0116(12) 0.0113(13) 0.0084(12)
N2 0.0349(17) 0.0283(14) 0.0264(15) 0.0109(12) 0.0090(13) 0.0099(13)
N3 0.053(3) 0.054(2) 0.085(3) 0.023(2) 0.025(2) 0.013(2)
O1 0.0318(14) 0.0538(16) 0.0420(15) 0.0223(13) 0.0087(12) 0.0162(12)
O2 0.0457(19) 0.102(3) 0.074(2) 0.058(2) 0.0136(17) 0.0178(18)
O3 0.073(3) 0.102(3) 0.112(3) 0.071(3) 0.028(2) 0.030(2)
O4 0.045(2) 0.104(3) 0.151(4) 0.060(3) 0.034(2) 0.008(2)
O5 0.081(3) 0.086(2) 0.091(3) 0.050(2) 0.041(2) 0.036(2)
C1 0.0266(18) 0.0277(17) 0.0318(19) 0.0082(14) 0.0048(15) 0.0075(15)
C2 0.038(2) 0.0363(19) 0.029(2) 0.0093(15) 0.0112(16) 0.0132(17)
C3 0.033(2) 0.040(2) 0.0290(19) 0.0117(15) 0.0109(16) 0.0125(16)
C4 0.0265(18) 0.0351(18) 0.0304(19) 0.0144(15) 0.0086(15) 0.0102(15)
C5 0.0305(19) 0.0345(18) 0.0298(19) 0.0163(15) 0.0099(15) 0.0104(15)
C6 0.0303(19) 0.0307(17) 0.0315(19) 0.0144(15) 0.0112(15) 0.0071(15)
C7 0.039(2) 0.0341(19) 0.042(2) 0.0196(17) 0.0138(17) 0.0073(16)
C8 0.054(3) 0.0262(17) 0.036(2) 0.0121(15) 0.0136(18) 0.0107(17)
C9 0.0313(19) 0.0279(17) 0.036(2) 0.0128(15) 0.0111(16) 0.0097(15)
C10 0.0324(19) 0.0307(17) 0.0303(19) 0.0118(14) 0.0086(15) 0.0129(15)
C11 0.037(2) 0.0273(17) 0.030(2) 0.0119(15) 0.0122(16) 0.0109(16)
C12 0.033(2) 0.071(3) 0.043(2) 0.029(2) 0.0104(18) 0.014(2)
C13 0.051(3) 0.078(3) 0.038(2) 0.033(2) 0.008(2) 0.019(2)
C14 0.054(3) 0.0359(19) 0.034(2) 0.0149(16) 0.0210(19) 0.0158(18)
C15 0.036(2) 0.062(3) 0.053(3) 0.029(2) 0.020(2) 0.017(2)
C16 0.039(2) 0.060(2) 0.039(2) 0.0264(19) 0.0094(18) 0.0123(19)
C17 0.035(2) 0.0292(18) 0.036(2) 0.0107(15) 0.0098(16) 0.0088(16)
C18 0.039(2) 0.0343(19) 0.041(2) 0.0137(16) 0.0076(17) 0.0118(17)
C19 0.046(2) 0.041(2) 0.036(2) 0.0074(17) 0.0042(18) 0.0084(18)
C20 0.048(2) 0.0284(19) 0.046(2) 0.0059(17) 0.016(2) 0.0092(18)
C21 0.056(3) 0.035(2) 0.054(3) 0.0141(18) 0.013(2) 0.0226(19)
C22 0.049(2) 0.038(2) 0.039(2) 0.0130(17) 0.0059(18) 0.0174(18)
C23 0.037(2) 0.041(2) 0.044(2) 0.0167(18) 0.0107(18) 0.0135(18)
C24 0.036(2) 0.038(2) 0.043(2) 0.0102(17) 0.0074(17) 0.0163(17)
C25 0.040(2) 0.039(2) 0.049(2) 0.0121(18) 0.0068(19) 0.0146(18)
C26 0.039(2) 0.043(2) 0.063(3) 0.014(2) 0.012(2) 0.0140(19)
C27 0.037(2) 0.071(3) 0.067(3) 0.017(3) 0.004(2) 0.018(2)
C28 0.048(3) 0.091(4) 0.063(3) 0.031(3) -0.002(2) 0.033(3)
C29 0.046(3) 0.064(3) 0.055(3) 0.026(2) 0.008(2) 0.022(2)
C30 0.109(5) 0.086(4) 0.089(4) 0.044(3) 0.046(4) 0.053(4)
C31 0.113(6) 0.157(7) 0.160(7) 0.081(6) 0.058(5) 0.091(5)
C32 0.076(4) 0.069(3) 0.088(4) 0.021(3) 0.041(3) 0.015(3)
C33 0.081(5) 0.115(5) 0.094(5) 0.015(4) 0.013(4) 0.027(4)
loop_
_atom_type_symbol
_atom_type_description
_atom_type_scat_dispersion_real
_atom_type_scat_dispersion_imag
_atom_type_scat_source
C C 0.0033 0.0016 'International Tables Vol C Tables 4.2.6.8 and 6.1.1.4'
H H 0.0000 0.0000 'International Tables Vol C Tables 4.2.6.8 and 6.1.1.4'
I I -0.4742 1.8119 'International Tables Vol C Tables 4.2.6.8 and 6.1.1.4'
N N 0.0061 0.0033 'International Tables Vol C Tables 4.2.6.8 and 6.1.1.4'
O O 0.0106 0.0060 'International Tables Vol C Tables 4.2.6.8 and 6.1.1.4'
Sn Sn -0.6537 1.4246 'International Tables Vol C Tables 4.2.6.8 and 6.1.1.4'
loop_
_geom_angle_atom_site_label_1
_geom_angle_atom_site_label_2
_geom_angle_atom_site_label_3
_geom_angle
_geom_angle_site_symmetry_1
_geom_angle_site_symmetry_3
O1 Sn1 O1 180.0 . 2_776
O1 Sn1 N1 86.07(11) . .
O1 Sn1 N1 93.93(11) 2_776 .
O1 Sn1 N1 93.93(11) . 2_776
O1 Sn1 N1 86.07(11) 2_776 2_776
N1 Sn1 N1 180.0 . 2_776
O1 Sn1 N2 83.62(10) . .
O1 Sn1 N2 96.38(10) 2_776 .
N1 Sn1 N2 91.01(10) . .
N1 Sn1 N2 88.99(10) 2_776 .
O1 Sn1 N2 96.38(10) . 2_776
O1 Sn1 N2 83.62(10) 2_776 2_776
N1 Sn1 N2 88.99(10) . 2_776
N1 Sn1 N2 91.01(10) 2_776 2_776
N2 Sn1 N2 180.0 . 2_776
C4 N1 C1 108.3(3) . .
C4 N1 Sn1 124.6(2) . .
C1 N1 Sn1 126.6(2) . .
C6 N2 C9 108.6(3) . .
C6 N2 Sn1 124.3(2) . .
C9 N2 Sn1 126.6(2) . .
O4 N3 O3 123.4(4) . .
O4 N3 C26 118.5(5) . .
O3 N3 C26 118.1(4) . .
C23 O1 Sn1 129.1(2) . .
C32 O5 C30 111.7(4) . .
N1 C1 C10 125.8(3) . 2_776
N1 C1 C2 107.5(3) . .
C10 C1 C2 126.7(3) 2_776 .
C3 C2 C1 108.2(3) . .
C3 C2 H2A 125.9 . .
C1 C2 H2A 125.9 . .
C2 C3 C4 107.9(3) . .
C2 C3 H3A 126.1 . .
C4 C3 H3A 126.1 . .
N1 C4 C5 125.5(3) . .
N1 C4 C3 108.2(3) . .
C5 C4 C3 126.3(3) . .
C6 C5 C4 127.9(3) . .
C6 C5 C11 116.9(3) . .
C4 C5 C11 115.1(3) . .
N2 C6 C5 126.1(3) . .
N2 C6 C7 107.9(3) . .
C5 C6 C7 125.9(3) . .
C8 C7 C6 107.9(3) . .
C8 C7 H7A 126.1 . .
C6 C7 H7A 126.1 . .
C7 C8 C9 108.1(3) . .
C7 C8 H8A 126.0 . .
C9 C8 H8A 126.0 . .
N2 C9 C10 125.8(3) . .
N2 C9 C8 107.4(3) . .
C10 C9 C8 126.8(3) . .
C9 C10 C1 126.1(3) . 2_776
C9 C10 C17 117.9(3) . .
C1 C10 C17 115.9(3) 2_776 .
C12 C11 C16 118.5(3) . .
C12 C11 C5 120.8(3) . .
C16 C11 C5 120.7(3) . .
C11 C12 C13 120.7(4) . .
C11 C12 H12A 119.7 . .
C13 C12 H12A 119.7 . .
C14 C13 C12 120.0(4) . .
C14 C13 H13A 120.0 . .
C12 C13 H13A 120.0 . .
C13 C14 C15 120.5(3) . .
C13 C14 I1 119.1(3) . .
C15 C14 I1 120.4(3) . .
C14 C15 C16 119.3(4) . .
C14 C15 H15A 120.4 . .
C16 C15 H15A 120.4 . .
C11 C16 C15 121.1(4) . .
C11 C16 H16A 119.4 . .
C15 C16 H16A 119.4 . .
C18 C17 C22 118.3(3) . .
C18 C17 C10 119.3(3) . .
C22 C17 C10 122.3(3) . .
C17 C18 C19 120.9(3) . .
C17 C18 H18A 119.6 . .
C19 C18 H18A 119.6 . .
C20 C19 C18 119.2(4) . .
C20 C19 H19A 120.4 . .
C18 C19 H19A 120.4 . .
C19 C20 C21 121.8(3) . .
C19 C20 I2 118.4(3) . .
C21 C20 I2 119.8(3) . .
C20 C21 C22 118.5(4) . .
C20 C21 H21A 120.7 . .
C22 C21 H21A 120.7 . .
C21 C22 C17 121.2(4) . .
C21 C22 H22A 119.4 . .
C17 C22 H22A 119.4 . .
O2 C23 O1 125.2(4) . .
O2 C23 C24 121.5(4) . .
O1 C23 C24 113.4(3) . .
C29 C24 C25 118.9(4) . .
C29 C24 C23 120.1(4) . .
C25 C24 C23 121.0(4) . .
C26 C25 C24 119.5(4) . .
C26 C25 H25A 120.3 . .
C24 C25 H25A 120.3 . .
C27 C26 C25 121.6(4) . .
C27 C26 N3 118.8(4) . .
C25 C26 N3 119.6(4) . .
C28 C27 C26 118.6(4) . .
C28 C27 H27A 120.7 . .
C26 C27 H27A 120.7 . .
C27 C28 C29 121.3(4) . .
C27 C28 H28A 119.3 . .
C29 C28 H28A 119.3 . .
C28 C29 C24 120.1(4) . .
C28 C29 H29A 119.9 . .
C24 C29 H29A 119.9 . .
O5 C30 C31 109.4(5) . .
O5 C30 H30A 109.8 . .
C31 C30 H30A 109.8 . .
O5 C30 H30B 109.8 . .
C31 C30 H30B 109.8 . .
H30A C30 H30B 108.2 . .
C30 C31 H31A 109.5 . .
C30 C31 H31B 109.5 . .
H31A C31 H31B 109.5 . .
C30 C31 H31C 109.5 . .
H31A C31 H31C 109.5 . .
H31B C31 H31C 109.5 . .
O5 C32 C33 109.5(5) . .
O5 C32 H32A 109.8 . .
C33 C32 H32A 109.8 . .
O5 C32 H32B 109.8 . .
C33 C32 H32B 109.8 . .
H32A C32 H32B 108.2 . .
C32 C33 H33A 109.5 . .
C32 C33 H33B 109.5 . .
H33A C33 H33B 109.5 . .
C32 C33 H33C 109.5 . .
H33A C33 H33C 109.5 . .
H33B C33 H33C 109.5 . .
loop_
_geom_bond_atom_site_label_1
_geom_bond_atom_site_label_2
_geom_bond_distance
_geom_bond_site_symmetry_2
Sn1 O1 2.077(2) .
Sn1 O1 2.077(2) 2_776
Sn1 N1 2.087(3) .
Sn1 N1 2.087(3) 2_776
Sn1 N2 2.101(3) .
Sn1 N2 2.101(3) 2_776
I1 C14 2.098(3) .
I2 C20 2.108(4) .
N1 C4 1.376(4) .
N1 C1 1.379(4) .
N2 C6 1.370(4) .
N2 C9 1.375(4) .
N3 O4 1.215(5) .
N3 O3 1.227(5) .
N3 C26 1.474(6) .
O1 C23 1.280(4) .
O2 C23 1.213(4) .
O5 C32 1.407(6) .
O5 C30 1.412(6) .
C1 C10 1.413(4) 2_776
C1 C2 1.428(5) .
C2 C3 1.351(5) .
C2 H2A 0.9300 .
C3 C4 1.419(5) .
C3 H3A 0.9300 .
C4 C5 1.409(5) .
C5 C6 1.397(5) .
C5 C11 1.505(4) .
C6 C7 1.434(5) .
C7 C8 1.343(5) .
C7 H7A 0.9300 .
C8 C9 1.439(5) .
C8 H8A 0.9300 .
C9 C10 1.402(5) .
C10 C17 1.499(4) .
C11 C12 1.374(5) .
C11 C16 1.376(5) .
C12 C13 1.385(5) .
C12 H12A 0.9300 .
C13 C14 1.364(6) .
C13 H13A 0.9300 .
C14 C15 1.366(5) .
C15 C16 1.387(5) .
C15 H15A 0.9300 .
C16 H16A 0.9300 .
C17 C18 1.387(5) .
C17 C22 1.398(5) .
C18 C19 1.388(5) .
C18 H18A 0.9300 .
C19 C20 1.372(5) .
C19 H19A 0.9300 .
C20 C21 1.375(6) .
C21 C22 1.390(5) .
C21 H21A 0.9300 .
C22 H22A 0.9300 .
C23 C24 1.503(5) .
C24 C29 1.389(6) .
C24 C25 1.391(5) .
C25 C26 1.380(6) .
C25 H25A 0.9300 .
C26 C27 1.372(6) .
C27 C28 1.369(6) .
C27 H27A 0.9300 .
C28 C29 1.375(6) .
C28 H28A 0.9300 .
C29 H29A 0.9300 .
C30 C31 1.472(9) .
C30 H30A 0.9700 .
C30 H30B 0.9700 .
C31 H31A 0.9600 .
C31 H31B 0.9600 .
C31 H31C 0.9600 .
C32 C33 1.466(8) .
C32 H32A 0.9700 .
C32 H32B 0.9700 .
C33 H33A 0.9600 .
C33 H33B 0.9600 .
C33 H33C 0.9600 .
loop_
_geom_torsion_atom_site_label_1
_geom_torsion_atom_site_label_2
_geom_torsion_atom_site_label_3
_geom_torsion_atom_site_label_4
_geom_torsion
_geom_torsion_site_symmetry_1
_geom_torsion_site_symmetry_4
C4 N1 C1 C10 -176.7(3) . 2_776
Sn1 N1 C1 C10 -4.7(5) . 2_776
C4 N1 C1 C2 0.7(4) . .
Sn1 N1 C1 C2 172.7(2) . .
N1 C1 C2 C3 -1.4(4) . .
C10 C1 C2 C3 176.0(3) 2_776 .
C1 C2 C3 C4 1.5(4) . .
C1 N1 C4 C5 178.6(3) . .
Sn1 N1 C4 C5 6.4(5) . .
C1 N1 C4 C3 0.3(4) . .
Sn1 N1 C4 C3 -172.0(2) . .
C2 C3 C4 N1 -1.1(4) . .
C2 C3 C4 C5 -179.5(3) . .
N1 C4 C5 C6 0.2(6) . .
C3 C4 C5 C6 178.3(4) . .
N1 C4 C5 C11 -176.7(3) . .
C3 C4 C5 C11 1.4(5) . .
C9 N2 C6 C5 -175.2(3) . .
Sn1 N2 C6 C5 -3.0(5) . .
C9 N2 C6 C7 2.3(4) . .
Sn1 N2 C6 C7 174.5(2) . .
C4 C5 C6 N2 -2.1(6) . .
C11 C5 C6 N2 174.8(3) . .
C4 C5 C6 C7 -179.1(4) . .
C11 C5 C6 C7 -2.3(5) . .
N2 C6 C7 C8 -1.3(4) . .
C5 C6 C7 C8 176.2(4) . .
C6 C7 C8 C9 -0.1(4) . .
C6 N2 C9 C10 175.4(3) . .
Sn1 N2 C9 C10 3.3(5) . .
C6 N2 C9 C8 -2.3(4) . .
Sn1 N2 C9 C8 -174.3(2) . .
C7 C8 C9 N2 1.5(4) . .
C7 C8 C9 C10 -176.2(4) . .
N2 C9 C10 C1 0.5(6) . 2_776
C8 C9 C10 C1 177.8(4) . 2_776
N2 C9 C10 C17 -176.8(3) . .
C8 C9 C10 C17 0.5(5) . .
C6 C5 C11 C12 99.0(4) . .
C4 C5 C11 C12 -83.8(4) . .
C6 C5 C11 C16 -81.9(4) . .
C4 C5 C11 C16 95.4(4) . .
C16 C11 C12 C13 0.3(6) . .
C5 C11 C12 C13 179.5(4) . .
C11 C12 C13 C14 -0.3(7) . .
C12 C13 C14 C15 -0.1(6) . .
C12 C13 C14 I1 179.3(3) . .
C13 C14 C15 C16 0.4(6) . .
I1 C14 C15 C16 -179.0(3) . .
C12 C11 C16 C15 0.0(6) . .
C5 C11 C16 C15 -179.2(3) . .
C14 C15 C16 C11 -0.3(6) . .
C9 C10 C17 C18 122.8(4) . .
C1 C10 C17 C18 -54.7(4) 2_776 .
C9 C10 C17 C22 -57.7(5) . .
C1 C10 C17 C22 124.7(4) 2_776 .
C22 C17 C18 C19 -0.6(5) . .
C10 C17 C18 C19 178.8(3) . .
C17 C18 C19 C20 0.8(6) . .
C18 C19 C20 C21 0.7(6) . .
C18 C19 C20 I2 -179.0(3) . .
C19 C20 C21 C22 -2.4(6) . .
I2 C20 C21 C22 177.3(3) . .
C20 C21 C22 C17 2.6(6) . .
C18 C17 C22 C21 -1.1(6) . .
C10 C17 C22 C21 179.5(3) . .
Sn1 O1 C23 O2 -7.1(6) . .
Sn1 O1 C23 C24 172.0(2) . .
O2 C23 C24 C29 -4.5(6) . .
O1 C23 C24 C29 176.3(3) . .
O2 C23 C24 C25 174.4(4) . .
O1 C23 C24 C25 -4.7(5) . .
C29 C24 C25 C26 -0.4(6) . .
C23 C24 C25 C26 -179.4(4) . .
C24 C25 C26 C27 0.2(6) . .
C24 C25 C26 N3 179.1(3) . .
O4 N3 C26 C27 2.7(6) . .
O3 N3 C26 C27 -178.6(4) . .
O4 N3 C26 C25 -176.2(4) . .
O3 N3 C26 C25 2.5(6) . .
C25 C26 C27 C28 0.3(7) . .
N3 C26 C27 C28 -178.6(4) . .
C26 C27 C28 C29 -0.6(7) . .
C27 C28 C29 C24 0.4(7) . .
C25 C24 C29 C28 0.1(6) . .
C23 C24 C29 C28 179.1(4) . .
C32 O5 C30 C31 -177.4(5) . .
C30 O5 C32 C33 -179.9(5) . .
