#------------------------------------------------------------------------------
#$Date: 2019-11-07 21:55:33 +0200 (Thu, 07 Nov 2019) $
#$Revision: 223651 $
#$URL: file:///home/coder/svn-repositories/cod/cif/7/23/21/7232121.cif $
#------------------------------------------------------------------------------
#
# This file is available in the Crystallography Open Database (COD),
# http://www.crystallography.net/
#
# All data on this site have been placed in the public domain by the
# contributors.
#
data_7232121
loop_
_publ_author_name
'Rani, Jyoti'
'Kaur, Gurkiran'
'Sushila, Sushila'
'Diksha, Diksha'
'Yadav, Rashmi'
'Kataria, Ramesh'
'Venugopalan, Paloth'
'Natarajan, Palani'
'Chaudhary, Arvind'
'Patra, Ranjan'
_publ_section_title
;
 Wheel-and-axle topology-driven halogen bonds: formation of ladder, 1D and
 2D networks in hexa-coordinated Sn(iv) porphyrins
;
_journal_issue                   7
_journal_name_full               CrystEngComm
_journal_page_first              1150
_journal_paper_doi               10.1039/C8CE01877D
_journal_volume                  21
_journal_year                    2019
_chemical_formula_sum            'C58 H30 Br4 I4 N4 O4 Sn'
_chemical_formula_weight         1792.79
_chemical_name_common            3,5-Dibromobenzoate-tin-tetraiodoporphrin
_space_group_crystal_system      triclinic
_space_group_IT_number           2
_space_group_name_Hall           '-P 1'
_space_group_name_H-M_alt        'P -1'
_symmetry_space_group_name_Hall  '-P 1'
_symmetry_space_group_name_H-M   'P -1'
_atom_sites_solution_hydrogens   geom
_audit_creation_method           SHELXL-2018/3
_audit_update_record
;
2018-10-31 deposited with the CCDC.
2019-01-02 downloaded from the CCDC.
;
_cell_angle_alpha                98.727(5)
_cell_angle_beta                 101.652(6)
_cell_angle_gamma                96.887(6)
_cell_formula_units_Z            1
_cell_length_a                   8.8374(7)
_cell_length_b                   10.7088(6)
_cell_length_c                   15.0404(11)
_cell_measurement_reflns_used    4443
_cell_measurement_temperature    293(2)
_cell_measurement_theta_max      26.2650
_cell_measurement_theta_min      3.6770
_cell_volume                     1361.15(17)
_computing_cell_refinement       'CrysAlisPro 1.171.39.33c (Rigaku OD, 2017)'
_computing_data_collection       'CrysAlisPro 1.171.39.33c (Rigaku OD, 2017)'
_computing_data_reduction        'CrysAlisPro 1.171.39.33c (Rigaku OD, 2017)'
_computing_molecular_graphics    SHELX
_computing_structure_refinement  'SHELXL-2018/3 (Sheldrick, 2018)'
_computing_structure_solution    'SHELXT 2014/5 (Sheldrick, 2014)'
_diffrn_ambient_temperature      293(2)
_diffrn_measured_fraction_theta_full 0.991
_diffrn_measured_fraction_theta_max 0.991
_diffrn_measurement_device_type
'SuperNova, Single source at offset/far, HyPix3000'
_diffrn_measurement_method       '\w scans'
_diffrn_radiation_type           MoK\a
_diffrn_radiation_wavelength     0.71073
_diffrn_reflns_av_R_equivalents  0.0986
_diffrn_reflns_av_unetI/netI     0.1039
_diffrn_reflns_Laue_measured_fraction_full 0.991
_diffrn_reflns_Laue_measured_fraction_max 0.991
_diffrn_reflns_limit_h_max       10
_diffrn_reflns_limit_h_min       -10
_diffrn_reflns_limit_k_max       12
_diffrn_reflns_limit_k_min       -12
_diffrn_reflns_limit_l_max       17
_diffrn_reflns_limit_l_min       -17
_diffrn_reflns_number            15488
_diffrn_reflns_point_group_measured_fraction_full 0.991
_diffrn_reflns_point_group_measured_fraction_max 0.991
_diffrn_reflns_theta_full        24.993
_diffrn_reflns_theta_max         24.993
_diffrn_reflns_theta_min         3.118
_diffrn_source                   'micro-focus sealed X-ray tube'
_exptl_absorpt_coefficient_mu    5.725
_exptl_absorpt_correction_T_max  1.00000
_exptl_absorpt_correction_T_min  0.53767
_exptl_absorpt_correction_type   multi-scan
_exptl_absorpt_process_details
;
CrysAlisPro 1.171.39.46 (Rigaku Oxford Diffraction, 2018)
Empirical absorption correction using spherical harmonics,
 implemented in SCALE3 ABSPACK scaling algorithm.
;
_exptl_crystal_colour            purple
_exptl_crystal_density_diffrn    2.187
_exptl_crystal_description       Block
_exptl_crystal_F_000             840
_exptl_crystal_size_max          0.480
_exptl_crystal_size_mid          0.360
_exptl_crystal_size_min          0.200
_refine_diff_density_max         1.613
_refine_diff_density_min         -0.811
_refine_diff_density_rms         0.174
_refine_ls_extinction_method     none
_refine_ls_goodness_of_fit_ref   1.037
_refine_ls_hydrogen_treatment    constr
_refine_ls_matrix_type           full
_refine_ls_number_parameters     340
_refine_ls_number_reflns         4767
_refine_ls_number_restraints     0
_refine_ls_restrained_S_all      1.037
_refine_ls_R_factor_all          0.1335
_refine_ls_R_factor_gt           0.0699
_refine_ls_shift/su_max          0.001
_refine_ls_shift/su_mean         0.000
_refine_ls_structure_factor_coef Fsqd
_refine_ls_weighting_details
'w=1/[\s^2^(Fo^2^)+(0.0805P)^2^] where P=(Fo^2^+2Fc^2^)/3'
_refine_ls_weighting_scheme      calc
_refine_ls_wR_factor_gt          0.1521
_refine_ls_wR_factor_ref         0.1709
_reflns_Friedel_coverage         0.000
_reflns_number_gt                2731
_reflns_number_total             4767
_reflns_threshold_expression     'I > 2\s(I)'
_cod_data_source_file            c8ce01877d2.cif
_cod_data_source_block           shelx_CCDC5
_cod_depositor_comments
'Adding full bibliography for 7232116--7232123.cif.'
_cod_database_code               7232121
_shelx_shelxl_version_number     2018/3
_shelx_space_group_comment
;
The symmetry employed for this shelxl refinement is uniquely defined
by the following loop, which should always be used as a source of
symmetry information in preference to the above space-group names.
They are only intended as comments.
;
_shelx_estimated_absorpt_t_min   0.170
_shelx_estimated_absorpt_t_max   0.394
_shelx_res_file
;
TITL rkm-z1_a.res in P-1
    shelx.res
    created by SHELXL-2018/3 at 19:49:11 on 23-Oct-2018
CELL  0.71073   8.8374  10.7088  15.0404   98.727  101.652   96.887
ZERR     1.00   0.0007   0.0006   0.0011    0.005    0.006    0.006
LATT   1
SFAC  C    H    BR   I    N    O    SN
UNIT  58 30 4 4 4 4 1
OMIT     0.00  50.00
OMIT    -5   2  17
OMIT    -1  -5  17
OMIT    -3   2  13
OMIT    -1   1   7
FMAP   2
PLAN   10
HTAB
SIZE     0.20   0.360   0.480
ACTA
BOND   $H
CONF
LIST   6
L.S.   20
WGHT    0.080500
FVAR       0.21014
SN1   7    0.500000    0.500000    0.500000    10.50000    0.04168    0.03919 =
         0.03772    0.00157    0.00574    0.01392
BR1   3    0.591741    0.912670    0.086941    11.00000    0.18177    0.11039 =
         0.11254    0.07058    0.05241    0.05355
BR2   3    0.702755    0.405859    0.093638    11.00000    0.11906    0.08434 =
         0.07763    0.00063    0.03635    0.03054
I1    4    1.273866   -0.051513    0.377107    11.00000    0.06643    0.06617 =
         0.06791    0.00764    0.01830    0.03236
I2    4   -0.118465    0.180097   -0.128801    11.00000    0.12140    0.10832 =
         0.05283   -0.00738   -0.01855    0.03430
N1    5    0.714032    0.465151    0.573422    11.00000    0.03758    0.03626 =
         0.05295    0.00733    0.00859    0.01669
N2    5    0.500071    0.349770    0.393184    11.00000    0.04046    0.03219 =
         0.03500   -0.00976    0.00514    0.01600
O1    6    0.623505    0.606528    0.422410    11.00000    0.05116    0.05996 =
         0.03475    0.01513    0.01403    0.01344
O2    6    0.522306    0.783499    0.414526    11.00000    0.09782    0.06156 =
         0.06667    0.01461    0.02444    0.03971
C1    1    0.786734    0.523600    0.659659    11.00000    0.04362    0.03225 =
         0.03701   -0.00293   -0.00491    0.00461
C2    1    0.922863    0.466841    0.684963    11.00000    0.04990    0.05056 =
         0.04058   -0.00220    0.00149    0.01734
AFIX  43
H2A   2    0.994404    0.488161    0.741532    11.00000   -1.20000
AFIX   0
C3    1    0.931231    0.378384    0.614638    11.00000    0.03756    0.05519 =
         0.04192    0.00152    0.00139    0.02387
AFIX  43
H3A   2    1.009905    0.328175    0.613318    11.00000   -1.20000
AFIX   0
C4    1    0.800075    0.373859    0.542339    11.00000    0.04826    0.03478 =
         0.05310    0.00402    0.02063    0.01518
C5    1    0.759740    0.293897    0.456301    11.00000    0.04025    0.03920 =
         0.04778    0.01099    0.01366    0.01213
C6    1    0.622754    0.284048    0.385840    11.00000    0.05498    0.03379 =
         0.03662    0.00033    0.00911    0.01513
C7    1    0.592474    0.213500    0.292862    11.00000    0.05780    0.04603 =
         0.05441   -0.00141    0.01744    0.02033
AFIX  43
H7A   2    0.657098    0.161192    0.269201    11.00000   -1.20000
AFIX   0
C8    1    0.455361    0.236099    0.246306    11.00000    0.06297    0.03943 =
         0.04510   -0.00545    0.00226    0.02163
AFIX  43
H8A   2    0.407366    0.201522    0.185130    11.00000   -1.20000
AFIX   0
C9    1    0.395823    0.323685    0.308243    11.00000    0.04001    0.03127 =
         0.04508   -0.00206    0.00418   -0.00440
C10   1    0.263749    0.380306    0.283746    11.00000    0.04022    0.03464 =
         0.03577   -0.00748   -0.01189    0.00732
C11   1    0.876478    0.208385    0.433293    11.00000    0.04247    0.04583 =
         0.03833   -0.00074    0.00180    0.00938
C12   1    1.027598    0.261370    0.439919    11.00000    0.05952    0.03781 =
         0.06619    0.00696    0.02179    0.01782
AFIX  43
H12A  2    1.056350    0.349529    0.457285    11.00000   -1.20000
AFIX   0
C13   1    1.138687    0.187107    0.421437    11.00000    0.05383    0.04227 =
         0.07228    0.01893    0.01795    0.00734
AFIX  43
H13A  2    1.242012    0.224285    0.428377    11.00000   -1.20000
AFIX   0
C14   1    1.094939    0.058922    0.392962    11.00000    0.05645    0.05152 =
         0.05448    0.01641    0.01905    0.02019
C15   1    0.945166    0.003821    0.382553    11.00000    0.05245    0.03898 =
         0.05855   -0.00673    0.00802    0.01938
AFIX  43
H15A  2    0.915982   -0.083515    0.360452    11.00000   -1.20000
AFIX   0
C16   1    0.835405    0.077532    0.404822    11.00000    0.03937    0.05334 =
         0.06195    0.00969    0.00276    0.00537
AFIX  43
H16A  2    0.733547    0.038966    0.400638    11.00000   -1.20000
AFIX   0
C17   1    0.167855    0.332839    0.189648    11.00000    0.05653    0.04384 =
         0.04051   -0.00182    0.00836    0.02087
C18   1    0.168560    0.409929    0.122339    11.00000    0.06468    0.05120 =
         0.04801    0.00228   -0.00043    0.00452
AFIX  43
H18A  2    0.225864    0.491895    0.138372    11.00000   -1.20000
AFIX   0
C19   1    0.088784    0.367904    0.036057    11.00000    0.09743    0.05662 =
         0.04088    0.01161    0.02413    0.01709
AFIX  43
H19A  2    0.093907    0.419086   -0.008306    11.00000   -1.20000
AFIX   0
C20   1   -0.002487    0.247508    0.011778    11.00000    0.09802    0.06498 =
         0.03120   -0.00763   -0.00643    0.03600
C21   1   -0.005807    0.170079    0.073968    11.00000    0.08569    0.04699 =
         0.05832    0.00373   -0.00338    0.00645
AFIX  43
H21A  2   -0.063866    0.088424    0.056856    11.00000   -1.20000
AFIX   0
C22   1    0.077387    0.212888    0.162906    11.00000    0.08043    0.05570 =
         0.05115    0.00664    0.00150    0.01000
AFIX  43
H22A  2    0.073023    0.160149    0.206375    11.00000   -1.20000
AFIX   0
C23   1    0.579656    0.696686    0.381860    11.00000    0.05757    0.04789 =
         0.04371    0.00787    0.01621    0.00955
C24   1    0.604951    0.682475    0.284427    11.00000    0.05041    0.05273 =
         0.05832    0.01220    0.00683    0.01307
C25   1    0.587836    0.787573    0.238002    11.00000    0.07112    0.06762 =
         0.05555    0.01182    0.00300    0.02230
AFIX  43
H25A  2    0.563671    0.863265    0.267017    11.00000   -1.20000
AFIX   0
C26   1    0.607349    0.774825    0.151644    11.00000    0.10184    0.07460 =
         0.05648    0.02444    0.02574    0.03501
C27   1    0.640963    0.663100    0.105073    11.00000    0.07796    0.08809 =
         0.05325    0.02647    0.01809    0.01691
AFIX  43
H27A  2    0.651450    0.655080    0.044259    11.00000   -1.20000
AFIX   0
C28   1    0.658353    0.562421    0.154921    11.00000    0.06573    0.07704 =
         0.06652    0.00159    0.02239    0.01125
C29   1    0.643844    0.575060    0.243006    11.00000    0.05755    0.06914 =
         0.05910    0.02059    0.02385    0.01904
AFIX  43
H29A  2    0.660936    0.508758    0.275377    11.00000   -1.20000
AFIX   0
HKLF    4




REM  rkm-z1_a.res in P-1
REM wR2 = 0.1709, GooF = S = 1.037, Restrained GooF = 1.037 for all data
REM R1 = 0.0699 for 2731 Fo > 4sig(Fo) and 0.1335 for all 4767 data
REM 340 parameters refined using 0 restraints

END

WGHT      0.0970      0.0000

REM Instructions for potential hydrogen bonds
EQIV $2 x+1, y, z
HTAB C13 N2_$2
EQIV $3 -x+2, -y+1, -z+1
HTAB C13 O1_$3
EQIV $4 -x+1, -y+1, -z
HTAB C19 Br2_$4

REM Highest difference peak  1.613,  deepest hole -0.811,  1-sigma level  0.174
Q1    1   1.1801 -0.1001  0.3155  11.00000  0.05    1.61
Q2    1   0.5045  0.4273  0.4438  11.00000  0.05    1.38
Q3    1   0.4098  0.4492  0.4441  11.00000  0.05    1.35
Q4    1  -0.2434  0.1454 -0.1094  11.00000  0.05    1.33
Q5    1   1.3808  0.0177  0.4398  11.00000  0.05    1.23
Q6    1  -0.0444  0.2411 -0.0735  11.00000  0.05    1.01
Q7    1   0.3927  0.4523  0.5192  11.00000  0.05    1.01
Q8    1  -0.2137  0.1383 -0.1967  11.00000  0.05    0.87
Q9    1   0.4882  0.4395  0.5383  11.00000  0.05    0.86
Q10   1   1.3948 -0.0018  0.3650  11.00000  0.05    0.84
;
_shelx_res_checksum              37992
loop_
_space_group_symop_operation_xyz
'x, y, z'
'-x, -y, -z'
loop_
_atom_site_label
_atom_site_type_symbol
_atom_site_fract_x
_atom_site_fract_y
_atom_site_fract_z
_atom_site_U_iso_or_equiv
_atom_site_adp_type
_atom_site_occupancy
_atom_site_site_symmetry_order
_atom_site_calc_flag
_atom_site_refinement_flags_posn
_atom_site_refinement_flags_adp
_atom_site_refinement_flags_occupancy
Sn1 Sn 0.500000 0.500000 0.500000 0.0399(3) Uani 1 2 d S . P
Br1 Br 0.5917(2) 0.91267(16) 0.08694(12) 0.1241(7) Uani 1 1 d . . .
Br2 Br 0.70276(19) 0.40586(13) 0.09364(10) 0.0919(5) Uani 1 1 d . . .
I1 I 1.27387(9) -0.05151(7) 0.37711(6) 0.0650(3) Uani 1 1 d . . .
I2 I -0.11847(12) 0.18010(10) -0.12880(6) 0.1007(4) Uani 1 1 d . . .
N1 N 0.7140(8) 0.4652(7) 0.5734(6) 0.042(2) Uani 1 1 d . . .
N2 N 0.5001(9) 0.3498(6) 0.3932(5) 0.0372(19) Uani 1 1 d . . .
O1 O 0.6235(7) 0.6065(6) 0.4224(4) 0.0469(17) Uani 1 1 d . . .
O2 O 0.5223(10) 0.7835(7) 0.4145(5) 0.072(2) Uani 1 1 d . . .
C1 C 0.7867(11) 0.5236(8) 0.6597(7) 0.041(2) Uani 1 1 d . . .
C2 C 0.9229(11) 0.4668(9) 0.6850(7) 0.049(3) Uani 1 1 d . . .
H2A H 0.994404 0.488161 0.741532 0.058 Uiso 1 1 calc R U .
C3 C 0.9312(11) 0.3784(9) 0.6146(7) 0.045(3) Uani 1 1 d . . .
H3A H 1.009905 0.328175 0.613318 0.054 Uiso 1 1 calc R U .
C4 C 0.8001(12) 0.3739(8) 0.5423(7) 0.044(3) Uani 1 1 d . . .
C5 C 0.7597(11) 0.2939(9) 0.4563(7) 0.041(2) Uani 1 1 d . . .
C6 C 0.6228(12) 0.2840(8) 0.3858(7) 0.042(2) Uani 1 1 d . . .
C7 C 0.5925(12) 0.2135(9) 0.2929(7) 0.052(3) Uani 1 1 d . . .
H7A H 0.657098 0.161192 0.269201 0.063 Uiso 1 1 calc R U .
C8 C 0.4554(12) 0.2361(9) 0.2463(7) 0.051(3) Uani 1 1 d . . .
H8A H 0.407366 0.201522 0.185130 0.061 Uiso 1 1 calc R U .
C9 C 0.3958(11) 0.3237(8) 0.3082(7) 0.041(2) Uani 1 1 d . . .
C10 C 0.2637(11) 0.3803(8) 0.2837(7) 0.041(2) Uani 1 1 d . . .
C11 C 0.8765(12) 0.2084(9) 0.4333(6) 0.044(3) Uani 1 1 d . . .
C12 C 1.0276(13) 0.2614(9) 0.4399(7) 0.053(3) Uani 1 1 d . . .
H12A H 1.056350 0.349529 0.457285 0.063 Uiso 1 1 calc R U .
C13 C 1.1387(12) 0.1871(10) 0.4214(8) 0.055(3) Uani 1 1 d . . .
H13A H 1.242012 0.224285 0.428377 0.066 Uiso 1 1 calc R U .
C14 C 1.0949(13) 0.0589(10) 0.3930(7) 0.051(3) Uani 1 1 d . . .
C15 C 0.9452(13) 0.0038(9) 0.3826(7) 0.051(3) Uani 1 1 d . . .
H15A H 0.915982 -0.083515 0.360452 0.062 Uiso 1 1 calc R U .
C16 C 0.8354(12) 0.0775(9) 0.4048(7) 0.053(3) Uani 1 1 d . . .
H16A H 0.733547 0.038966 0.400638 0.064 Uiso 1 1 calc R U .
C17 C 0.1679(12) 0.3328(9) 0.1896(7) 0.047(3) Uani 1 1 d . . .
C18 C 0.1686(13) 0.4099(10) 0.1223(8) 0.058(3) Uani 1 1 d . . .
H18A H 0.225864 0.491895 0.138372 0.069 Uiso 1 1 calc R U .
C19 C 0.0888(14) 0.3679(11) 0.0361(8) 0.063(3) Uani 1 1 d . . .
H19A H 0.093907 0.419086 -0.008306 0.076 Uiso 1 1 calc R U .
C20 C -0.0025(15) 0.2475(12) 0.0118(7) 0.068(3) Uani 1 1 d . . .
C21 C -0.0058(14) 0.1701(11) 0.0740(9) 0.067(3) Uani 1 1 d . . .
H21A H -0.063866 0.088424 0.056856 0.081 Uiso 1 1 calc R U .
C22 C 0.0774(14) 0.2129(10) 0.1629(8) 0.065(3) Uani 1 1 d . . .
H22A H 0.073023 0.160149 0.206375 0.078 Uiso 1 1 calc R U .
C23 C 0.5797(12) 0.6967(10) 0.3819(7) 0.049(3) Uani 1 1 d . . .
C24 C 0.6050(12) 0.6825(10) 0.2844(8) 0.054(3) Uani 1 1 d . . .
C25 C 0.5878(13) 0.7876(11) 0.2380(8) 0.065(3) Uani 1 1 d . . .
H25A H 0.563671 0.863265 0.267017 0.078 Uiso 1 1 calc R U .
C26 C 0.6073(15) 0.7748(12) 0.1516(9) 0.073(4) Uani 1 1 d . . .
C27 C 0.6410(13) 0.6631(12) 0.1051(9) 0.071(3) Uani 1 1 d . . .
H27A H 0.651450 0.655080 0.044259 0.085 Uiso 1 1 calc R U .
C28 C 0.6584(13) 0.5624(11) 0.1549(9) 0.070(3) Uani 1 1 d . . .
C29 C 0.6438(12) 0.5751(11) 0.2430(8) 0.059(3) Uani 1 1 d . . .
H29A H 0.660936 0.508758 0.275377 0.070 Uiso 1 1 calc R U .
loop_
_atom_site_aniso_label
_atom_site_aniso_U_11
_atom_site_aniso_U_22
_atom_site_aniso_U_33
_atom_site_aniso_U_23
_atom_site_aniso_U_13
_atom_site_aniso_U_12
Sn1 0.0417(6) 0.0392(6) 0.0377(6) 0.0016(4) 0.0057(5) 0.0139(4)
Br1 0.1818(18) 0.1104(13) 0.1125(14) 0.0706(11) 0.0524(13) 0.0536(12)
Br2 0.1191(12) 0.0843(10) 0.0776(11) 0.0006(8) 0.0363(9) 0.0305(8)
I1 0.0664(6) 0.0662(5) 0.0679(6) 0.0076(4) 0.0183(5) 0.0324(4)
I2 0.1214(9) 0.1083(8) 0.0528(6) -0.0074(5) -0.0185(6) 0.0343(6)
N1 0.038(5) 0.036(5) 0.053(6) 0.007(4) 0.009(4) 0.017(4)
N2 0.040(5) 0.032(4) 0.035(5) -0.010(4) 0.005(4) 0.016(3)
O1 0.051(4) 0.060(4) 0.035(4) 0.015(3) 0.014(3) 0.013(3)
O2 0.098(6) 0.062(5) 0.067(6) 0.015(4) 0.024(5) 0.040(5)
C1 0.044(6) 0.032(5) 0.037(6) -0.003(5) -0.005(5) 0.005(5)
C2 0.050(7) 0.051(6) 0.041(7) -0.002(5) 0.001(5) 0.017(5)
C3 0.038(6) 0.055(7) 0.042(7) 0.002(5) 0.001(5) 0.024(5)
C4 0.048(7) 0.035(6) 0.053(7) 0.004(5) 0.021(6) 0.015(5)
C5 0.040(6) 0.039(6) 0.048(7) 0.011(5) 0.014(5) 0.012(5)
C6 0.055(7) 0.034(5) 0.037(6) 0.000(5) 0.009(6) 0.015(5)
C7 0.058(7) 0.046(6) 0.054(8) -0.001(5) 0.017(6) 0.020(5)
C8 0.063(8) 0.039(6) 0.045(7) -0.005(5) 0.002(6) 0.022(5)
C9 0.040(6) 0.031(5) 0.045(7) -0.002(5) 0.004(5) -0.004(5)
C10 0.040(6) 0.035(5) 0.036(6) -0.007(5) -0.012(5) 0.007(4)
C11 0.042(7) 0.046(6) 0.038(6) -0.001(5) 0.002(5) 0.009(5)
C12 0.060(8) 0.038(6) 0.066(8) 0.007(5) 0.022(6) 0.018(6)
C13 0.054(7) 0.042(7) 0.072(8) 0.019(6) 0.018(6) 0.007(5)
C14 0.056(8) 0.052(7) 0.054(7) 0.016(6) 0.019(6) 0.020(6)
C15 0.052(7) 0.039(6) 0.059(8) -0.007(5) 0.008(6) 0.019(5)
C16 0.039(6) 0.053(7) 0.062(8) 0.010(6) 0.003(6) 0.005(5)
C17 0.057(7) 0.044(6) 0.041(7) -0.002(5) 0.008(6) 0.021(5)
C18 0.065(8) 0.051(7) 0.048(8) 0.002(6) 0.000(6) 0.005(5)
C19 0.097(10) 0.057(8) 0.041(7) 0.012(6) 0.024(7) 0.017(7)
C20 0.098(10) 0.065(8) 0.031(7) -0.008(6) -0.006(6) 0.036(7)
C21 0.086(9) 0.047(7) 0.058(9) 0.004(6) -0.003(7) 0.006(6)
C22 0.080(9) 0.056(7) 0.051(8) 0.007(6) 0.002(7) 0.010(6)
C23 0.058(7) 0.048(7) 0.044(7) 0.008(6) 0.016(6) 0.010(6)
C24 0.050(7) 0.053(7) 0.058(8) 0.012(6) 0.007(6) 0.013(5)
C25 0.071(8) 0.068(8) 0.056(8) 0.012(7) 0.003(7) 0.022(6)
C26 0.102(10) 0.075(9) 0.056(9) 0.024(7) 0.026(8) 0.035(8)
C27 0.078(9) 0.088(9) 0.053(8) 0.026(8) 0.018(7) 0.017(7)
C28 0.066(8) 0.077(9) 0.067(9) 0.002(7) 0.022(7) 0.011(6)
C29 0.058(7) 0.069(8) 0.059(8) 0.021(7) 0.024(7) 0.019(6)
loop_
_atom_type_symbol
_atom_type_description
_atom_type_scat_dispersion_real
_atom_type_scat_dispersion_imag
_atom_type_scat_source
C C 0.0033 0.0016 'International Tables Vol C Tables 4.2.6.8 and 6.1.1.4'
H H 0.0000 0.0000 'International Tables Vol C Tables 4.2.6.8 and 6.1.1.4'
Br Br -0.2901 2.4595 'International Tables Vol C Tables 4.2.6.8 and 6.1.1.4'
I I -0.4742 1.8119 'International Tables Vol C Tables 4.2.6.8 and 6.1.1.4'
N N 0.0061 0.0033 'International Tables Vol C Tables 4.2.6.8 and 6.1.1.4'
O O 0.0106 0.0060 'International Tables Vol C Tables 4.2.6.8 and 6.1.1.4'
Sn Sn -0.6537 1.4246 'International Tables Vol C Tables 4.2.6.8 and 6.1.1.4'
loop_
_geom_angle_atom_site_label_1
_geom_angle_atom_site_label_2
_geom_angle_atom_site_label_3
_geom_angle
_geom_angle_site_symmetry_1
_geom_angle_site_symmetry_3
N2 Sn1 N2 180.0 . 2_666
N2 Sn1 N1 90.2(3) . .
N2 Sn1 N1 89.8(3) 2_666 .
N2 Sn1 N1 89.8(3) . 2_666
N2 Sn1 N1 90.2(3) 2_666 2_666
N1 Sn1 N1 180.0 . 2_666
N2 Sn1 O1 82.2(3) . .
N2 Sn1 O1 97.8(3) 2_666 .
N1 Sn1 O1 88.9(3) . .
N1 Sn1 O1 91.1(3) 2_666 .
N2 Sn1 O1 97.8(3) . 2_666
N2 Sn1 O1 82.2(3) 2_666 2_666
N1 Sn1 O1 91.1(3) . 2_666
N1 Sn1 O1 88.9(3) 2_666 2_666
O1 Sn1 O1 180.0(3) . 2_666
C1 N1 C4 109.1(8) . .
C1 N1 Sn1 125.4(6) . .
C4 N1 Sn1 125.4(7) . .
C6 N2 C9 107.9(7) . .
C6 N2 Sn1 125.5(6) . .
C9 N2 Sn1 124.6(6) . .
C23 O1 Sn1 127.3(6) . .
N1 C1 C10 127.0(8) . 2_666
N1 C1 C2 107.1(8) . .
C10 C1 C2 125.9(9) 2_666 .
C3 C2 C1 108.9(9) . .
C3 C2 H2A 125.5 . .
C1 C2 H2A 125.5 . .
C2 C3 C4 108.1(9) . .
C2 C3 H3A 125.9 . .
C4 C3 H3A 125.9 . .
N1 C4 C5 125.3(9) . .
N1 C4 C3 106.7(9) . .
C5 C4 C3 128.0(9) . .
C4 C5 C6 127.8(9) . .
C4 C5 C11 116.8(9) . .
C6 C5 C11 115.4(9) . .
N2 C6 C5 125.0(8) . .
N2 C6 C7 107.9(8) . .
C5 C6 C7 126.9(9) . .
C8 C7 C6 108.4(9) . .
C8 C7 H7A 125.8 . .
C6 C7 H7A 125.8 . .
C7 C8 C9 107.6(9) . .
C7 C8 H8A 126.2 . .
C9 C8 H8A 126.2 . .
N2 C9 C10 126.3(9) . .
N2 C9 C8 108.2(8) . .
C10 C9 C8 125.3(9) . .
C9 C10 C1 126.2(9) . 2_666
C9 C10 C17 116.0(8) . .
C1 C10 C17 117.8(8) 2_666 .
C12 C11 C16 118.2(9) . .
C12 C11 C5 119.4(9) . .
C16 C11 C5 122.3(9) . .
C11 C12 C13 121.5(10) . .
C11 C12 H12A 119.3 . .
C13 C12 H12A 119.3 . .
C14 C13 C12 119.0(10) . .
C14 C13 H13A 120.5 . .
C12 C13 H13A 120.5 . .
C15 C14 C13 121.0(9) . .
C15 C14 I1 121.6(7) . .
C13 C14 I1 117.2(8) . .
C14 C15 C16 119.9(9) . .
C14 C15 H15A 120.1 . .
C16 C15 H15A 120.1 . .
C15 C16 C11 120.3(9) . .
C15 C16 H16A 119.9 . .
C11 C16 H16A 119.9 . .
C22 C17 C18 117.2(10) . .
C22 C17 C10 123.1(9) . .
C18 C17 C10 119.6(9) . .
C19 C18 C17 121.1(10) . .
C19 C18 H18A 119.5 . .
C17 C18 H18A 119.5 . .
C18 C19 C20 120.2(10) . .
C18 C19 H19A 119.9 . .
C20 C19 H19A 119.9 . .
C21 C20 C19 120.7(11) . .
C21 C20 I2 120.2(9) . .
C19 C20 I2 118.8(9) . .
C20 C21 C22 119.2(11) . .
C20 C21 H21A 120.4 . .
C22 C21 H21A 120.4 . .
C21 C22 C17 121.6(10) . .
C21 C22 H22A 119.2 . .
C17 C22 H22A 119.2 . .
O2 C23 O1 125.4(10) . .
O2 C23 C24 122.0(10) . .
O1 C23 C24 112.5(9) . .
C29 C24 C25 120.5(11) . .
C29 C24 C23 121.6(10) . .
C25 C24 C23 117.9(10) . .
C26 C25 C24 118.2(11) . .
C26 C25 H25A 120.9 . .
C24 C25 H25A 120.9 . .
C25 C26 C27 122.9(11) . .
C25 C26 Br1 120.4(10) . .
C27 C26 Br1 116.7(10) . .
C26 C27 C28 116.4(11) . .
C26 C27 H27A 121.8 . .
C28 C27 H27A 121.8 . .
C29 C28 C27 121.4(11) . .
C29 C28 Br2 120.5(10) . .
C27 C28 Br2 118.1(10) . .
C24 C29 C28 120.4(11) . .
C24 C29 H29A 119.8 . .
C28 C29 H29A 119.8 . .
loop_
_geom_bond_atom_site_label_1
_geom_bond_atom_site_label_2
_geom_bond_distance
_geom_bond_site_symmetry_2
Sn1 N2 2.094(7) .
Sn1 N2 2.094(7) 2_666
Sn1 N1 2.095(7) .
Sn1 N1 2.095(7) 2_666
Sn1 O1 2.115(6) .
Sn1 O1 2.115(6) 2_666
Br1 C26 1.891(11) .
Br2 C28 1.910(12) .
I1 C14 2.114(10) .
I2 C20 2.127(11) .
N1 C1 1.344(11) .
N1 C4 1.391(11) .
N2 C6 1.375(11) .
N2 C9 1.383(11) .
O1 C23 1.276(11) .
O2 C23 1.199(11) .
C1 C10 1.407(13) 2_666
C1 C2 1.422(12) .
C2 C3 1.329(12) .
C2 H2A 0.9300 .
C3 C4 1.411(13) .
C3 H3A 0.9300 .
C4 C5 1.393(13) .
C5 C6 1.420(13) .
C5 C11 1.516(12) .
C6 C7 1.441(13) .
C7 C8 1.340(13) .
C7 H7A 0.9300 .
C8 C9 1.441(13) .
C8 H8A 0.9300 .
C9 C10 1.389(12) .
C10 C17 1.474(13) .
C11 C12 1.365(13) .
C11 C16 1.383(12) .
C12 C13 1.380(13) .
C12 H12A 0.9300 .
C13 C14 1.358(13) .
C13 H13A 0.9300 .
C14 C15 1.351(13) .
C15 C16 1.382(13) .
C15 H15A 0.9300 .
C16 H16A 0.9300 .
C17 C22 1.385(13) .
C17 C18 1.400(13) .
C18 C19 1.327(14) .
C18 H18A 0.9300 .
C19 C20 1.391(15) .
C19 H19A 0.9300 .
C20 C21 1.343(14) .
C21 C22 1.370(15) .
C21 H21A 0.9300 .
C22 H22A 0.9300 .
C23 C24 1.514(15) .
C24 C29 1.339(14) .
C24 C25 1.419(14) .
C25 C26 1.333(15) .
C25 H25A 0.9300 .
C26 C27 1.388(16) .
C27 C28 1.409(15) .
C27 H27A 0.9300 .
C28 C29 1.345(15) .
C29 H29A 0.9300 .
loop_
_geom_torsion_atom_site_label_1
_geom_torsion_atom_site_label_2
_geom_torsion_atom_site_label_3
_geom_torsion_atom_site_label_4
_geom_torsion
_geom_torsion_site_symmetry_1
_geom_torsion_site_symmetry_4
C4 N1 C1 C10 -178.6(9) . 2_666
Sn1 N1 C1 C10 -1.2(14) . 2_666
C4 N1 C1 C2 -0.7(10) . .
Sn1 N1 C1 C2 176.7(6) . .
N1 C1 C2 C3 0.9(11) . .
C10 C1 C2 C3 178.9(9) 2_666 .
C1 C2 C3 C4 -0.8(11) . .
C1 N1 C4 C5 179.4(9) . .
Sn1 N1 C4 C5 2.1(13) . .
C1 N1 C4 C3 0.2(10) . .
Sn1 N1 C4 C3 -177.2(6) . .
C2 C3 C4 N1 0.4(11) . .
C2 C3 C4 C5 -178.8(9) . .
N1 C4 C5 C6 -3.4(15) . .
C3 C4 C5 C6 175.7(9) . .
N1 C4 C5 C11 175.3(8) . .
C3 C4 C5 C11 -5.6(14) . .
C9 N2 C6 C5 174.8(8) . .
Sn1 N2 C6 C5 10.3(12) . .
C9 N2 C6 C7 -0.6(10) . .
Sn1 N2 C6 C7 -165.0(6) . .
C4 C5 C6 N2 -3.4(15) . .
C11 C5 C6 N2 177.9(8) . .
C4 C5 C6 C7 171.1(9) . .
C11 C5 C6 C7 -7.6(13) . .
N2 C6 C7 C8 -0.3(11) . .
C5 C6 C7 C8 -175.5(9) . .
C6 C7 C8 C9 1.0(11) . .
C6 N2 C9 C10 -173.5(9) . .
Sn1 N2 C9 C10 -8.9(13) . .
C6 N2 C9 C8 1.1(10) . .
Sn1 N2 C9 C8 165.8(6) . .
C7 C8 C9 N2 -1.3(11) . .
C7 C8 C9 C10 173.4(9) . .
N2 C9 C10 C1 1.3(16) . 2_666
C8 C9 C10 C1 -172.5(9) . 2_666
N2 C9 C10 C17 -177.9(8) . .
C8 C9 C10 C17 8.3(14) . .
C4 C5 C11 C12 -54.0(12) . .
C6 C5 C11 C12 124.9(10) . .
C4 C5 C11 C16 126.6(10) . .
C6 C5 C11 C16 -54.6(12) . .
C16 C11 C12 C13 -1.8(16) . .
C5 C11 C12 C13 178.7(9) . .
C11 C12 C13 C14 2.3(16) . .
C12 C13 C14 C15 0.1(16) . .
C12 C13 C14 I1 -174.8(8) . .
C13 C14 C15 C16 -2.8(16) . .
I1 C14 C15 C16 171.8(8) . .
C14 C15 C16 C11 3.2(16) . .
C12 C11 C16 C15 -1.0(15) . .
C5 C11 C16 C15 178.5(9) . .
C9 C10 C17 C22 71.1(13) . .
C1 C10 C17 C22 -108.2(11) 2_666 .
C9 C10 C17 C18 -107.7(10) . .
C1 C10 C17 C18 73.1(12) 2_666 .
C22 C17 C18 C19 -1.7(16) . .
C10 C17 C18 C19 177.1(10) . .
C17 C18 C19 C20 2.6(17) . .
C18 C19 C20 C21 -3.0(18) . .
C18 C19 C20 I2 -176.7(9) . .
C19 C20 C21 C22 2.4(18) . .
I2 C20 C21 C22 176.1(9) . .
C20 C21 C22 C17 -1.6(18) . .
C18 C17 C22 C21 1.2(16) . .
C10 C17 C22 C21 -177.6(10) . .
Sn1 O1 C23 O2 45.2(15) . .
Sn1 O1 C23 C24 -133.8(7) . .
O2 C23 C24 C29 -168.5(11) . .
O1 C23 C24 C29 10.5(14) . .
O2 C23 C24 C25 12.2(16) . .
O1 C23 C24 C25 -168.8(9) . .
C29 C24 C25 C26 1.8(17) . .
C23 C24 C25 C26 -178.9(11) . .
C24 C25 C26 C27 1.1(19) . .
C24 C25 C26 Br1 -178.3(8) . .
C25 C26 C27 C28 -1.8(19) . .
Br1 C26 C27 C28 177.6(8) . .
C26 C27 C28 C29 -0.4(17) . .
C26 C27 C28 Br2 179.4(9) . .
C25 C24 C29 C28 -3.9(17) . .
C23 C24 C29 C28 176.8(10) . .
C27 C28 C29 C24 3.2(18) . .
Br2 C28 C29 C24 -176.6(8) . .
