#------------------------------------------------------------------------------
#$Date: 2021-07-05 20:08:56 +0300 (Mon, 05 Jul 2021) $
#$Revision: 267117 $
#$URL: file:///home/coder/svn-repositories/cod/cif/7/24/26/7242698.cif $
#------------------------------------------------------------------------------
#
# This file is available in the Crystallography Open Database (COD),
# http://www.crystallography.net/
#
# All data on this site have been placed in the public domain by the
# contributors.
#
data_7242698
loop_
_publ_author_name
'Takahashi, Yukihiro'
'Ishida, Kenshiro'
'Matsuno, Sarasa'
'Kurokawa, Masashi'
'Shimada, Takuro'
'Harada, Jun'
'Inabe, Tamotsu'
_publ_section_title
;
 Charge injection phenomena at the contact interface between
 (5,10,15,20-tetramethylporphyrinato)cobalt(ii) and
 2,5-difluoro-7,7,8,8-tetracyanoquinodimethane single crystals
;
_journal_issue                   22
_journal_name_full               CrystEngComm
_journal_page_first              3975
_journal_page_last               3980
_journal_paper_doi               10.1039/D1CE00299F
_journal_volume                  23
_journal_year                    2021
_chemical_formula_moiety         'C24 H20 Co N4'
_chemical_formula_sum            'C24 H20 Co N4'
_chemical_formula_weight         423.37
_space_group_crystal_system      monoclinic
_space_group_IT_number           14
_space_group_name_Hall           '-P 2ybc'
_space_group_name_H-M_alt        'P 1 21/c 1'
_atom_sites_solution_hydrogens   geom
_atom_sites_solution_primary     direct
_audit_creation_date             2014-12-24
_audit_creation_method
;
Olex2 1.2
(compiled 2014.11.28 svn.r3106 for OlexSys, GUI svn.r4959)
;
_audit_update_record
;
2021-02-26 deposited with the CCDC.	2021-04-23 downloaded from the CCDC.
;
_cell_angle_alpha                90
_cell_angle_beta                 105.333(5)
_cell_angle_gamma                90
_cell_formula_units_Z            2
_cell_length_a                   11.385(4)
_cell_length_b                   5.4371(18)
_cell_length_c                   14.320(5)
_cell_measurement_reflns_used    3512
_cell_measurement_temperature    100
_cell_measurement_theta_max      27.491
_cell_measurement_theta_min      2.950
_cell_volume                     854.9(5)
_computing_cell_refinement       'Bruker SAINT v8.34A (Bruker, 2013)'
_computing_data_collection       'Bruker APEX2 2014.1-1 (Bruker, 2014)'
_computing_data_reduction        'Bruker SAINT v8.34A (Bruker, 2013)'
_computing_molecular_graphics    'Mercury (Macrae et al., 2006)'
_computing_publication_material  'Olex2 (Dolomanov et al., 2009)'
_computing_structure_refinement  'SHELXL-2014 (Sheldrick, 2008)'
_computing_structure_solution    'ShelXT (Sheldrick, 2008)'
_diffrn_ambient_temperature      100
_diffrn_detector_area_resol_mean 8.3333
_diffrn_measured_fraction_theta_full 0.999
_diffrn_measured_fraction_theta_max 0.993
_diffrn_measurement_device_type  'Bruker SMART APEXII Ultra'
_diffrn_measurement_method       '\f and \w scans'
_diffrn_radiation_type           MoK\a
_diffrn_radiation_wavelength     0.71073
_diffrn_reflns_av_R_equivalents  0.0672
_diffrn_reflns_av_unetI/netI     0.0527
_diffrn_reflns_Laue_measured_fraction_full 0.999
_diffrn_reflns_Laue_measured_fraction_max 0.993
_diffrn_reflns_limit_h_max       14
_diffrn_reflns_limit_h_min       -14
_diffrn_reflns_limit_k_max       7
_diffrn_reflns_limit_k_min       0
_diffrn_reflns_limit_l_max       18
_diffrn_reflns_limit_l_min       0
_diffrn_reflns_number            13230
_diffrn_reflns_point_group_measured_fraction_full 0.999
_diffrn_reflns_point_group_measured_fraction_max 0.993
_diffrn_reflns_theta_full        25.242
_diffrn_reflns_theta_max         27.548
_diffrn_reflns_theta_min         1.855
_diffrn_source                   'rotating-anode X-ray tube'
_diffrn_standards_number         0
_exptl_absorpt_coefficient_mu    1.024
_exptl_absorpt_correction_T_max  0.965118
_exptl_absorpt_correction_T_min  0.786281
_exptl_absorpt_correction_type   multi-scan
_exptl_absorpt_process_details
;
 TWINABS-2012/1 (Bruker,2012) was used for absorption correction.
 
For component 1:
 wR2(int) was 0.0924 before and 0.0754 after correction.
 The Ratio of minimum to maximum transmission is 0.81.
 The \l/2 correction factor is Not present

Final HKLF 4 output contains 13230 reflections, Rint = 0.0672
 (6187 with I > 3sig(I), Rint = 0.0527)
;
_exptl_crystal_colour            black
_exptl_crystal_colour_primary    black
_exptl_crystal_density_diffrn    1.645
_exptl_crystal_description       needle
_exptl_crystal_F_000             438
_exptl_crystal_size_max          0.14
_exptl_crystal_size_mid          0.04
_exptl_crystal_size_min          0.01
_refine_diff_density_max         1.528
_refine_diff_density_min         -0.742
_refine_diff_density_rms         0.124
_refine_ls_extinction_method     none
_refine_ls_goodness_of_fit_ref   1.091
_refine_ls_hydrogen_treatment    constr
_refine_ls_matrix_type           full
_refine_ls_number_parameters     135
_refine_ls_number_reflns         1954
_refine_ls_number_restraints     0
_refine_ls_restrained_S_all      1.091
_refine_ls_R_factor_all          0.0818
_refine_ls_R_factor_gt           0.0593
_refine_ls_shift/su_max          0.000
_refine_ls_shift/su_mean         0.000
_refine_ls_structure_factor_coef Fsqd
_refine_ls_weighting_details
'w=1/[\s^2^(Fo^2^)+(0.0378P)^2^+4.8454P] where P=(Fo^2^+2Fc^2^)/3'
_refine_ls_weighting_scheme      calc
_refine_ls_wR_factor_gt          0.1303
_refine_ls_wR_factor_ref         0.1394
_reflns_Friedel_coverage         0.000
_reflns_number_gt                1519
_reflns_number_total             1954
_reflns_threshold_expression     'I > 2\s(I)'
_cod_data_source_file            d1ce00299f2.cif
_cod_data_source_block           Co(tmp)_100K
_cod_depositor_comments          'Adding full bibliography for 7242698.cif.'
_cod_database_code               7242698
_shelxl_version_number           2014/6
_shelx_space_group_comment
;
The symmetry employed for this shelxl refinement is uniquely defined
by the following loop, which should always be used as a source of
symmetry information in preference to the above space-group names.
They are only intended as comments.
;
_shelx_estimated_absorpt_t_max   0.990
_shelx_estimated_absorpt_t_min   0.870
_olex2_refinement_description
;
1. Fixed Uiso
 At 1.2 times of:
  All C(H) groups
 At 1.5 times of:
  All C(H,H,H) groups
2.a Aromatic/amide H refined with riding coordinates:
 C2(H2), C3(H3), C7(H7), C8(H8)
2.b Idealised Me refined as rotating group:
 C11(H11A,H11B,H11C), C12(H12A,H12B,H12C)
;
_shelx_res_file
;
TITL Co(tmp)_100K_a.res in P2(1)/c
CELL  0.71073  11.3851   5.4371  14.3201   90.000  105.333   90.000
ZERR    2.000   0.0037   0.0018   0.0047    0.000    0.005    0.000
LATT  1
SYMM -X, 1/2+Y, 1/2-Z
SFAC C H N CO
UNIT 48 40 8 2
TEMP -173
SIZE 0.01 0.04 0.14
L.S. 5
BOND $H
CONF
ACTA
LIST 4
FMAP 2
PLAN 20
MERG 0
WGHT    0.037800    4.845400
FVAR       0.16449
CO1   4    0.500000    0.000000    0.500000    10.50000    0.01154    0.01140 =
         0.00475    0.00056    0.00243   -0.00061
N1    3    0.320817    0.006310    0.454115    11.00000    0.01545    0.00893 =
         0.00495   -0.00075    0.00390    0.00016
N2    3    0.508899    0.288109    0.419540    11.00000    0.01472    0.00863 =
         0.00456   -0.00165    0.00280   -0.00243
C1    1    0.238608   -0.143973    0.483524    11.00000    0.01414    0.01311 =
         0.00963   -0.00257    0.00411   -0.00263
C2    1    0.116111   -0.079773    0.432930    11.00000    0.01376    0.01999 =
         0.01836   -0.00655    0.00552   -0.00282
AFIX  43
H2    2    0.043871   -0.153291    0.441278    11.00000   -1.20000
AFIX   0
C3    1    0.122478    0.104603    0.371204    11.00000    0.01204    0.02099 =
         0.01326   -0.00541   -0.00142    0.00205
AFIX  43
H3    2    0.055650    0.182085    0.326988    11.00000   -1.20000
AFIX   0
C4    1    0.249238    0.161746    0.384889    11.00000    0.01564    0.01458 =
         0.00827   -0.00453    0.00119    0.00251
C5    1    0.291075    0.356600    0.340089    11.00000    0.02035    0.01625 =
         0.00718   -0.00112    0.00388    0.00596
C6    1    0.413229    0.420858    0.361848    11.00000    0.02318    0.01066 =
         0.00341    0.00007    0.00476    0.00250
C7    1    0.457259    0.634213    0.323342    11.00000    0.02866    0.01279 =
         0.00347    0.00162    0.00412    0.00227
AFIX  43
H7    2    0.409117    0.756389    0.283445    11.00000   -1.20000
AFIX   0
C8    1    0.579377    0.629470    0.354146    11.00000    0.02965    0.00867 =
         0.00788   -0.00039    0.00889   -0.00262
AFIX  43
H8    2    0.633928    0.747564    0.340294    11.00000   -1.20000
AFIX   0
C9    1    0.611822    0.411111    0.412198    11.00000    0.02273    0.01103 =
         0.00564   -0.00282    0.00792   -0.00558
C10   1    0.731077    0.338854    0.451333    11.00000    0.01759    0.01753 =
         0.00951   -0.00796    0.00693   -0.00729
C11   1    0.201967    0.508255    0.265944    11.00000    0.02147    0.02540 =
         0.01173    0.00186    0.00083    0.00680
AFIX 137
H11A  2    0.233628    0.533474    0.209335    11.00000   -1.50000
H11B  2    0.190572    0.667958    0.294049    11.00000   -1.50000
H11C  2    0.123702    0.422049    0.246186    11.00000   -1.50000
AFIX   0
C12   1    0.831263    0.482734    0.424085    11.00000    0.02258    0.01990 =
         0.01861   -0.00667    0.01040   -0.00913
AFIX 137
H12A  2    0.906189    0.384807    0.439128    11.00000   -1.50000
H12B  2    0.845732    0.636771    0.460887    11.00000   -1.50000
H12C  2    0.806597    0.519584    0.354635    11.00000   -1.50000
AFIX   0
HKLF 4

REM  Co(tmp)_100K_a.res in P2(1)/c
REM R1 =  0.0593 for    1519 Fo > 4sig(Fo)  and  0.0818 for all    1954 data
REM    135 parameters refined using      0 restraints

END

WGHT      0.0378      4.8454

REM Highest difference peak  1.528,  deepest hole -0.742,  1-sigma level  0.124
Q1    1   0.4151  0.0122  0.4876  11.00000  0.05    1.53
Q2    1   0.5006  0.1757  0.4990  11.00000  0.05    0.97
Q3    1   0.2653 -0.0073  0.4722  11.00000  0.05    0.60
Q4    1   0.4043  0.5718  0.3499  11.00000  0.05    0.53
Q5    1   0.6004  0.4878  0.3689  11.00000  0.05    0.50
Q6    1   0.3482  0.4037  0.3515  11.00000  0.05    0.46
Q7    1   0.5707  0.1661  0.5094  11.00000  0.05    0.45
Q8    1   0.1429  0.5745  0.2797  11.00000  0.05    0.44
Q9    1   0.1756 -0.1187  0.4534  11.00000  0.05    0.43
Q10   1   0.5960  0.5590  0.4013  11.00000  0.05    0.43
Q11   1   0.5856  0.2671  0.4160  11.00000  0.05    0.43
Q12   1   0.4434  0.2080  0.4707  11.00000  0.05    0.42
Q13   1   0.4645  0.1018  0.3370  11.00000  0.05    0.41
Q14   1   0.5210  0.4295  0.4005  11.00000  0.05    0.40
Q15   1   0.4989  0.1424  0.4190  11.00000  0.05    0.40
Q16   1   0.2782  0.0812  0.4177  11.00000  0.05    0.39
Q17   1   0.7841  0.3660  0.4219  11.00000  0.05    0.39
Q18   1   0.4545  0.8910  0.3356  11.00000  0.05    0.39
Q19   1   0.1915  0.1453  0.3774  11.00000  0.05    0.38
Q20   1   0.2605  0.2754  0.3997  11.00000  0.05    0.37
;
_shelx_res_checksum              70377
_shelx_hkl_file
;
   1   0   0  339.50   14.05
   2   0   0    1.07    0.12
   3   0   0  237.61    6.24
   4   0   0   64.92    1.74
   5   0   0   65.94    1.78
   6   0   0    4.34    0.27
   7   0   0    4.43    0.28
   8   0   0   47.62    1.34
   9   0   0   19.48    0.67
  10   0   0   32.25    1.31
  11   0   0   30.63    1.53
  12   0   0   16.51    1.08
  13   0   0   20.34    1.85
  14   0   0    1.61    1.27
   0   1   0    0.02    0.09
   1   1   0    0.06    0.08
   2   1   0    0.71    0.09
   3   1   0    0.46    0.10
   4   1   0    2.95    0.16
   5   1   0    3.47    0.16
   6   1   0    0.18    0.13
   7   1   0    0.49    0.14
   8   1   0    5.24    0.26
   9   1   0    5.23    0.32
  10   1   0    3.02    0.28
  11   1   0    0.88    0.33
  12   1   0    0.75    0.47
  13   1   0    1.94    0.56
  14   1   0    2.29    0.87
   0   2   0  143.62    3.79
   1   2   0    9.18    0.21
   2   2   0    4.77    0.15
   3   2   0   38.88    0.79
   4   2   0    2.78    0.18
   5   2   0    4.69    0.20
   6   2   0   44.21    0.92
   7   2   0   11.11    0.37
   8   2   0    0.64    0.29
   9   2   0    3.37    0.35
  10   2   0   27.49    0.91
  11   2   0   13.90    0.58
  12   2   0    4.70    0.46
  13   2   0    5.28    0.58
   0   3   0    0.03    0.17
   1   3   0    0.24    0.11
   2   3   0    2.39    0.14
   3   3   0    0.69    0.12
   4   3   0    0.11    0.13
   5   3   0    0.49    0.19
   6   3   0    2.33    0.25
   7   3   0    0.16    0.27
   8   3   0    1.46    0.31
   9   3   0    1.75    0.35
  10   3   0    1.20    0.39
  11   3   0    0.63    0.42
  12   3   0    0.45    0.48
   0   4   0    0.42    0.18
   1   4   0   10.27    0.26
   2   4   0   17.76    0.39
   3   4   0   21.87    0.50
   4   4   0   16.62    0.58
   5   4   0   13.26    0.47
   6   4   0   86.33    2.14
   7   4   0   43.01    1.15
   8   4   0    0.38    0.32
   9   4   0   12.74    0.56
  10   4   0   14.94    0.64
  11   4   0    6.93    0.52
   0   5   0    0.14    0.51
   1   5   0    0.74    0.34
   2   5   0    0.55    0.19
   3   5   0    0.01    0.30
   4   5   0    0.18    0.34
   5   5   0    1.24    0.34
   6   5   0    0.14    0.53
   7   5   0    0.40    0.38
   8   5   0    0.74    0.39
   9   5   0    0.49    0.45
  10   5   0    0.17    0.36
   0   6   0   23.74    1.86
   1   6   0   10.00    0.71
   2   6   0    2.13    0.57
   3   6   0    5.98    0.56
   4   6   0   45.52    1.50
   5   6   0   10.47    0.49
   6   6   0    9.47    0.51
   7   6   0    5.73    0.48
   0   7   0    1.60    1.13
   1   7   0    2.11    1.24
   2   7   0    0.00    1.30
 -14   0   1    1.01    0.85
 -13   0   1    0.92    0.68
 -12   0   1    0.18    0.42
 -11   0   1    0.08    0.40
 -10   0   1    0.21    0.25
  -9   0   1    0.07    0.22
  -8   0   1    0.15    0.20
  -7   0   1    0.20    0.18
  -6   0   1    0.04    0.15
  -5   0   1    0.04    0.13
  -4   0   1    0.01    0.11
  -3   0   1    0.04    0.10
  -2   0   1    0.04    0.07
  -1   0   1    0.04    0.04
   0   0   1    0.00    0.04
   1   0   1    0.02    0.05
   2   0   1    0.14    0.09
   3   0   1    0.10    0.11
   4   0   1    0.02    0.13
   5   0   1    0.13    0.15
   6   0   1    0.02    0.15
   7   0   1    0.10    0.18
   8   0   1    0.02    0.21
   9   0   1    0.03    0.21
  10   0   1    0.37    0.37
  11   0   1    0.62    0.40
  12   0   1    0.47    0.45
  13   0   1    0.56    0.83
  14   0   1    1.08    0.90
 -14   1   1    2.18    0.62
 -13   1   1   18.61    1.14
 -12   1   1    7.78    0.55
 -11   1   1   20.27    0.53
 -10   1   1    5.86    0.30
  -9   1   1    0.98    0.19
  -8   1   1   26.95    0.57
  -7   1   1   17.24    0.40
  -6   1   1   49.03    0.79
  -5   1   1   84.76    1.29
  -4   1   1   19.74    0.34
  -3   1   1   44.18    0.72
  -2   1   1    2.68    0.12
  -1   1   1    6.03    0.15
   0   1   1   30.92    0.57
   1   1   1    0.20    0.06
   2   1   1   27.34    0.45
   3   1   1    3.33    0.15
   4   1   1   79.33    1.22
   5   1   1  188.90    2.86
   6   1   1   23.29    0.44
   7   1   1   66.48    1.06
   8   1   1   43.26    0.84
   9   1   1    4.47    0.28
  10   1   1   10.69    0.39
  11   1   1   31.49    0.80
  12   1   1    5.02    0.50
  13   1   1    2.77    0.49
 -13   2   1    0.70    0.38
 -12   2   1    0.64    0.29
 -11   2   1    0.61    0.29
 -10   2   1   20.74    0.62
  -9   2   1   20.85    0.60
  -8   2   1    0.18    0.24
  -7   2   1    0.06    0.15
  -6   2   1    1.58    0.14
  -5   2   1    0.28    0.12
  -4   2   1    2.19    0.12
  -3   2   1   16.16    0.31
  -2   2   1    2.23    0.10
  -1   2   1    0.82    0.07
   0   2   1    0.22    0.09
   1   2   1    0.26    0.07
   2   2   1    3.63    0.13
   3   2   1    6.70    0.19
   4   2   1    0.11    0.09
   5   2   1    1.74    0.19
   6   2   1    0.11    0.16
   7   2   1    0.22    0.22
   8   2   1    0.18    0.24
   9   2   1    0.20    0.27
  10   2   1    0.29    0.30
  11   2   1    0.35    0.33
  12   2   1    0.45    0.33
  13   2   1    0.86    0.47
 -13   3   1    8.50    0.47
 -12   3   1    5.49    0.43
 -11   3   1   10.32    0.52
 -10   3   1   35.77    0.90
  -9   3   1   13.21    0.54
  -8   3   1    4.27    0.32
  -7   3   1   26.28    0.66
  -6   3   1   63.78    1.36
  -5   3   1   48.83    0.96
  -4   3   1   12.36    0.27
  -3   3   1    8.06    0.20
  -2   3   1   75.57    1.26
  -1   3   1   89.86    1.62
   0   3   1   72.47    1.37
   1   3   1  134.91    2.25
   2   3   1   36.28    0.61
   3   3   1    3.28    0.14
   4   3   1   47.62    0.89
   5   3   1   96.24    2.01
   6   3   1   14.22    0.46
   7   3   1    0.34    0.24
   8   3   1    6.51    0.38
   9   3   1   14.90    0.54
  10   3   1   14.22    0.59
  11   3   1    6.09    0.45
  12   3   1    2.41    0.42
 -11   4   1    0.66    0.42
 -10   4   1    0.37    0.41
  -9   4   1    0.35    0.38
  -8   4   1    0.22    0.34
  -7   4   1    0.21    0.31
  -6   4   1    6.94    0.46
  -5   4   1   10.49    0.47
  -4   4   1    1.87    0.21
  -3   4   1    0.06    0.13
  -2   4   1    0.30    0.11
  -1   4   1    0.03    0.24
   0   4   1    1.03    0.25
   1   4   1    0.44    0.24
   2   4   1    0.02    0.13
   3   4   1    0.02    0.21
   4   4   1    2.38    0.40
   5   4   1    0.10    0.26
   6   4   1    0.05    0.27
   7   4   1    1.99    0.35
   8   4   1    0.15    0.34
   9   4   1    0.22    0.37
  10   4   1    0.44    0.50
  11   4   1    0.29    0.45
 -10   5   1    9.13    0.56
  -9   5   1    5.51    0.46
  -8   5   1    0.71    0.37
  -7   5   1   10.74    0.63
  -6   5   1    7.22    0.57
  -5   5   1    5.79    0.53
  -4   5   1    3.93    0.34
  -3   5   1    0.95    0.44
  -2   5   1   22.48    0.72
  -1   5   1   32.50    1.08
   0   5   1   17.47    0.76
   1   5   1   41.65    1.43
   2   5   1    4.88    0.77
   3   5   1    0.28    0.22
   4   5   1    8.05    0.62
   5   5   1    0.41    0.56
   6   5   1    1.59    0.48
   7   5   1    1.28    0.45
   8   5   1    1.47    0.48
   9   5   1    3.60    0.57
  -7   6   1    0.00    0.36
  -6   6   1    0.08    0.32
  -5   6   1    0.06    0.29
  -4   6   1    0.17    0.52
  -3   6   1    2.98    0.52
  -2   6   1    8.44    0.61
  -1   6   1    3.96    0.69
   0   6   1    2.44    0.55
   1   6   1    0.83    1.19
   2   6   1    0.00    0.69
   3   6   1    0.90    0.73
   4   6   1    1.00    1.36
   5   6   1    2.03    1.43
   6   6   1    0.57    0.42
   7   6   1    1.00    0.41
 -14   0   2    3.37    0.98
 -13   0   2    4.17    1.07
 -12   0   2   27.06    1.41
 -11   0   2   34.14    1.73
 -10   0   2    0.37    0.50
  -9   0   2   31.17    1.10
  -8   0   2  101.44    2.68
  -7   0   2   16.31    0.57
  -6   0   2  148.46    3.94
  -5   0   2  193.58    5.40
  -4   0   2    6.42    0.49
  -3   0   2   15.52    0.67
  -2   0   2    0.36    0.14
  -1   0   2  261.91    5.48
   0   0   2  328.73    7.15
   1   0   2    0.16    0.08
   2   0   2   41.25    0.97
   3   0   2   40.73    0.95
   4   0   2  149.38    4.19
   5   0   2   74.24    2.41
   6   0   2    0.97    0.35
   7   0   2   39.10    1.46
   8   0   2   35.46    1.05
   9   0   2   18.09    0.68
  10   0   2   38.48    1.53
  11   0   2   16.40    1.18
  12   0   2   33.41    2.21
  13   0   2   10.18    1.48
 -14   1   2    3.68    0.79
 -13   1   2    3.94    0.74
 -12   1   2    1.42    0.57
 -11   1   2    1.12    0.42
 -10   1   2    1.93    0.35
  -9   1   2   14.47    0.49
  -8   1   2    5.52    0.26
  -7   1   2    4.74    0.22
  -6   1   2    0.10    0.18
  -5   1   2   33.80    0.65
  -4   1   2    3.15    0.18
  -3   1   2    5.14    0.21
  -2   1   2   14.99    0.33
  -1   1   2   55.57    1.28
   0   1   2   72.03    1.17
   1   1   2   20.90    0.40
   2   1   2   12.77    0.28
   3   1   2    2.76    0.18
   4   1   2   26.39    0.58
   5   1   2    2.81    0.21
   6   1   2    0.28    0.21
   7   1   2    4.93    0.27
   8   1   2   12.93    0.48
   9   1   2    2.99    0.37
  10   1   2    0.49    0.45
  11   1   2    0.94    0.64
  12   1   2    2.06    0.70
  13   1   2    2.56    0.75
 -14   2   2    5.63    0.99
 -13   2   2    2.73    0.60
 -12   2   2   11.72    0.57
 -11   2   2   21.01    0.75
 -10   2   2    2.07    0.45
  -9   2   2    7.97    0.39
  -8   2   2   18.76    0.52
  -7   2   2    7.82    0.37
  -6   2   2   73.19    1.38
  -5   2   2   43.84    0.78
  -4   2   2    0.52    0.17
  -3   2   2   20.69    0.44
  -2   2   2   74.16    1.41
  -1   2   2   45.66    1.16
   0   2   2   50.64    1.23
   1   2   2   36.32    0.86
   2   2   2   21.08    0.49
   3   2   2    0.26    0.19
   4   2   2    8.98    0.40
   5   2   2   47.80    1.09
   6   2   2   16.35    0.52
   7   2   2    7.11    0.46
   8   2   2    1.77    0.42
   9   2   2   12.30    0.54
  10   2   2   22.03    0.78
  11   2   2    4.33    0.55
  12   2   2    7.98    0.75
  13   2   2    2.56    0.60
 -13   3   2    1.01    0.52
 -12   3   2    1.05    0.67
 -11   3   2    0.74    0.48
 -10   3   2    0.60    0.44
  -9   3   2    0.23    0.41
  -8   3   2    0.62    0.38
  -7   3   2   12.03    0.45
  -6   3   2    1.35    0.25
  -5   3   2    7.56    0.29
  -4   3   2   11.07    0.29
  -3   3   2    2.84    0.18
  -2   3   2    9.00    0.29
  -1   3   2    4.18    0.27
   0   3   2    2.85    0.24
   1   3   2    6.63    0.31
   2   3   2    2.26    0.14
   3   3   2   12.20    0.35
   4   3   2    9.17    0.34
   5   3   2    1.19    0.33
   6   3   2    0.98    0.38
   7   3   2    0.34    0.40
   8   3   2    0.64    0.43
   9   3   2    0.70    0.47
  10   3   2    0.56    0.50
  11   3   2    0.33    0.64
  12   3   2    0.92    0.61
 -12   4   2    8.21    0.67
 -11   4   2    3.96    0.59
 -10   4   2    5.20    0.57
  -9   4   2    1.94    0.46
  -8   4   2    1.01    0.42
  -7   4   2    3.66    0.59
  -6   4   2   15.87    0.68
  -5   4   2   30.85    0.88
  -4   4   2    6.14    0.34
  -3   4   2   17.41    0.49
  -2   4   2   87.34    2.09
  -1   4   2   24.96    0.77
   0   4   2   25.10    0.70
   1   4   2   72.56    1.74
   2   4   2   16.17    0.60
   3   4   2   10.26    0.40
   4   4   2   17.64    0.64
   5   4   2   42.25    1.02
   6   4   2   63.19    1.36
   7   4   2    4.68    0.46
   8   4   2    2.67    0.48
   9   4   2   21.68    0.74
  10   4   2    9.21    0.61
  11   4   2   10.99    0.63
 -10   5   2    1.51    0.61
  -9   5   2    0.55    0.47
  -8   5   2    0.80    0.47
  -7   5   2    0.61    0.44
  -6   5   2    0.37    0.40
  -5   5   2   10.23    0.50
  -4   5   2    0.38    0.41
  -3   5   2   13.15    0.62
  -2   5   2    7.05    0.45
  -1   5   2    0.71    0.37
   0   5   2    2.85    0.60
   1   5   2   14.56    0.56
   2   5   2   14.34    0.60
   3   5   2    1.56    0.44
   4   5   2    4.71    0.52
   5   5   2    0.01    0.48
   6   5   2    0.00    0.51
   7   5   2    0.82    0.58
   8   5   2    1.90    0.63
   9   5   2    0.53    0.76
  -7   6   2    4.52    0.54
  -6   6   2    4.42    0.55
  -5   6   2   16.55    0.80
  -4   6   2    8.71    0.68
  -3   6   2    0.42    0.67
  -2   6   2    9.96    0.88
  -1   6   2   14.52    1.00
   0   6   2   16.39    0.83
   1   6   2   11.02    0.72
   2   6   2    0.73    0.50
   3   6   2   10.44    0.67
   4   6   2   20.41    0.92
   5   6   2    3.77    0.66
   6   6   2   10.74    0.90
  -1   7   2    0.15    1.11
   1   7   2    0.00    0.98
 -14   0   3    1.08    0.94
 -13   0   3    1.31    0.87
 -12   0   3    0.88    0.83
 -11   0   3    0.56    0.76
 -10   0   3    0.03    0.58
  -9   0   3    0.00    0.48
  -8   0   3    0.12    0.42
  -7   0   3    0.07    0.38
  -6   0   3    0.08    0.36
  -5   0   3    0.20    0.34
  -4   0   3    0.05    0.24
  -3   0   3    0.10    0.14
  -2   0   3    0.00    0.09
  -1   0   3    0.00    0.09
   0   0   3    0.12    0.08
   1   0   3    0.06    0.09
   2   0   3    0.02    0.10
   3   0   3    0.08    0.14
   4   0   3    0.08    0.20
   5   0   3    0.14    0.34
   6   0   3    0.07    0.35
   7   0   3    0.02    0.39
   8   0   3    0.04    0.35
   9   0   3    0.14    0.47
  10   0   3    0.24    0.52
  11   0   3    1.54    0.86
  12   0   3    2.16    1.46
  13   0   3    1.13    1.56
 -14   1   3    9.89    0.91
 -13   1   3   10.99    0.71
 -12   1   3   13.60    0.63
 -11   1   3   35.94    0.99
 -10   1   3   20.88    0.66
  -9   1   3   10.58    0.47
  -8   1   3    4.32    0.32
  -7   1   3   11.75    0.36
  -6   1   3   27.71    0.63
  -5   1   3    3.63    0.26
  -4   1   3   76.19    1.38
  -3   1   3   28.03    0.54
  -2   1   3    8.50    0.19
  -1   1   3 1000.00   14.94
   0   1   3  310.11    5.02
   1   1   3    0.28    0.06
   2   1   3  120.01    1.84
   3   1   3   25.10    0.54
   4   1   3   23.44    0.44
   5   1   3   38.26    0.72
   6   1   3   11.32    0.34
   7   1   3   15.08    0.40
   8   1   3    1.20    0.33
   9   1   3    6.63    0.50
  10   1   3   22.69    0.93
  11   1   3    8.29    0.70
  12   1   3   10.89    0.78
  13   1   3    5.84    0.94
 -14   2   3    2.25    0.49
 -13   2   3    0.68    0.50
 -12   2   3    2.00    0.47
 -11   2   3    0.65    0.42
 -10   2   3    5.64    0.49
  -9   2   3    4.96    0.44
  -8   2   3    8.40    0.39
  -7   2   3    0.94    0.30
  -6   2   3    0.00    0.20
  -5   2   3    0.00    0.18
  -4   2   3    2.49    0.20
  -3   2   3    0.34    0.17
  -2   2   3   51.29    0.90
  -1   2   3    4.33    0.26
   0   2   3   32.79    0.70
   1   2   3    6.89    0.29
   2   2   3   20.63    0.42
   3   2   3    0.00    0.20
   4   2   3    1.97    0.16
   5   2   3    0.16    0.22
   6   2   3    0.00    0.37
   7   2   3    0.23    0.43
   8   2   3   19.44    0.66
   9   2   3   24.32    0.77
  10   2   3    0.21    0.53
  11   2   3    0.10    0.62
  12   2   3    1.76    0.92
 -13   3   3   10.89    0.71
 -12   3   3   12.64    0.69
 -11   3   3   16.38    0.70
 -10   3   3    8.87    0.58
  -9   3   3    0.00    0.48
  -8   3   3   23.14    0.65
  -7   3   3   69.91    1.63
  -6   3   3   17.50    0.66
  -5   3   3    2.39    0.21
  -4   3   3   18.42    0.43
  -3   3   3   17.31    0.43
  -2   3   3    6.33    0.30
  -1   3   3   14.19    0.48
   0   3   3   20.98    0.61
   1   3   3   10.08    0.35
   2   3   3   22.06    0.55
   3   3   3   14.70    0.43
   4   3   3   12.90    0.36
   5   3   3   76.27    1.64
   6   3   3   40.32    1.24
   7   3   3    1.69    0.49
   8   3   3   13.23    0.59
   9   3   3   34.09    0.95
  10   3   3   11.29    0.68
  11   3   3    3.29    0.63
  12   3   3    5.94    0.69
 -12   4   3    0.86    0.32
 -11   4   3    2.23    0.65
 -10   4   3    1.37    0.61
  -9   4   3    0.41    0.49
  -8   4   3    0.34    0.50
  -7   4   3    0.55    0.43
  -6   4   3    8.59    0.48
  -5   4   3    0.99    0.48
  -4   4   3    2.08    0.27
  -3   4   3    0.00    0.27
  -2   4   3    0.30    0.37
  -1   4   3    0.53    0.35
   0   4   3    2.06    0.38
   1   4   3    0.83    0.43
   2   4   3    2.74    0.41
   3   4   3    0.61    0.26
   4   4   3   14.84    0.52
   5   4   3   10.52    0.52
   6   4   3    0.19    0.44
   7   4   3    0.31    0.48
   8   4   3    0.47    0.66
   9   4   3    0.00    0.60
  10   4   3    0.42    0.84
 -10   5   3    9.85    0.77
  -9   5   3    1.89    0.54
  -8   5   3    8.89    0.62
  -7   5   3   42.79    1.25
  -6   5   3   20.88    0.76
  -5   5   3   26.66    0.80
  -4   5   3   10.73    0.73
  -3   5   3    0.62    0.53
  -2   5   3    8.94    0.52
  -1   5   3   12.34    0.59
   0   5   3    7.28    0.61
   1   5   3    2.54    0.50
   2   5   3    6.61    0.50
   3   5   3   30.22    0.91
   4   5   3    5.01    0.61
   5   5   3   13.13    0.73
   6   5   3   26.73    0.95
   7   5   3    0.07    0.54
   8   5   3    3.41    0.59
   9   5   3    5.11    0.66
  -7   6   3    1.74    0.71
  -6   6   3    0.50    0.63
  -5   6   3    1.37    0.64
  -4   6   3    2.34    0.79
  -3   6   3    5.97    0.81
  -2   6   3    7.10    0.92
  -1   6   3    8.28    0.95
   0   6   3    0.00    1.09
   1   6   3    0.00    1.11
   2   6   3    5.94    0.96
   3   6   3    3.53    0.78
   4   6   3    0.58    0.69
   5   6   3    0.53    0.72
   6   6   3    0.19    0.82
 -14   0   4    7.06    0.84
 -13   0   4    5.47    0.77
 -12   0   4   10.68    1.27
 -11   0   4    2.58    0.54
 -10   0   4    6.87    0.43
  -9   0   4    3.45    0.50
  -8   0   4   30.36    0.83
  -7   0   4   58.20    1.45
  -6   0   4   60.63    1.75
  -5   0   4    6.32    0.37
  -4   0   4   30.03    0.71
  -3   0   4   27.53    0.62
  -2   0   4    2.66    0.14
  -1   0   4   11.94    0.32
   0   0   4    6.49    0.20
   1   0   4   27.61    0.62
   2   0   4    7.38    0.27
   3   0   4   33.03    0.79
   4   0   4  206.68    4.44
   5   0   4   54.03    1.44
   6   0   4   58.17    1.45
   7   0   4   84.47    1.89
   8   0   4    0.00    0.42
   9   0   4    6.30    0.54
  10   0   4   48.14    1.61
  11   0   4   12.88    1.58
  12   0   4    7.91    1.63
  13   0   4    1.58    0.95
 -14   1   4    1.17    0.52
 -13   1   4    1.52    0.47
 -12   1   4    1.28    0.35
 -11   1   4    3.91    0.44
 -10   1   4    4.08    0.34
  -9   1   4    3.59    0.28
  -8   1   4    0.18    0.16
  -7   1   4    5.88    0.25
  -6   1   4    1.95    0.19
  -5   1   4   15.48    0.39
  -4   1   4   12.87    0.29
  -3   1   4    0.22    0.09
  -2   1   4   21.74    0.36
  -1   1   4  290.51    4.55
   0   1   4   37.18    0.61
   1   1   4    0.19    0.07
   2   1   4    7.00    0.21
   3   1   4   27.61    0.51
   4   1   4    4.58    0.20
   5   1   4    7.37    0.26
   6   1   4    0.10    0.20
   7   1   4   13.51    0.45
   8   1   4    4.65    0.30
   9   1   4    0.95    0.37
  10   1   4    1.09    0.43
  11   1   4    0.95    0.62
  12   1   4    2.32    0.61
 -14   2   4   16.57    0.97
 -13   2   4   10.47    0.59
 -12   2   4    9.52    0.51
 -11   2   4   17.72    0.66
 -10   2   4    9.22    0.49
  -9   2   4   13.27    0.56
  -8   2   4   25.29    0.66
  -7   2   4   50.14    1.07
  -6   2   4  105.69    1.99
  -5   2   4   57.67    1.11
  -4   2   4   20.01    0.40
  -3   2   4   31.79    0.71
  -2   2   4   45.40    0.98
  -1   2   4   63.80    1.22
   0   2   4   63.46    1.08
   1   2   4   27.88    0.58
   2   2   4    4.90    0.19
   3   2   4   40.79    0.77
   4   2   4  134.98    2.40
   5   2   4   29.28    0.76
   6   2   4    9.73    0.51
   7   2   4   27.42    0.78
   8   2   4    2.80    0.45
   9   2   4    6.34    0.54
  10   2   4   18.01    0.73
  11   2   4    2.98    0.59
  12   2   4    3.52    0.91
 -13   3   4    2.77    0.64
 -12   3   4    0.00    0.57
 -11   3   4    0.37    0.65
 -10   3   4   10.04    0.62
  -9   3   4    0.11    0.36
  -8   3   4    3.83    0.44
  -7   3   4    1.59    0.35
  -6   3   4    0.00    0.32
  -5   3   4    2.17    0.18
  -4   3   4    0.14    0.16
  -3   3   4    0.50    0.16
  -2   3   4    0.21    0.17
  -1   3   4   10.34    0.36
   0   3   4    0.59    0.17
   1   3   4    1.25    0.15
   2   3   4    0.20    0.20
   3   3   4    3.83    0.22
   4   3   4    3.76    0.30
   5   3   4   13.25    0.54
   6   3   4    1.78    0.49
   7   3   4    0.20    0.50
   8   3   4    0.00    0.56
   9   3   4    0.54    0.59
  10   3   4    0.87    0.54
  11   3   4    0.82    0.81
 -12   4   4    3.21    0.90
 -11   4   4   15.69    0.85
 -10   4   4   18.29    0.86
  -9   4   4    2.62    0.52
  -8   4   4    4.62    0.51
  -7   4   4    7.76    0.49
  -6   4   4   19.99    0.73
  -5   4   4   12.31    0.43
  -4   4   4    0.41    0.27
  -3   4   4   12.48    0.51
  -2   4   4   63.55    2.15
  -1   4   4   53.56    2.18
   0   4   4   70.86    1.74
   1   4   4   20.72    0.79
   2   4   4    0.31    0.50
   3   4   4   15.22    0.51
   4   4   4   21.40    0.68
   5   4   4    9.03    0.54
   6   4   4    0.42    0.52
   7   4   4    0.73    0.54
   8   4   4    3.77    0.65
   9   4   4    3.26    0.61
  10   4   4    9.69    0.75
 -10   5   4    0.00    0.90
  -9   5   4    0.00    1.71
  -8   5   4    0.00    0.56
  -7   5   4    3.86    0.55
  -6   5   4    0.00    0.55
  -5   5   4    2.19    0.60
  -4   5   4    0.24    0.54
  -3   5   4    1.45    0.31
  -2   5   4    5.39    0.82
  -1   5   4   10.03    0.80
   0   5   4    0.00    0.75
   1   5   4    4.31    0.54
   2   5   4    1.23    0.46
   3   5   4    4.21    0.61
   4   5   4    1.02    0.65
   5   5   4    1.90    0.53
   6   5   4    3.93    0.60
   7   5   4    0.22    0.55
   8   5   4    0.80    0.58
  -7   6   4    6.61    0.85
  -6   6   4    1.69    0.83
  -5   6   4    3.99    0.82
  -4   6   4    4.83    0.84
  -3   6   4   14.93    1.50
  -2   6   4   32.26    1.59
  -1   6   4   21.20    1.74
   0   6   4   30.15    1.65
   1   6   4   19.52    1.26
   2   6   4    1.54    1.50
   3   6   4    2.89    0.67
   4   6   4    2.70    0.61
   5   6   4    4.36    0.88
   6   6   4    9.18    0.94
 -14   0   5    0.68    0.75
 -13   0   5    0.69    0.69
 -12   0   5    0.94    0.65
 -11   0   5    0.03    0.52
 -10   0   5    0.07    0.35
  -9   0   5    0.01    0.30
  -8   0   5    0.16    0.29
  -7   0   5    0.11    0.26
  -6   0   5    0.04    0.24
  -5   0   5    0.15    0.22
  -4   0   5    0.04    0.21
  -3   0   5    0.04    0.19
  -2   0   5    0.07    0.26
  -1   0   5    0.06    0.17
   0   0   5    0.13    0.18
   1   0   5    0.02    0.20
   2   0   5    0.04    0.22
   3   0   5    0.12    0.34
   4   0   5    0.12    0.31
   5   0   5    0.11    0.28
   6   0   5    0.07    0.31
   7   0   5    0.02    0.38
   8   0   5    0.09    0.42
   9   0   5    0.00    0.54
  10   0   5    1.05    1.15
  11   0   5    1.54    1.25
  12   0   5    2.32    1.39
 -14   1   5    3.89    0.72
 -13   1   5    9.74    0.60
 -12   1   5   36.56    1.00
 -11   1   5   18.11    0.75
 -10   1   5   20.86    0.67
  -9   1   5   39.49    0.81
  -8   1   5    8.91    0.31
  -7   1   5   46.17    0.82
  -6   1   5   85.01    1.60
  -5   1   5    2.69    0.24
  -4   1   5    2.02    0.18
  -3   1   5   32.95    0.66
  -2   1   5  144.47    2.90
  -1   1   5  279.67    5.46
   0   1   5   64.01    1.51
   1   1   5   15.24    0.42
   2   1   5    5.91    0.20
   3   1   5   17.79    0.43
   4   1   5   60.51    1.32
   5   1   5    7.86    0.40
   6   1   5    4.63    0.28
   7   1   5   15.38    0.56
   8   1   5   22.39    0.72
   9   1   5   33.81    1.01
  10   1   5    8.36    0.77
  11   1   5   13.06    0.78
  12   1   5   12.19    0.91
 -14   2   5    0.75    0.56
 -13   2   5    1.23    0.56
 -12   2   5    1.60    0.48
 -11   2   5    0.73    0.38
 -10   2   5    2.61    0.37
  -9   2   5    8.67    0.42
  -8   2   5   12.05    0.45
  -7   2   5    6.46    0.28
  -6   2   5    1.25    0.20
  -5   2   5    0.65    0.17
  -4   2   5    0.46    0.19
  -3   2   5   51.02    0.94
  -2   2   5    0.82    0.35
  -1   2   5   18.98    0.42
   0   2   5   57.88    0.95
   1   2   5   14.22    0.48
   2   2   5    0.44    0.14
   3   2   5    0.51    0.18
   4   2   5    0.58    0.28
   5   2   5    2.07    0.27
   6   2   5    8.07    0.45
   7   2   5    8.30    0.47
   8   2   5    4.64    0.44
   9   2   5    0.00    0.55
  10   2   5    1.02    0.48
  11   2   5    0.49    0.63
  12   2   5    1.86    0.71
 -13   3   5   14.69    0.83
 -12   3   5   12.76    0.77
 -11   3   5    0.00    0.50
 -10   3   5    0.00    0.45
  -9   3   5    6.86    0.46
  -8   3   5    7.10    0.42
  -7   3   5    5.58    0.48
  -6   3   5   16.89    0.53
  -5   3   5    3.18    0.22
  -4   3   5   13.57    0.37
  -3   3   5   56.30    1.18
  -2   3   5   20.72    0.82
  -1   3   5   15.33    0.59
   0   3   5   36.83    0.81
   1   3   5   30.47    0.92
   2   3   5    9.94    0.35
   3   3   5    2.76    0.23
   4   3   5   17.25    0.57
   5   3   5   45.62    1.03
   6   3   5   14.59    0.54
   7   3   5    2.19    0.43
   8   3   5    7.34    0.49
   9   3   5   13.60    0.59
  10   3   5   12.51    0.65
  11   3   5    7.06    0.62
 -12   4   5    2.43    0.51
 -11   4   5    1.73    0.72
 -10   4   5    0.46    0.56
  -9   4   5    0.48    0.53
  -8   4   5    1.02    0.39
  -7   4   5    1.32    0.42
  -6   4   5    3.20    0.38
  -5   4   5    5.56    0.27
  -4   4   5    7.55    0.33
  -3   4   5    0.59    0.29
  -2   4   5    0.40    0.31
  -1   4   5    2.95    0.39
   0   4   5    2.31    0.38
   1   4   5    9.41    0.41
   2   4   5    0.33    0.33
   3   4   5    2.35    0.27
   4   4   5    5.93    0.40
   5   4   5    0.47    0.38
   6   4   5    0.63    0.42
   7   4   5    0.13    0.45
   8   4   5    0.11    0.47
   9   4   5    0.18    0.55
  10   4   5    0.46    0.58
 -10   5   5    5.08    0.74
  -9   5   5    6.88    0.64
  -8   5   5    8.43    0.64
  -7   5   5   15.35    0.75
  -6   5   5   37.73    1.20
  -5   5   5   22.24    0.89
  -4   5   5    5.63    0.53
  -3   5   5   24.13    0.73
  -2   5   5   23.48    1.02
  -1   5   5   11.15    0.85
   0   5   5   18.60    0.94
   1   5   5   10.79    0.67
   2   5   5   19.32    0.69
   3   5   5   28.67    0.93
   4   5   5   23.22    1.02
   5   5   5   38.82    1.09
   6   5   5    9.50    0.54
   7   5   5    1.11    0.49
   8   5   5    5.64    0.57
  -7   6   5    0.91    0.81
  -6   6   5    0.99    0.78
  -5   6   5    1.01    0.74
  -4   6   5    0.60    0.57
  -3   6   5    1.07    0.56
  -2   6   5    3.34    0.88
  -1   6   5    0.76    0.69
   0   6   5    4.29    0.59
   1   6   5    3.87    0.53
   2   6   5    0.00    0.70
   3   6   5    0.32    0.64
   4   6   5    2.55    0.57
   5   6   5    1.22    0.60
 -14   0   6    6.75    0.95
 -13   0   6    3.10    0.54
 -12   0   6   14.06    0.70
 -11   0   6   16.68    0.60
 -10   0   6    0.34    0.23
  -9   0   6    0.56    0.22
  -8   0   6   19.90    0.55
  -7   0   6   28.21    0.69
  -6   0   6    2.38    0.18
  -5   0   6   12.01    0.35
  -4   0   6   73.99    1.60
  -3   0   6   13.56    0.43
  -2   0   6  104.58    2.53
  -1   0   6   98.48    2.10
   0   0   6   12.24    0.33
   1   0   6   96.54    2.07
   2   0   6   14.81    0.41
   3   0   6    0.35    0.15
   4   0   6   44.88    1.02
   5   0   6   35.29    0.88
   6   0   6    7.21    0.36
   7   0   6    4.42    0.32
   8   0   6    0.76    0.28
   9   0   6   11.18    0.66
  10   0   6    8.32    1.15
  11   0   6    6.91    1.04
  12   0   6    2.62    1.02
 -14   1   6    0.45    0.42
 -13   1   6    0.53    0.34
 -12   1   6    0.49    0.25
 -11   1   6   10.27    0.42
 -10   1   6    0.17    0.19
  -9   1   6    8.79    0.28
  -8   1   6    0.53    0.13
  -7   1   6    0.32    0.11
  -6   1   6    0.13    0.10
  -5   1   6    3.23    0.15
  -4   1   6    3.92    0.17
  -3   1   6   28.16    0.49
  -2   1   6    0.93    0.10
  -1   1   6    2.04    0.10
   0   1   6   14.76    0.29
   1   1   6   13.82    0.28
   2   1   6    6.87    0.20
   3   1   6    1.90    0.12
   4   1   6    0.15    0.11
   5   1   6    0.99    0.14
   6   1   6    3.33    0.20
   7   1   6    0.26    0.21
   8   1   6    8.12    0.46
   9   1   6    0.07    0.30
  10   1   6    0.84    0.38
  11   1   6    0.78    0.40
  12   1   6    1.09    0.64
 -14   2   6   12.80    1.09
 -13   2   6   14.91    0.77
 -12   2   6   17.24    0.55
 -11   2   6   21.82    0.57
 -10   2   6   10.60    0.40
  -9   2   6   16.74    0.45
  -8   2   6   41.45    0.84
  -7   2   6   37.00    0.66
  -6   2   6   29.90    0.55
  -5   2   6   50.27    0.81
  -4   2   6   32.47    0.53
  -3   2   6    6.12    0.17
  -2   2   6  115.23    1.74
  -1   2   6  146.94    2.33
   0   2   6    8.95    0.21
   1   2   6   28.33    0.50
   2   2   6   62.21    1.04
   3   2   6   57.19    0.98
   4   2   6   78.13    1.41
   5   2   6   38.22    0.84
   6   2   6   12.72    0.55
   7   2   6   12.30    0.48
   8   2   6   14.04    0.53
   9   2   6   13.45    0.55
  10   2   6    8.16    0.50
  11   2   6    9.26    0.54
 -13   3   6    0.00    0.48
 -12   3   6    0.50    0.39
 -11   3   6    3.99    0.43
 -10   3   6    0.00    0.29
  -9   3   6    6.32    0.36
  -8   3   6    0.13    0.23
  -7   3   6    7.77    0.35
  -6   3   6    1.74    0.17
  -5   3   6    1.13    0.14
  -4   3   6    1.44    0.13
  -3   3   6   15.29    0.40
  -2   3   6    1.15    0.16
  -1   3   6    4.03    0.22
   0   3   6   10.22    0.32
   1   3   6    7.17    0.23
   2   3   6    0.13    0.15
   3   3   6    0.27    0.14
   4   3   6    2.13    0.23
   5   3   6    3.73    0.32
   6   3   6    0.47    0.28
   7   3   6    2.49    0.34
   8   3   6    9.50    0.55
   9   3   6    0.07    0.33
  10   3   6    1.10    0.38
 -12   4   6    3.25    0.56
 -11   4   6    7.28    0.56
 -10   4   6    2.98    0.40
  -9   4   6    6.42    0.59
  -8   4   6   22.71    0.81
  -7   4   6   15.53    0.54
  -6   4   6   12.15    0.47
  -5   4   6    7.19    0.39
  -4   4   6    0.00    0.42
  -3   4   6    0.16    0.24
  -2   4   6   20.07    0.91
  -1   4   6   22.80    1.00
   0   4   6    0.70    0.20
   1   4   6    0.10    0.20
   2   4   6   14.83    0.69
   3   4   6    7.35    0.31
   4   4   6   11.80    0.51
   5   4   6   16.23    0.63
   6   4   6    3.04    0.36
   7   4   6    9.37    0.64
   8   4   6   18.07    0.75
   9   4   6    8.48    0.52
 -10   5   6    0.90    0.45
  -9   5   6    5.11    0.50
  -8   5   6    0.87    0.39
  -7   5   6    1.82    0.52
  -6   5   6    1.39    0.66
  -5   5   6    0.24    0.58
  -4   5   6    0.96    0.61
  -3   5   6    0.00    0.55
  -2   5   6    0.00    0.61
  -1   5   6    2.07    0.71
   0   5   6    0.00    0.27
   1   5   6    0.06    0.70
   2   5   6    4.41    0.74
   3   5   6    1.45    0.60
   4   5   6    8.35    0.79
   5   5   6    0.75    0.33
   6   5   6    0.49    0.38
   7   5   6    0.12    0.37
  -7   6   6   11.17    0.91
  -6   6   6    2.21    0.66
  -1   6   6   11.04    1.23
   0   6   6    9.25    1.20
   1   6   6    7.30    1.18
   2   6   6    4.88    0.95
   3   6   6    0.41    0.55
   4   6   6    1.59    0.72
 -14   0   7    0.26    1.24
 -13   0   7    0.70    0.74
 -12   0   7    0.10    0.44
 -11   0   7    0.05    0.34
 -10   0   7    0.09    0.31
  -9   0   7    0.02    0.34
  -8   0   7    0.08    0.28
  -7   0   7    0.05    0.24
  -6   0   7    0.11    0.20
  -5   0   7    0.08    0.19
  -4   0   7    0.03    0.17
  -3   0   7    0.10    0.26
  -2   0   7    0.06    0.24
  -1   0   7    0.07    0.17
   0   0   7    0.02    0.18
   1   0   7    0.00    0.19
   2   0   7    0.03    0.20
   3   0   7    0.04    0.26
   4   0   7    0.27    0.31
   5   0   7    0.04    0.38
   6   0   7    0.18    0.36
   7   0   7    0.01    0.39
   8   0   7    0.14    0.42
   9   0   7    0.41    0.78
  10   0   7    0.82    1.20
  11   0   7    1.29    1.14
 -14   1   7    6.96    0.65
 -13   1   7    4.92    0.60
 -12   1   7    9.42    0.64
 -11   1   7    1.99    0.38
 -10   1   7    0.01    0.31
  -9   1   7   15.53    0.52
  -8   1   7   49.78    0.91
  -7   1   7   74.72    1.44
  -6   1   7   32.46    0.99
  -5   1   7    8.44    0.29
  -4   1   7   32.11    0.61
  -3   1   7   53.41    1.13
  -2   1   7   10.42    0.36
  -1   1   7   32.28    0.59
   0   1   7   46.87    0.93
   1   1   7    3.11    0.24
   2   1   7   11.28    0.29
   3   1   7  109.44    2.00
   4   1   7   57.40    1.42
   5   1   7   15.11    0.57
   6   1   7   42.01    0.87
   7   1   7   22.45    0.69
   8   1   7   17.00    0.64
   9   1   7   34.10    0.99
  10   1   7   10.46    0.77
  11   1   7    6.07    0.89
 -14   2   7    0.00    0.80
 -13   2   7    1.20    0.65
 -12   2   7    0.29    0.60
 -11   2   7    1.09    0.39
 -10   2   7    2.08    0.36
  -9   2   7    3.52    0.31
  -8   2   7   23.71    0.56
  -7   2   7    0.00    0.22
  -6   2   7    0.78    0.17
  -5   2   7    0.51    0.13
  -4   2   7    0.15    0.13
  -3   2   7    0.57    0.14
  -2   2   7  149.29    2.58
  -1   2   7   52.16    1.43
   0   2   7    3.76    0.15
   1   2   7    0.21    0.13
   2   2   7    0.32    0.15
   3   2   7    1.27    0.22
   4   2   7   16.03    0.46
   5   2   7   14.68    0.56
   6   2   7    8.46    0.44
   7   2   7    1.03    0.39
   8   2   7    0.21    0.50
   9   2   7    2.98    0.56
  10   2   7    0.20    0.64
  11   2   7    2.39    0.93
 -13   3   7    5.74    0.70
 -12   3   7    8.00    0.69
 -11   3   7    6.67    0.51
 -10   3   7    9.37    0.50
  -9   3   7   11.84    0.49
  -8   3   7    3.81    0.34
  -7   3   7   18.31    0.54
  -6   3   7   33.14    0.73
  -5   3   7    2.68    0.21
  -4   3   7    5.44    0.22
  -3   3   7   22.94    0.49
  -2   3   7   41.13    0.91
  -1   3   7   40.54    0.85
   0   3   7   14.39    0.42
   1   3   7    3.29    0.21
   2   3   7   10.62    0.32
   3   3   7   22.16    0.70
   4   3   7    7.84    0.47
   5   3   7    3.58    0.38
   6   3   7    8.92    0.49
   7   3   7    0.04    0.44
   8   3   7    0.62    0.51
   9   3   7   13.53    0.65
  10   3   7   12.66    0.72
 -11   4   7    1.64    0.47
 -10   4   7    0.58    0.43
  -9   4   7    0.27    0.44
  -8   4   7    0.45    0.41
  -7   4   7    0.11    0.30
  -6   4   7   15.35    0.49
  -5   4   7    1.39    0.24
  -4   4   7    4.57    0.30
  -3   4   7    1.09    0.26
  -2   4   7    0.23    0.27
  -1   4   7    0.06    0.23
   0   4   7    2.24    0.30
   1   4   7    0.17    0.29
   2   4   7   14.23    0.62
   3   4   7    4.76    0.43
   4   4   7    0.71    0.35
   5   4   7    0.86    0.45
   6   4   7    0.61    0.47
   7   4   7    0.56    0.45
   8   4   7    2.15    0.50
  -9   5   7    7.94    0.58
  -8   5   7    6.44    0.53
  -7   5   7    8.77    0.69
  -6   5   7    8.66    0.68
  -5   5   7    4.15    0.52
  -4   5   7   12.59    0.63
  -3   5   7   32.92    1.17
  -2   5   7   29.93    1.32
  -1   5   7   33.87    1.04
   0   5   7   29.80    0.98
   1   5   7    7.14    0.52
   2   5   7    9.81    0.54
   3   5   7   25.90    0.93
   4   5   7   20.04    0.84
   5   5   7    8.35    0.53
   6   5   7    5.50    0.50
   7   5   7    4.92    0.87
  -6   6   7    0.20    0.51
  -5   6   7    0.60    0.52
  -4   6   7    0.58    0.49
  -3   6   7    1.69    0.55
  -2   6   7    9.48    0.84
  -1   6   7    1.02    0.53
   0   6   7    0.13    0.88
   1   6   7    1.54    0.63
   2   6   7    0.00    0.85
   3   6   7    0.58    0.61
 -14   0   8    3.33    1.65
 -13   0   8   22.36    2.06
 -12   0   8   44.56    1.86
 -11   0   8   44.98    1.49
 -10   0   8   15.70    0.63
  -9   0   8    4.92    0.46
  -8   0   8   25.45    0.77
  -7   0   8   40.15    1.04
  -6   0   8    1.57    0.24
  -5   0   8    1.65    0.20
  -4   0   8   15.11    0.55
  -3   0   8   61.19    1.77
  -2   0   8   57.62    1.61
  -1   0   8   64.52    1.46
   0   0   8   14.51    0.40
   1   0   8    2.73    0.20
   2   0   8    0.42    0.18
   3   0   8   16.87    0.50
   4   0   8   29.92    0.87
   5   0   8    1.46    0.27
   6   0   8    1.14    0.29
   7   0   8    6.28    0.47
   8   0   8   19.01    0.88
   9   0   8    4.53    1.28
  10   0   8    7.90    1.88
  11   0   8   12.10    1.41
 -14   1   8    1.77    0.63
 -13   1   8    0.40    0.44
 -12   1   8    0.85    0.33
 -11   1   8    3.59    0.36
 -10   1   8    0.37    0.21
  -9   1   8    0.98    0.21
  -8   1   8    1.59    0.21
  -7   1   8    1.28    0.17
  -6   1   8    8.59    0.25
  -5   1   8    0.14    0.14
  -4   1   8    7.39    0.24
  -3   1   8   31.32    0.61
  -2   1   8   11.88    0.32
  -1   1   8   50.56    0.86
   0   1   8    6.68    0.22
   1   1   8    0.25    0.10
   2   1   8    4.92    0.20
   3   1   8    0.10    0.13
   4   1   8    0.17    0.16
   5   1   8    5.89    0.27
   6   1   8    4.85    0.30
   7   1   8    8.17    0.50
   8   1   8    2.52    0.56
   9   1   8    2.24    0.60
  10   1   8    0.99    0.62
  11   1   8    1.46    0.65
 -13   2   8   25.88    0.92
 -12   2   8    6.15    0.52
 -11   2   8    2.91    0.37
 -10   2   8   17.77    0.64
  -9   2   8   15.14    0.56
  -8   2   8    6.65    0.35
  -7   2   8   22.91    0.61
  -6   2   8   14.78    0.45
  -5   2   8    7.38    0.30
  -4   2   8   31.55    0.68
  -3   2   8   55.96    1.05
  -2   2   8  101.99    1.88
  -1   2   8   72.52    1.40
   0   2   8   25.68    0.57
   1   2   8   20.00    0.44
   2   2   8   22.22    0.50
   3   2   8   28.22    0.62
   4   2   8   35.80    0.81
   5   2   8   17.61    0.52
   6   2   8   11.04    0.55
   7   2   8   18.50    0.70
   8   2   8   19.90    0.79
   9   2   8   12.43    0.74
  10   2   8   13.46    0.75
 -13   3   8    1.72    0.43
 -12   3   8    0.45    0.51
 -11   3   8    0.26    0.38
 -10   3   8    5.65    0.44
  -9   3   8    0.09    0.30
  -8   3   8    0.42    0.29
  -7   3   8    3.69    0.39
  -6   3   8    0.13    0.18
  -5   3   8    9.19    0.36
  -4   3   8    0.35    0.13
  -3   3   8   10.43    0.30
  -2   3   8    1.48    0.15
  -1   3   8    7.11    0.24
   0   3   8    0.65    0.18
   1   3   8    3.68    0.24
   2   3   8    0.19    0.21
   3   3   8   14.44    0.44
   4   3   8    3.70    0.37
   5   3   8    2.61    0.39
   6   3   8    6.45    0.55
   7   3   8    2.03    0.56
   8   3   8    1.49    0.58
   9   3   8    0.69    0.70
 -11   4   8    2.18    0.43
 -10   4   8    5.53    0.48
  -9   4   8    7.45    0.56
  -8   4   8    3.73    0.39
  -7   4   8   18.88    0.70
  -6   4   8   15.29    0.54
  -5   4   8    7.06    0.35
  -4   4   8   14.51    0.57
  -3   4   8   18.05    0.67
  -2   4   8   23.76    0.90
  -1   4   8   11.55    0.58
   0   4   8    6.07    0.47
   1   4   8   19.79    0.85
   2   4   8   15.60    0.53
   3   4   8    8.70    0.53
   4   4   8   16.45    0.66
   5   4   8   10.86    0.60
   6   4   8    4.51    0.69
   7   4   8    4.15    0.65
   8   4   8    2.88    0.69
  -9   5   8    2.17    0.37
  -8   5   8    0.00    0.29
  -7   5   8    0.48    0.53
  -6   5   8    0.44    0.52
  -5   5   8    0.00    0.52
  -4   5   8    1.06    1.39
  -3   5   8    0.54    0.67
  -2   5   8    1.14    0.65
  -1   5   8    1.31    0.65
   0   5   8    0.61    0.63
   1   5   8    0.72    0.98
   2   5   8    1.95    0.99
   3   5   8    4.22    0.98
   4   5   8    2.24    0.60
   5   5   8    6.76    0.68
   6   5   8    2.73    0.66
  -6   6   8    7.97    0.84
  -5   6   8    1.46    0.62
  -4   6   8    2.87    0.50
  -3   6   8    0.57    1.22
  -2   6   8    0.00    1.07
  -1   6   8    9.06    1.39
   0   6   8   12.65    1.51
   1   6   8    2.51    1.69
   2   6   8   14.69    1.60
 -14   0   9    0.47    1.49
 -13   0   9    0.59    1.42
 -12   0   9    0.00    0.84
 -11   0   9    0.13    0.60
 -10   0   9    0.02    0.56
  -9   0   9    0.12    0.53
  -8   0   9    0.19    0.50
  -7   0   9    0.06    0.44
  -6   0   9    0.03    0.29
  -5   0   9    0.00    0.40
  -4   0   9    0.00    0.38
  -3   0   9    0.10    0.33
  -2   0   9    0.11    0.32
  -1   0   9    0.11    0.25
   0   0   9    0.10    0.27
   1   0   9    0.21    0.29
   2   0   9    0.07    0.33
   3   0   9    0.03    0.37
   4   0   9    0.08    0.52
   5   0   9    0.12    0.57
   6   0   9    0.61    0.52
   7   0   9    0.42    0.56
   8   0   9    0.81    0.90
   9   0   9    2.28    1.34
  10   0   9    1.98    1.39
 -14   1   9    7.99    0.93
 -13   1   9    5.36    0.84
 -12   1   9   13.06    0.77
 -11   1   9    0.25    0.57
 -10   1   9    0.19    0.39
  -9   1   9   42.68    0.94
  -8   1   9   51.42    1.23
  -7   1   9    6.77    0.50
  -6   1   9   19.63    0.56
  -5   1   9   50.39    1.28
  -4   1   9   35.95    1.03
  -3   1   9   24.97    0.65
  -2   1   9   30.55    0.72
  -1   1   9   35.14    0.75
   0   1   9   47.80    1.01
   1   1   9   43.02    1.00
   2   1   9   18.36    0.51
   3   1   9   50.63    1.04
   4   1   9   64.13    1.58
   5   1   9    9.96    0.63
   6   1   9    1.44    0.52
   7   1   9    3.67    0.57
   8   1   9    8.83    0.69
   9   1   9    2.28    1.19
  10   1   9    8.03    1.08
 -13   2   9    1.17    0.68
 -12   2   9    0.66    0.62
 -11   2   9    0.00    0.51
 -10   2   9    7.08    0.50
  -9   2   9    1.69    0.42
  -8   2   9    6.18    0.49
  -7   2   9    3.00    0.34
  -6   2   9    0.06    0.31
  -5   2   9    3.48    0.32
  -4   2   9    5.80    0.32
  -3   2   9    0.45    0.26
  -2   2   9    9.58    0.31
  -1   2   9    3.28    0.25
   0   2   9    1.80    0.22
   1   2   9    1.28    0.21
   2   2   9    0.61    0.27
   3   2   9    2.77    0.36
   4   2   9   13.13    0.52
   5   2   9    1.23    0.49
   6   2   9    1.22    0.55
   7   2   9    1.50    0.59
   8   2   9    0.24    0.69
   9   2   9    0.00    1.04
 -12   3   9   11.63    0.77
 -11   3   9   14.90    0.71
 -10   3   9   12.58    0.67
  -9   3   9   13.20    0.62
  -8   3   9   13.24    0.61
  -7   3   9   30.31    0.84
  -6   3   9   31.83    0.92
  -5   3   9    0.73    0.37
  -4   3   9    5.70    0.37
  -3   3   9   28.66    0.84
  -2   3   9   91.05    1.96
  -1   3   9    2.25    0.34
   0   3   9    4.35    0.35
   1   3   9   21.60    0.54
   2   3   9   34.80    0.96
   3   3   9   19.31    0.78
   4   3   9   13.42    0.65
   5   3   9    9.80    0.63
   6   3   9   16.34    0.69
   7   3   9    6.72    0.69
   8   3   9    4.58    0.83
   9   3   9   10.77    0.69
 -11   4   9    2.80    0.64
 -10   4   9    0.00    0.59
  -9   4   9    0.23    0.53
  -8   4   9    0.00    0.44
  -7   4   9    0.00    0.43
  -6   4   9    1.69    0.41
  -5   4   9    0.14    0.35
  -4   4   9    2.83    0.44
  -3   4   9    2.12    0.48
  -2   4   9    2.32    0.42
  -1   4   9    5.39    0.46
   0   4   9    0.49    0.45
   1   4   9    2.32    0.46
   2   4   9    4.34    0.52
   3   4   9    0.43    0.56
   4   4   9    1.25    0.68
   5   4   9    1.75    0.57
   6   4   9    1.97    1.12
   7   4   9    2.20    0.69
  -9   5   9   10.28    0.80
  -8   5   9    9.65    0.85
  -7   5   9    0.00    0.74
  -6   5   9    0.75    0.80
  -5   5   9    6.62    0.71
  -4   5   9    1.72    0.67
  -3   5   9   17.26    0.87
  -2   5   9   32.09    1.42
  -1   5   9    8.03    0.76
   0   5   9    5.33    1.01
   1   5   9    3.99    1.52
   2   5   9    3.53    1.04
   3   5   9   16.44    1.18
   4   5   9   24.69    1.44
   5   5   9    5.62    0.86
  -4   6   9    8.77    1.04
  -3   6   9    7.67    1.47
  -2   6   9    2.25    1.01
  -1   6   9    1.60    1.07
   0   6   9    2.42    1.09
   1   6   9    0.00    0.84
 -14   0  10    4.84    0.96
 -13   0  10    8.97    1.62
 -12   0  10   23.31    1.58
 -11   0  10    3.92    0.90
 -10   0  10    1.26    0.75
  -9   0  10   26.97    1.07
  -8   0  10   49.73    1.63
  -7   0  10   44.09    1.77
  -6   0  10    2.08    0.68
  -5   0  10    5.04    0.48
  -4   0  10  104.49    2.99
  -3   0  10   38.96    1.62
  -2   0  10   48.13    1.55
  -1   0  10   97.55    2.32
   0   0  10    0.00    0.80
   1   0  10    0.00    0.35
   2   0  10   49.27    1.30
   3   0  10   55.91    1.70
   4   0  10    9.91    0.91
   5   0  10    8.37    0.80
   6   0  10   40.73    1.19
   7   0  10   53.42    1.74
   8   0  10   35.39    1.81
   9   0  10   12.45    1.81
 -13   1  10    0.00    0.82
 -12   1  10    0.30    0.63
 -11   1  10    0.00    0.59
 -10   1  10    6.68    0.51
  -9   1  10   14.64    0.54
  -8   1  10    0.78    0.39
  -7   1  10    2.45    0.37
  -6   1  10    3.48    0.31
  -5   1  10    0.12    0.31
  -4   1  10    0.01    0.27
  -3   1  10    7.21    0.29
  -2   1  10    4.46    0.27
  -1   1  10    0.33    0.24
   0   1  10    0.52    0.21
   1   1  10    5.44    0.26
   2   1  10    4.20    0.28
   3   1  10    3.87    0.31
   4   1  10    6.54    0.44
   5   1  10    0.29    0.44
   6   1  10    1.23    0.60
   7   1  10    3.16    0.64
   8   1  10    1.32    0.81
   9   1  10    5.04    1.11
 -13   2  10    5.52    0.81
 -12   2  10    1.89    0.70
 -11   2  10    1.23    0.62
 -10   2  10    8.70    0.68
  -9   2  10    9.43    0.60
  -8   2  10   10.23    0.47
  -7   2  10   19.58    0.63
  -6   2  10    2.57    0.43
  -5   2  10    5.73    0.40
  -4   2  10   35.75    0.79
  -3   2  10   21.84    0.62
  -2   2  10   25.82    0.65
  -1   2  10   35.02    0.77
   0   2  10    5.18    0.39
   1   2  10    4.28    0.29
   2   2  10   22.95    0.58
   3   2  10   14.40    0.58
   4   2  10    7.22    0.48
   5   2  10   17.41    0.80
   6   2  10    9.58    0.71
   7   2  10    1.57    0.65
   8   2  10   18.49    0.84
   9   2  10   25.23    1.12
 -12   3  10    1.53    0.77
 -11   3  10    0.57    0.63
 -10   3  10    0.00    0.53
  -9   3  10    7.68    0.55
  -8   3  10    0.21    0.45
  -7   3  10    1.31    0.36
  -6   3  10    0.00    0.37
  -5   3  10    6.48    0.39
  -4   3  10    0.19    0.33
  -3   3  10   15.45    0.47
  -2   3  10   25.13    0.69
  -1   3  10    3.60    0.37
   0   3  10    2.82    0.34
   1   3  10    0.94    0.36
   2   3  10    1.13    0.40
   3   3  10    1.02    0.53
   4   3  10    2.21    0.50
   5   3  10    2.07    0.60
   6   3  10    2.85    0.91
   7   3  10    2.13    0.83
   8   3  10    0.79    0.78
 -11   4  10    5.84    0.67
 -10   4  10   21.72    0.89
  -9   4  10    6.68    0.74
  -8   4  10   10.74    0.58
  -7   4  10   18.28    0.76
  -6   4  10   10.19    0.58
  -5   4  10   13.60    0.53
  -4   4  10   17.21    0.59
  -3   4  10   20.41    0.77
  -2   4  10   25.69    0.89
  -1   4  10   19.33    0.75
   0   4  10   14.60    0.74
   1   4  10    9.52    0.52
   2   4  10   15.93    0.74
   3   4  10    7.41    0.73
   4   4  10    0.33    0.65
   5   4  10    9.10    0.80
   6   4  10    0.00    0.75
  -8   5  10    0.00    0.56
  -7   5  10    0.31    0.86
  -6   5  10    1.88    0.83
  -5   5  10    0.00    0.61
  -4   5  10    0.84    0.59
  -3   5  10    4.22    0.48
  -2   5  10    1.13    0.52
  -1   5  10    0.19    0.50
   0   5  10    0.61    0.71
   1   5  10    1.32    0.91
   2   5  10    2.02    0.95
   3   5  10    2.72    0.97
   4   5  10    6.71    1.36
 -13   0  11    0.77    1.70
 -12   0  11    0.04    0.40
 -11   0  11    0.24    0.39
 -10   0  11    0.01    0.35
  -9   0  11    0.02    0.32
  -8   0  11    0.01    0.31
  -7   0  11    0.19    0.30
  -6   0  11    0.07    0.27
  -5   0  11    0.01    0.26
  -4   0  11    0.02    0.25
  -3   0  11    0.03    0.23
  -2   0  11    0.02    0.24
  -1   0  11    0.07    0.25
   0   0  11    0.01    0.23
   1   0  11    0.04    0.21
   2   0  11    0.03    0.23
   3   0  11    0.12    0.25
   4   0  11    0.14    0.31
   5   0  11    0.27    0.29
   6   0  11    0.72    0.42
   7   0  11    2.88    1.06
   8   0  11    2.99    1.61
   9   0  11    2.02    0.91
 -13   1  11   15.60    0.82
 -12   1  11   19.50    0.82
 -11   1  11    8.90    0.60
 -10   1  11   10.99    0.54
  -9   1  11   19.81    0.65
  -8   1  11   16.78    0.60
  -7   1  11    9.66    0.43
  -6   1  11    1.03    0.21
  -5   1  11   12.35    0.43
  -4   1  11   32.11    0.74
  -3   1  11    8.97    0.36
  -2   1  11   25.83    0.56
  -1   1  11   26.12    0.57
   0   1  11   11.39    0.35
   1   1  11   10.19    0.36
   2   1  11    8.02    0.30
   3   1  11   45.33    0.90
   4   1  11   30.37    0.75
   5   1  11    0.47    0.26
   6   1  11    3.26    0.58
   7   1  11   10.55    0.75
   8   1  11    5.35    0.69
   9   1  11    8.38    0.68
 -13   2  11    0.00    0.45
 -12   2  11    4.12    0.52
 -11   2  11    0.27    0.40
 -10   2  11    1.03    0.46
  -9   2  11    6.25    0.48
  -8   2  11    5.50    0.38
  -7   2  11    3.88    0.31
  -6   2  11    1.72    0.26
  -5   2  11    4.35    0.31
  -4   2  11   14.44    0.46
  -3   2  11   22.78    0.61
  -2   2  11   24.57    0.64
  -1   2  11    1.24    0.22
   0   2  11    5.41    0.31
   1   2  11    1.47    0.20
   2   2  11    4.24    0.32
   3   2  11   13.00    0.51
   4   2  11    4.70    0.35
   5   2  11    7.87    0.58
   6   2  11    1.54    0.82
   7   2  11    1.84    1.07
   8   2  11    1.02    0.87
 -12   3  11    0.27    0.56
 -11   3  11   10.86    0.81
 -10   3  11   10.96    0.68
  -9   3  11    2.03    0.49
  -8   3  11   18.66    0.86
  -7   3  11   29.29    0.97
  -6   3  11   11.20    0.50
  -5   3  11    6.80    0.43
  -4   3  11   20.59    0.64
  -3   3  11   81.95    1.99
  -2   3  11   47.16    1.33
  -1   3  11    3.43    0.35
   0   3  11    9.96    0.48
   1   3  11   36.23    1.08
   2   3  11   27.23    0.86
   3   3  11   12.83    0.65
   4   3  11    6.81    0.63
   5   3  11    9.53    0.60
   6   3  11   13.13    0.82
   7   3  11    6.78    0.76
 -10   4  11    0.30    0.44
  -9   4  11    0.93    0.45
  -8   4  11    3.39    0.48
  -7   4  11    1.58    0.57
  -6   4  11    0.37    0.39
  -5   4  11    1.20    0.38
  -4   4  11    9.25    0.52
  -3   4  11    0.48    0.46
  -2   4  11    0.80    0.45
  -1   4  11    6.54    0.46
   0   4  11    0.47    0.38
   1   4  11    0.17    0.48
   2   4  11    3.27    0.70
   3   4  11    0.82    0.68
   4   4  11    2.43    0.53
   5   4  11    1.83    0.72
  -7   5  11    2.42    1.30
  -6   5  11    1.35    0.84
  -5   5  11    6.28    0.87
  -4   5  11    4.06    0.55
  -3   5  11   12.13    0.77
  -2   5  11    5.66    0.69
  -1   5  11    2.04    0.58
   0   5  11    3.45    0.88
   1   5  11    0.00    0.74
   2   5  11    2.10    0.86
   3   5  11    6.22    0.75
 -13   0  12    6.83    1.43
 -12   0  12    2.94    0.70
 -11   0  12    0.59    0.61
 -10   0  12   33.48    1.18
  -9   0  12   72.49    2.25
  -8   0  12   15.87    1.07
  -7   0  12   34.79    1.38
  -6   0  12   44.72    1.64
  -5   0  12   53.66    1.87
  -4   0  12   52.18    1.94
  -3   0  12   34.42    1.63
  -2   0  12   75.15    2.44
  -1   0  12   51.54    1.93
   0   0  12   33.16    1.45
   1   0  12   34.21    1.42
   2   0  12   33.42    1.34
   3   0  12   57.05    1.57
   4   0  12   10.16    0.89
   5   0  12    0.29    0.54
   6   0  12   21.52    0.93
   7   0  12   21.94    1.21
   8   0  12   10.62    1.56
 -13   1  12    2.95    0.60
 -12   1  12    1.57    0.55
 -11   1  12    0.00    0.50
 -10   1  12    0.14    0.39
  -9   1  12    1.45    0.40
  -8   1  12    2.15    0.34
  -7   1  12    0.37    0.30
  -6   1  12    0.26    0.29
  -5   1  12    0.47    0.27
  -4   1  12    0.28    0.26
  -3   1  12    3.84    0.30
  -2   1  12    0.09    0.26
  -1   1  12    0.00    0.25
   0   1  12    0.80    0.24
   1   1  12    1.52    0.26
   2   1  12    0.14    0.25
   3   1  12    4.44    0.38
   4   1  12    9.33    0.49
   5   1  12    1.41    0.42
   6   1  12    1.47    0.54
   7   1  12    3.51    0.71
   8   1  12    5.09    0.97
 -12   2  12    4.80    0.61
 -11   2  12    0.79    0.53
 -10   2  12    9.35    0.60
  -9   2  12   20.17    0.71
  -8   2  12    8.23    0.51
  -7   2  12   12.36    0.51
  -6   2  12    5.27    0.41
  -5   2  12    0.18    0.30
  -4   2  12    7.15    0.35
  -3   2  12   22.36    0.60
  -2   2  12    4.12    0.34
  -1   2  12    0.00    0.25
   0   2  12    8.67    0.34
   1   2  12   13.74    0.51
   2   2  12    6.80    0.45
   3   2  12   15.43    0.67
   4   2  12    8.62    0.73
   5   2  12    1.94    0.62
   6   2  12    1.29    0.64
   7   2  12    1.91    0.72
 -11   3  12    0.35    0.46
 -10   3  12    0.53    0.50
  -9   3  12    0.07    0.46
  -8   3  12    0.18    0.41
  -7   3  12    1.25    0.31
  -6   3  12    0.00    0.32
  -5   3  12    0.46    0.26
  -4   3  12    0.59    0.25
  -3   3  12    6.00    0.31
  -2   3  12    0.83    0.29
  -1   3  12    0.66    0.28
   0   3  12    0.47    0.30
   1   3  12    4.22    0.36
   2   3  12    0.32    0.36
   3   3  12    2.56    0.53
   4   3  12    1.66    0.56
   5   3  12    0.49    0.67
  -9   4  12   13.12    0.64
  -8   4  12   10.72    0.58
  -7   4  12    8.40    0.49
  -6   4  12   10.31    0.47
  -5   4  12    0.00    0.29
  -4   4  12    4.36    0.33
  -3   4  12   43.38    1.10
  -2   4  12    6.77    0.57
  -1   4  12    0.45    0.29
   0   4  12    9.02    0.43
   1   4  12    7.94    0.49
   2   4  12   13.10    0.64
   3   4  12   10.98    0.72
   4   4  12   10.11    0.89
  -6   5  12    0.32    0.51
  -5   5  12    0.89    0.41
  -4   5  12    0.30    0.41
  -3   5  12    0.60    0.40
  -2   5  12    0.29    0.36
  -1   5  12    0.75    0.40
   0   5  12    0.13    0.50
   1   5  12    1.75    0.56
 -12   0  13    0.32    0.39
 -11   0  13    0.01    0.36
 -10   0  13    0.00    0.35
  -9   0  13    0.06    0.32
  -8   0  13    0.00    0.31
  -7   0  13    0.00    0.33
  -6   0  13    0.00    0.32
  -5   0  13    0.21    0.27
  -4   0  13    0.03    0.30
  -3   0  13    0.09    0.25
  -2   0  13    0.05    0.31
  -1   0  13    0.15    0.26
   0   0  13    0.10    0.31
   1   0  13    0.17    0.27
   2   0  13    0.22    0.29
   3   0  13    0.13    0.31
   4   0  13    0.36    0.33
   5   0  13    0.67    0.46
   6   0  13    1.50    0.53
   7   0  13    2.68    0.88
 -12   1  13    8.75    0.60
 -11   1  13    1.32    0.34
 -10   1  13    5.67    0.42
  -9   1  13    5.38    0.38
  -8   1  13   16.59    0.56
  -7   1  13    4.46    0.30
  -6   1  13    0.49    0.22
  -5   1  13   34.47    0.83
  -4   1  13   35.27    0.84
  -3   1  13   17.04    0.53
  -2   1  13   55.10    1.21
  -1   1  13    3.32    0.26
   0   1  13    0.67    0.19
   1   1  13   13.80    0.46
   2   1  13   16.25    0.50
   3   1  13   10.88    0.47
   4   1  13    6.65    0.42
   5   1  13   11.78    0.55
   6   1  13   19.44    0.90
   7   1  13   13.84    1.12
 -12   2  13    1.82    0.43
 -11   2  13    5.71    0.50
 -10   2  13    3.75    0.43
  -9   2  13    0.21    0.28
  -8   2  13    4.71    0.35
  -7   2  13    5.31    0.44
  -6   2  13    5.75    0.38
  -5   2  13    7.15    0.41
  -4   2  13    0.02    0.20
  -3   2  13    0.22    0.19
  -2   2  13    3.31    0.29
  -1   2  13    9.60    0.41
   0   2  13    0.50    0.23
   1   2  13    5.10    0.38
   2   2  13    0.83    0.26
   3   2  13    1.28    0.28
   4   2  13    0.64    0.34
   5   2  13    2.03    0.39
   6   2  13    5.68    1.62
 -10   3  13   15.41    0.72
  -9   3  13   11.49    0.62
  -8   3  13   12.96    0.56
  -7   3  13    6.84    0.43
  -6   3  13   11.67    0.51
  -5   3  13   27.39    0.74
  -4   3  13   22.00    0.64
  -3   3  13   19.74    0.67
  -2   3  13   27.76    0.84
  -1   3  13   20.28    0.68
   0   3  13    9.47    0.46
   1   3  13   16.97    0.67
   2   3  13   15.55    0.70
   3   3  13    2.90    0.44
   4   3  13    8.36    0.62
   5   3  13    7.01    0.68
  -8   4  13    0.99    0.32
  -7   4  13    0.55    0.26
  -6   4  13    0.15    0.22
  -5   4  13    2.03    0.32
  -4   4  13    0.29    0.29
  -3   4  13    5.07    0.47
  -2   4  13    0.31    0.32
  -1   4  13    1.99    0.40
   0   4  13    0.47    0.23
   1   4  13    2.54    0.36
   2   4  13    0.66    0.34
   3   4  13    0.74    0.40
  -4   5  13    1.17    0.35
  -3   5  13    2.23    0.38
  -2   5  13    1.50    0.34
 -12   0  14    4.67    1.00
 -11   0  14   17.96    0.94
 -10   0  14   44.17    1.53
  -9   0  14   18.72    1.34
  -8   0  14   16.62    1.02
  -7   0  14    8.82    0.71
  -6   0  14    9.99    0.81
  -5   0  14   27.11    1.12
  -4   0  14    0.00    0.59
  -3   0  14    2.29    0.52
  -2   0  14   27.99    1.04
  -1   0  14   17.89    0.96
   0   0  14   31.67    1.18
   1   0  14   14.23    0.78
   2   0  14   36.93    1.38
   3   0  14   68.84    2.77
   4   0  14    0.00    1.25
   5   0  14    0.70    0.85
   6   0  14   11.41    1.58
 -12   1  14    0.00    0.63
 -11   1  14    0.17    0.50
 -10   1  14    6.97    0.53
  -9   1  14    7.44    0.53
  -8   1  14    0.00    0.40
  -7   1  14    0.00    0.36
  -6   1  14    2.45    0.36
  -5   1  14    0.12    0.34
  -4   1  14    3.57    0.38
  -3   1  14    2.90    0.37
  -2   1  14    0.11    0.34
  -1   1  14    0.70    0.35
   0   1  14    0.35    0.35
   1   1  14    1.29    0.36
   2   1  14    9.64    0.58
   3   1  14    1.63    0.56
   4   1  14    0.00    0.57
   5   1  14    2.30    0.89
   6   1  14    5.48    0.96
 -11   2  14    4.17    0.63
 -10   2  14    5.61    0.62
  -9   2  14   13.87    0.77
  -8   2  14   18.45    0.73
  -7   2  14    4.69    0.48
  -6   2  14    0.50    0.44
  -5   2  14    7.86    0.46
  -4   2  14   14.89    0.63
  -3   2  14   14.84    0.69
  -2   2  14    2.78    0.43
  -1   2  14    1.72    0.42
   0   2  14   15.78    0.74
   1   2  14   10.80    0.59
   2   2  14   13.17    0.72
   3   2  14   15.96    0.89
   4   2  14    1.36    0.84
   5   2  14    0.28    0.70
 -10   3  14    0.56    0.58
  -9   3  14    2.37    0.54
  -8   3  14    0.55    0.40
  -7   3  14    0.29    0.41
  -6   3  14    0.06    0.40
  -5   3  14    4.68    0.42
  -4   3  14    6.96    0.49
  -3   3  14    7.77    0.51
  -2   3  14    5.38    0.48
  -1   3  14    0.15    0.41
   0   3  14    1.33    0.42
   1   3  14    0.62    0.45
   2   3  14    0.08    0.75
   3   3  14    0.54    0.60
   4   3  14    1.16    0.80
  -7   4  14    3.73    0.54
  -6   4  14    4.64    0.48
  -5   4  14    5.50    0.47
  -4   4  14   38.79    1.31
  -3   4  14   40.83    1.42
  -2   4  14    5.88    0.66
  -1   4  14    4.72    0.44
   0   4  14    5.47    0.64
   1   4  14    8.90    0.66
 -11   0  15    0.00    0.85
 -10   0  15    0.12    0.85
  -9   0  15    0.11    0.80
  -8   0  15    0.28    0.77
  -7   0  15    0.04    0.74
  -6   0  15    0.12    0.72
  -5   0  15    0.12    0.69
  -4   0  15    0.04    0.68
  -3   0  15    0.04    0.69
  -2   0  15    0.00    0.70
  -1   0  15    0.04    0.66
   0   0  15    0.09    0.65
   1   0  15    0.29    0.68
   2   0  15    0.25    0.69
   3   0  15    0.44    0.70
   4   0  15    1.13    0.96
   5   0  15    1.19    1.01
 -11   1  15    3.91    0.63
 -10   1  15   22.00    0.89
  -9   1  15    4.83    0.68
  -8   1  15   18.85    0.83
  -7   1  15   11.81    0.70
  -6   1  15    2.81    0.57
  -5   1  15   26.82    0.82
  -4   1  15   48.60    1.20
  -3   1  15   45.37    1.30
  -2   1  15    8.21    0.69
  -1   1  15    2.64    0.54
   0   1  15   20.78    0.70
   1   1  15    7.77    0.62
   2   1  15    6.90    0.73
   3   1  15    6.23    0.81
   4   1  15    0.00    0.98
   5   1  15    6.03    1.65
 -10   2  15    0.08    0.75
  -9   2  15    0.00    0.63
  -8   2  15    2.45    0.57
  -7   2  15    4.54    0.61
  -6   2  15    0.36    0.58
  -5   2  15    1.63    0.55
  -4   2  15    0.27    0.53
  -3   2  15    1.58    0.53
  -2   2  15    3.35    0.59
  -1   2  15    0.67    0.57
   0   2  15    9.43    0.67
   1   2  15    1.94    0.63
   2   2  15    0.75    0.63
   3   2  15    5.41    0.98
   4   2  15    5.57    1.03
  -9   3  15    7.72    1.04
  -8   3  15    0.42    0.74
  -7   3  15    8.39    0.73
  -6   3  15    5.37    0.60
  -5   3  15    3.22    0.58
  -4   3  15    6.32    0.79
  -3   3  15    3.34    0.76
  -2   3  15    2.33    0.75
  -1   3  15   10.19    0.69
   0   3  15    2.89    0.77
   1   3  15    4.51    0.66
   2   3  15   20.95    1.59
  -5   4  15    1.31    0.74
  -4   4  15    3.65    0.78
  -3   4  15    3.40    0.78
  -2   4  15    0.13    0.77
  -1   4  15    0.47    0.75
 -10   0  16    0.00    0.89
  -9   0  16    3.21    0.90
  -8   0  16    9.69    0.93
  -7   0  16    1.53    0.81
  -6   0  16    9.22    0.84
  -5   0  16   26.52    1.19
  -4   0  16    3.10    0.85
  -3   0  16   26.00    1.16
  -2   0  16    5.95    0.88
  -1   0  16    0.00    0.73
   0   0  16   11.76    0.87
   1   0  16   10.08    0.89
   2   0  16   18.22    1.02
   3   0  16   21.55    1.36
 -10   1  16    1.69    0.67
  -9   1  16    0.00    0.65
  -8   1  16    0.25    0.61
  -7   1  16    4.42    0.64
  -6   1  16   14.77    0.74
  -5   1  16    1.50    0.55
  -4   1  16    3.16    0.54
  -3   1  16    3.08    0.53
  -2   1  16   14.10    0.64
  -1   1  16    2.63    0.59
   0   1  16    0.14    0.63
   1   1  16    1.26    0.64
   2   1  16    6.80    0.72
   3   1  16    2.99    0.81
  -9   2  16   11.21    0.75
  -8   2  16    9.04    0.82
  -7   2  16    0.39    0.56
  -6   2  16   18.41    0.78
  -5   2  16   28.59    1.00
  -4   2  16   11.61    0.76
  -3   2  16   28.74    1.08
  -2   2  16   14.69    0.89
  -1   2  16    0.36    0.77
   0   2  16   11.46    0.74
   1   2  16   17.36    0.88
   2   2  16    5.78    1.02
  -7   3  16    0.41    0.53
  -6   3  16    0.78    0.56
  -5   3  16    1.28    0.68
  -4   3  16    2.56    0.76
  -3   3  16    2.14    0.58
  -2   3  16    0.00    1.03
  -1   3  16    0.00    0.74
   0   3  16    0.00    0.74
  -9   0  17    0.31    0.75
  -8   0  17    0.20    0.66
  -7   0  17    0.13    0.64
  -6   0  17    0.18    0.63
  -5   0  17    0.41    0.67
  -4   0  17    0.28    0.70
  -3   0  17    0.44    0.68
  -2   0  17    0.26    0.66
  -1   0  17    0.36    0.65
   0   0  17    0.36    0.67
   1   0  17    0.66    0.68
   2   0  17    0.74    0.87
  -9   1  17   23.04    1.21
  -8   1  17   16.07    0.77
  -7   1  17    1.12    0.56
  -6   1  17    4.81    0.59
  -5   1  17    5.03    0.55
  -4   1  17    4.47    0.56
  -3   1  17    4.61    0.57
  -2   1  17    1.41    0.53
  -1   1  17   19.38    0.77
   0   1  17   20.42    0.87
   1   1  17    9.32    0.75
  -7   2  17    2.23    0.55
  -6   2  17    1.04    0.54
  -5   2  17    1.68    0.52
  -4   2  17    2.23    0.52
  -3   2  17    1.15    0.54
  -2   2  17    2.54    0.58
  -1   2  17    4.34    0.60
   0   2  17    0.74    0.55
  -7   0  18    0.62    0.59
  -6   0  18    9.11    0.78
  -5   0  18   61.33    1.98
  -4   0  18   63.90    2.19
  -3   0  18    6.56    0.77
  -2   0  18    1.34    0.48
  -1   0  18   10.52    0.81
  -6   1  18    1.51    0.43
  -5   1  18    0.21    0.30
  -4   1  18    0.55    0.36
  -3   1  18    3.51    0.43
  -2   1  18    0.91    0.38
  -1   1  18    0.56    0.37
   0   0   0    0.00    0.00
;
_shelx_hkl_checksum              64911
_olex2_submission_special_instructions 'No special instructions were received'
loop_
_space_group_symop_operation_xyz
'x, y, z'
'-x, y+1/2, -z+1/2'
'-x, -y, -z'
'x, -y-1/2, z-1/2'
loop_
_atom_site_label
_atom_site_type_symbol
_atom_site_fract_x
_atom_site_fract_y
_atom_site_fract_z
_atom_site_U_iso_or_equiv
_atom_site_adp_type
_atom_site_occupancy
_atom_site_site_symmetry_order
_atom_site_calc_flag
_atom_site_refinement_flags_posn
_atom_site_refinement_flags_adp
_atom_site_refinement_flags_occupancy
_atom_site_disorder_assembly
_atom_site_disorder_group
Co1 Co 0.5000 0.0000 0.5000 0.0092(2) Uani 1 2 d S T P . .
N1 N 0.3208(3) 0.0063(6) 0.45412(19) 0.0095(6) Uani 1 1 d . . . . .
N2 N 0.5089(3) 0.2881(6) 0.4195(2) 0.0093(6) Uani 1 1 d . . . . .
C1 C 0.2386(3) -0.1440(7) 0.4835(3) 0.0121(8) Uani 1 1 d . . . . .
C2 C 0.1161(4) -0.0798(8) 0.4329(3) 0.0171(9) Uani 1 1 d . . . . .
H2 H 0.0439 -0.1533 0.4413 0.021 Uiso 1 1 calc R . . . .
C3 C 0.1225(4) 0.1046(8) 0.3712(3) 0.0163(8) Uani 1 1 d . . . . .
H3 H 0.0556 0.1821 0.3270 0.020 Uiso 1 1 calc R . . . .
C4 C 0.2492(3) 0.1617(8) 0.3849(3) 0.0132(8) Uani 1 1 d . . . . .
C5 C 0.2911(4) 0.3566(8) 0.3401(3) 0.0145(8) Uani 1 1 d . . . . .
C6 C 0.4132(4) 0.4209(7) 0.3618(2) 0.0122(8) Uani 1 1 d . . . . .
C7 C 0.4573(4) 0.6342(8) 0.3233(3) 0.0150(8) Uani 1 1 d . . . . .
H7 H 0.4091 0.7564 0.2834 0.018 Uiso 1 1 calc R . . . .
C8 C 0.5794(4) 0.6295(7) 0.3541(3) 0.0147(8) Uani 1 1 d . . . . .
H8 H 0.6339 0.7476 0.3403 0.018 Uiso 1 1 calc R . . . .
C9 C 0.6118(4) 0.4111(8) 0.4122(3) 0.0123(8) Uani 1 1 d . . . . .
C10 C 0.7311(4) 0.3389(8) 0.4513(3) 0.0142(8) Uani 1 1 d . . . . .
C11 C 0.2020(4) 0.5083(9) 0.2659(3) 0.0202(8) Uani 1 1 d . . . . .
H11A H 0.2336 0.5335 0.2093 0.030 Uiso 1 1 calc GR . . . .
H11B H 0.1906 0.6680 0.2940 0.030 Uiso 1 1 calc GR . . . .
H11C H 0.1237 0.4220 0.2462 0.030 Uiso 1 1 calc GR . . . .
C12 C 0.8313(4) 0.4827(9) 0.4241(3) 0.0194(9) Uani 1 1 d . . . . .
H12A H 0.9062 0.3848 0.4391 0.029 Uiso 1 1 calc GR . . . .
H12B H 0.8457 0.6368 0.4609 0.029 Uiso 1 1 calc GR . . . .
H12C H 0.8066 0.5196 0.3546 0.029 Uiso 1 1 calc GR . . . .
loop_
_atom_site_aniso_label
_atom_site_aniso_U_11
_atom_site_aniso_U_22
_atom_site_aniso_U_33
_atom_site_aniso_U_23
_atom_site_aniso_U_13
_atom_site_aniso_U_12
Co1 0.0115(3) 0.0114(4) 0.0047(3) 0.0006(3) 0.0024(2) -0.0006(3)
N1 0.0155(15) 0.0089(15) 0.0049(13) -0.0007(13) 0.0039(11) 0.0002(15)
N2 0.0147(15) 0.0086(17) 0.0046(13) -0.0017(12) 0.0028(12) -0.0024(12)
C1 0.0141(18) 0.013(2) 0.0096(16) -0.0026(14) 0.0041(14) -0.0026(15)
C2 0.0138(19) 0.020(2) 0.0184(19) -0.0065(16) 0.0055(15) -0.0028(15)
C3 0.0120(19) 0.021(2) 0.0133(18) -0.0054(16) -0.0014(15) 0.0021(16)
C4 0.0156(19) 0.015(2) 0.0083(16) -0.0045(15) 0.0012(14) 0.0025(15)
C5 0.020(2) 0.016(2) 0.0072(16) -0.0011(15) 0.0039(14) 0.0060(16)
C6 0.023(2) 0.011(2) 0.0034(15) 0.0001(13) 0.0048(14) 0.0025(15)
C7 0.029(2) 0.013(2) 0.0035(15) 0.0016(14) 0.0041(15) 0.0023(17)
C8 0.030(2) 0.009(2) 0.0079(17) -0.0004(15) 0.0089(15) -0.0026(17)
C9 0.023(2) 0.0110(19) 0.0056(16) -0.0028(14) 0.0079(15) -0.0056(15)
C10 0.018(2) 0.018(2) 0.0095(17) -0.0080(15) 0.0069(15) -0.0073(16)
C11 0.0215(19) 0.025(2) 0.0117(17) 0.0019(19) 0.0008(14) 0.007(2)
C12 0.023(2) 0.020(2) 0.0186(19) -0.0067(18) 0.0104(15) -0.0091(19)
loop_
_atom_type_symbol
_atom_type_description
_atom_type_scat_dispersion_real
_atom_type_scat_dispersion_imag
_atom_type_scat_source
C C 0.0033 0.0016 'International Tables Vol C Tables 4.2.6.8 and 6.1.1.4'
H H 0.0000 0.0000 'International Tables Vol C Tables 4.2.6.8 and 6.1.1.4'
N N 0.0061 0.0033 'International Tables Vol C Tables 4.2.6.8 and 6.1.1.4'
Co Co 0.3494 0.9721 'International Tables Vol C Tables 4.2.6.8 and 6.1.1.4'
loop_
_geom_angle_atom_site_label_1
_geom_angle_atom_site_label_2
_geom_angle_atom_site_label_3
_geom_angle
_geom_angle_site_symmetry_1
_geom_angle_site_symmetry_3
_geom_angle_publ_flag
N1 Co1 N1 180.0 . 3_656 ?
N2 Co1 N1 90.00(13) . 3_656 ?
N2 Co1 N1 90.00(13) 3_656 . ?
N2 Co1 N1 90.00(13) . . ?
N2 Co1 N1 90.00(13) 3_656 3_656 ?
N2 Co1 N2 180.00(13) 3_656 . ?
C1 N1 Co1 127.6(3) . . ?
C1 N1 C4 105.0(3) . . ?
C4 N1 Co1 127.4(3) . . ?
C6 N2 Co1 127.7(3) . . ?
C9 N2 Co1 127.5(3) . . ?
C9 N2 C6 104.6(3) . . ?
N1 C1 C2 110.3(3) . . ?
N1 C1 C10 125.6(3) . 3_656 ?
C10 C1 C2 124.0(4) 3_656 . ?
C1 C2 H2 126.3 . . ?
C3 C2 C1 107.3(4) . . ?
C3 C2 H2 126.3 . . ?
C2 C3 H3 126.4 . . ?
C2 C3 C4 107.3(4) . . ?
C4 C3 H3 126.4 . . ?
N1 C4 C3 110.1(3) . . ?
C5 C4 N1 125.9(4) . . ?
C5 C4 C3 123.9(4) . . ?
C4 C5 C6 122.4(4) . . ?
C4 C5 C11 119.7(4) . . ?
C6 C5 C11 118.0(4) . . ?
N2 C6 C5 125.9(4) . . ?
N2 C6 C7 110.6(3) . . ?
C5 C6 C7 123.4(4) . . ?
C6 C7 H7 126.4 . . ?
C8 C7 C6 107.2(4) . . ?
C8 C7 H7 126.4 . . ?
C7 C8 H8 126.6 . . ?
C7 C8 C9 106.9(4) . . ?
C9 C8 H8 126.6 . . ?
N2 C9 C8 110.5(3) . . ?
N2 C9 C10 126.6(4) . . ?
C10 C9 C8 122.9(4) . . ?
C1 C10 C12 119.6(4) 3_656 . ?
C9 C10 C1 122.0(4) . 3_656 ?
C9 C10 C12 118.3(4) . . ?
C5 C11 H11A 109.5 . . ?
C5 C11 H11B 109.5 . . ?
C5 C11 H11C 109.5 . . ?
H11A C11 H11B 109.5 . . ?
H11A C11 H11C 109.5 . . ?
H11B C11 H11C 109.5 . . ?
C10 C12 H12A 109.5 . . ?
C10 C12 H12B 109.5 . . ?
C10 C12 H12C 109.5 . . ?
H12A C12 H12B 109.5 . . ?
H12A C12 H12C 109.5 . . ?
H12B C12 H12C 109.5 . . ?
loop_
_geom_bond_atom_site_label_1
_geom_bond_atom_site_label_2
_geom_bond_distance
_geom_bond_site_symmetry_2
_geom_bond_publ_flag
Co1 N1 1.971(3) 3_656 ?
Co1 N1 1.971(3) . ?
Co1 N2 1.963(3) . ?
Co1 N2 1.963(3) 3_656 ?
N1 C1 1.389(5) . ?
N1 C4 1.391(5) . ?
N2 C6 1.383(5) . ?
N2 C9 1.377(5) . ?
C1 C2 1.434(6) . ?
C1 C10 1.393(6) 3_656 ?
C2 H2 0.9500 . ?
C2 C3 1.351(6) . ?
C3 H3 0.9500 . ?
C3 C4 1.438(5) . ?
C4 C5 1.387(6) . ?
C5 C6 1.387(6) . ?
C5 C11 1.506(5) . ?
C6 C7 1.431(5) . ?
C7 H7 0.9500 . ?
C7 C8 1.343(6) . ?
C8 H8 0.9500 . ?
C8 C9 1.440(6) . ?
C9 C10 1.382(6) . ?
C10 C1 1.394(6) 3_656 ?
C10 C12 1.517(5) . ?
C11 H11A 0.9800 . ?
C11 H11B 0.9800 . ?
C11 H11C 0.9800 . ?
C12 H12A 0.9800 . ?
C12 H12B 0.9800 . ?
C12 H12C 0.9800 . ?
loop_
_geom_torsion_atom_site_label_1
_geom_torsion_atom_site_label_2
_geom_torsion_atom_site_label_3
_geom_torsion_atom_site_label_4
_geom_torsion
_geom_torsion_site_symmetry_1
_geom_torsion_site_symmetry_2
_geom_torsion_site_symmetry_3
_geom_torsion_site_symmetry_4
_geom_torsion_publ_flag
Co1 N1 C1 C2 179.8(2) . . . . ?
Co1 N1 C1 C10 -3.5(6) . . . 3_656 ?
Co1 N1 C4 C3 179.2(3) . . . . ?
Co1 N1 C4 C5 -5.4(6) . . . . ?
Co1 N2 C6 C5 -8.7(5) . . . . ?
Co1 N2 C6 C7 173.5(2) . . . . ?
Co1 N2 C9 C8 -173.4(2) . . . . ?
Co1 N2 C9 C10 8.3(5) . . . . ?
N1 C1 C2 C3 1.4(5) . . . . ?
N1 C4 C5 C6 -1.1(6) . . . . ?
N1 C4 C5 C11 179.8(4) . . . . ?
N2 C6 C7 C8 2.1(4) . . . . ?
N2 C9 C10 C1 -9.7(6) . . . 3_656 ?
N2 C9 C10 C12 172.2(3) . . . . ?
C1 N1 C4 C3 -0.5(4) . . . . ?
C1 N1 C4 C5 174.8(4) . . . . ?
C1 C2 C3 C4 -1.6(4) . . . . ?
C2 C3 C4 N1 1.4(4) . . . . ?
C2 C3 C4 C5 -174.1(4) . . . . ?
C3 C4 C5 C6 173.7(4) . . . . ?
C3 C4 C5 C11 -5.4(6) . . . . ?
C4 N1 C1 C2 -0.5(4) . . . . ?
C4 N1 C1 C10 176.2(4) . . . 3_656 ?
C4 C5 C6 N2 8.4(6) . . . . ?
C4 C5 C6 C7 -174.0(4) . . . . ?
C5 C6 C7 C8 -175.8(3) . . . . ?
C6 N2 C9 C8 3.4(4) . . . . ?
C6 N2 C9 C10 -174.9(4) . . . . ?
C6 C7 C8 C9 0.1(4) . . . . ?
C7 C8 C9 N2 -2.2(4) . . . . ?
C7 C8 C9 C10 176.1(3) . . . . ?
C8 C9 C10 C1 172.3(4) . . . 3_656 ?
C8 C9 C10 C12 -5.9(5) . . . . ?
C9 N2 C6 C5 174.5(4) . . . . ?
C9 N2 C6 C7 -3.3(4) . . . . ?
C10 C1 C2 C3 -175.4(4) 3_656 . . . ?
C11 C5 C6 N2 -172.5(3) . . . . ?
C11 C5 C6 C7 5.1(6) . . . . ?
