#------------------------------------------------------------------------------
#$Date: 2023-09-05 22:40:57 +0300 (Tue, 05 Sep 2023) $
#$Revision: 286109 $
#$URL: file:///home/coder/svn-repositories/cod/cif/7/24/70/7247090.cif $
#------------------------------------------------------------------------------
#
# This file is available in the Crystallography Open Database (COD),
# http://www.crystallography.net/
#
# All data on this site have been placed in the public domain by the
# contributors.
#
data_7247090
loop_
_publ_author_name
'Bardina, Elena E.'
'Makotchenko, Eugeniya V.'
'Birin, Kirill P.'
'Baidina, Iraida A.'
'Sukhikh, Taisiya S.'
'Novikov, Alexander S.'
'Gorbunova, Yulia G.'
'Tsivadze, Aslan Yu.'
'Gushchin, Artem L.'
_publ_section_title
;
 Noncovalent interactions in gold(iii)
 tetrakis(4-butoxyphenyl)porphyrinate structures
;
_journal_issue                   33
_journal_name_full               CrystEngComm
_journal_page_first              4755
_journal_page_last               4767
_journal_paper_doi               10.1039/D3CE00428G
_journal_volume                  25
_journal_year                    2023
_chemical_formula_moiety         'C60 H60 Au N4 O4, Au Cl4'
_chemical_formula_sum            'C60 H60 Au2 Cl4 N4 O4'
_chemical_formula_weight         1436.85
_space_group_crystal_system      triclinic
_space_group_IT_number           2
_space_group_name_Hall           '-P 1'
_space_group_name_H-M_alt        'P -1'
_atom_sites_solution_hydrogens   geom
_atom_sites_solution_primary     direct
_audit_creation_date             2022-06-28
_audit_creation_method
;
Olex2 1.2
(compiled 2018.05.29 svn.r3508 for OlexSys, GUI svn.r5506)
;
_audit_update_record
;
2023-04-12 deposited with the CCDC.	2023-07-21 downloaded from the CCDC.
;
_cell_angle_alpha                77.941(3)
_cell_angle_beta                 82.828(3)
_cell_angle_gamma                75.258(3)
_cell_formula_units_Z            4
_cell_length_a                   16.7951(17)
_cell_length_b                   17.6474(17)
_cell_length_c                   19.8427(18)
_cell_measurement_reflns_used    9835
_cell_measurement_temperature    150(2)
_cell_measurement_theta_max      25.57
_cell_measurement_theta_min      2.27
_cell_volume                     5546.1(9)
_computing_cell_refinement       'Bruker SAINT'
_computing_data_collection       'Bruker APEX3'
_computing_data_reduction        'Bruker SAINT'
_computing_molecular_graphics    'Olex2 (Dolomanov et al., 2009)'
_computing_publication_material  'Olex2 (Dolomanov et al., 2009)'
_computing_structure_refinement  'ShelXL (Sheldrick, 2015)'
_computing_structure_solution    'ShelXS (Sheldrick, 2008)'
_diffrn_ambient_temperature      150(2)
_diffrn_detector                 PIXEL
_diffrn_detector_area_resol_mean 7.41
_diffrn_detector_type            'Bruker PHOTON III area detector'
_diffrn_measured_fraction_theta_full 0.998
_diffrn_measured_fraction_theta_max 0.995
_diffrn_measurement_device       'three-circle diffractometer'
_diffrn_measurement_device_type  'Bruker APEX-II CCD'
_diffrn_measurement_method       '\f and \w scans'
_diffrn_radiation_monochromator  'Incoatec HELIOS multilayer mirrors'
_diffrn_radiation_type           MoK\a
_diffrn_radiation_wavelength     0.71073
_diffrn_reflns_av_R_equivalents  0.0547
_diffrn_reflns_av_unetI/netI     0.0610
_diffrn_reflns_Laue_measured_fraction_full 0.998
_diffrn_reflns_Laue_measured_fraction_max 0.995
_diffrn_reflns_limit_h_max       20
_diffrn_reflns_limit_h_min       -20
_diffrn_reflns_limit_k_max       21
_diffrn_reflns_limit_k_min       -21
_diffrn_reflns_limit_l_max       24
_diffrn_reflns_limit_l_min       -24
_diffrn_reflns_number            77263
_diffrn_reflns_point_group_measured_fraction_full 0.998
_diffrn_reflns_point_group_measured_fraction_max 0.995
_diffrn_reflns_theta_full        25.242
_diffrn_reflns_theta_max         25.710
_diffrn_reflns_theta_min         1.665
_diffrn_source                   'Incoatec IuS3.0 microfocus X-ray tube'
_exptl_absorpt_coefficient_mu    5.528
_exptl_absorpt_correction_T_max  0.7453
_exptl_absorpt_correction_T_min  0.6645
_exptl_absorpt_correction_type   multi-scan
_exptl_absorpt_process_details
'SADABS-2016/2 (Bruker,2016/2) was used for absorption correction. wR2(int) was 0.1149 before and 0.0532 after correction. The Ratio of minimum to maximum transmission is 0.8916. The \l/2 correction factor is Not present.'
_exptl_crystal_colour            'dark red'
_exptl_crystal_colour_modifier   dark
_exptl_crystal_colour_primary    red
_exptl_crystal_density_diffrn    1.721
_exptl_crystal_density_method    'not measured'
_exptl_crystal_description       needle
_exptl_crystal_F_000             2824
_exptl_crystal_size_max          0.06
_exptl_crystal_size_mid          0.04
_exptl_crystal_size_min          0.03
_refine_diff_density_max         1.339
_refine_diff_density_min         -1.725
_refine_diff_density_rms         0.126
_refine_ls_extinction_method     none
_refine_ls_goodness_of_fit_ref   1.013
_refine_ls_hydrogen_treatment    constr
_refine_ls_matrix_type           full
_refine_ls_number_parameters     1410
_refine_ls_number_reflns         21056
_refine_ls_number_restraints     38
_refine_ls_restrained_S_all      1.016
_refine_ls_R_factor_all          0.0609
_refine_ls_R_factor_gt           0.0368
_refine_ls_shift/su_max          0.002
_refine_ls_shift/su_mean         0.000
_refine_ls_structure_factor_coef Fsqd
_refine_ls_weighting_details
'w=1/[\s^2^(Fo^2^)+(0.0353P)^2^] where P=(Fo^2^+2Fc^2^)/3'
_refine_ls_weighting_scheme      calc
_refine_ls_wR_factor_gt          0.0784
_refine_ls_wR_factor_ref         0.0849
_reflns_Friedel_coverage         0.000
_reflns_number_gt                15533
_reflns_number_total             21056
_reflns_threshold_expression     'I > 2\s(I)'
_cod_data_source_file            d3ce00428g7.cif
_cod_data_source_block           a
_cod_depositor_comments
'Adding full bibliography for 7247089--7247091.cif.'
_cod_database_code               7247090
_shelx_shelxl_version_number     2017/1
_shelx_space_group_comment
;
The symmetry employed for this shelxl refinement is uniquely defined
by the following loop, which should always be used as a source of
symmetry information in preference to the above space-group names.
They are only intended as comments.
;
_shelx_estimated_absorpt_t_max   0.852
_shelx_estimated_absorpt_t_min   0.733
_olex2_refinement_description
;
1. Fixed Uiso
 At 1.2 times of:
  All C(H) groups, All C(H,H) groups, All C(H,H,H,H) groups
 At 1.5 times of:
  All C(H,H,H) groups
2. Restrained distances
 O2-C24 = O2A-C24
 1.37 with sigma of 0.02
 O2-C2B1 = O2A-C2B5
 1.42 with sigma of 0.02
 C2B2-C2B1 = C2B5-C2B6 = C2B7-C2B6 = C2B8-C2B7 = C2B3-C2B2 = C2B3-C2B4
 1.54 with sigma of 0.02
 C4B2-C4B1 = C4B1-C4B5 = C4B3-C4B2 = C4B6-C4B5 = C4B7-C4B6 = C4B4-C4B3
 1.54 with sigma of 0.02
 C7B6-C7B5 = C7B2-C7B1 = C7B3-C7B2 = C7B7-C7B6 = C7B8-C7B7 = C7B4-C7B3
 1.54 with sigma of 0.02
 O7-C7B5 = O7-C7B1
 1.42 with sigma of 0.02
 C2B6-C2B8
 2.5 with sigma of 0.04
 C2B2-C2B4
 2.5 with sigma of 0.04
3. Uiso/Uaniso restraints and constraints
Uanis(C7B5) \\sim Ueq: with sigma of 0.01 and sigma for terminal atoms of 0.02
Uanis(C7B6) \\sim Ueq: with sigma of 0.01 and sigma for terminal atoms of 0.02
Uiso(C2B7) = Uiso(C2B3) = Uiso(C2B8) = Uiso(C2B4)
4. Others
 Sof(H5BG)=Sof(H5BH)=Sof(C5B5)=Sof(H5BL)=Sof(H5BM)=Sof(H5BN)=Sof(C7B5)=
 Sof(H7BJ)=Sof(H7BK)=Sof(C7B6)=Sof(H7BL)=Sof(H7BM)=Sof(C7B7)=Sof(H7BN)=
 Sof(H7BO)=Sof(C7B8)=Sof(H7BP)=Sof(H7BQ)=Sof(H7BR)=1-FVAR(1)
 Sof(H5BE)=Sof(H5BF)=Sof(C5B4)=Sof(H5BI)=Sof(H5BJ)=Sof(H5BK)=Sof(C7B1)=
 Sof(H7BA)=Sof(H7BB)=Sof(C7B2)=Sof(H7BC)=Sof(H7BD)=Sof(C7B3)=Sof(H7BE)=
 Sof(H7BF)=Sof(C7B4)=Sof(H7BG)=Sof(H7BH)=Sof(H7BI)=FVAR(1)
 Fixed Sof: O2(0.5) O2A(0.5) H4BA(0.5) H4BB(0.5) H4BC(0.5) H4BD(0.5) C2B1(0.5)
 H2BA(0.5) H2BB(0.5) C2B2(0.5) H2BC(0.5) H2BD(0.5) C2B3(0.5) H2BE(0.5)
 H2BF(0.5) C2B4(0.5) H2BG(0.5) H2BH(0.5) H2BI(0.5) C4B2(0.5) H4BE(0.5)
 H4BF(0.5) C4B3(0.5) H4BG(0.5) H4BH(0.5) C4B4(0.5) H4BI(0.5) H4BJ(0.5)
 H4BK(0.5) C2B5(0.5) H2BJ(0.5) H2BK(0.5) C2B6(0.5) H2BL(0.5) H2BM(0.5)
 C2B7(0.5) H2BN(0.5) H2BO(0.5) C2B8(0.5) H2BP(0.5) H2BQ(0.5) H2BR(0.5)
 C4B5(0.5) H4BL(0.5) H4BM(0.5) C4B6(0.5) H4BN(0.5) H4BO(0.5) C4B7(0.5)
 H4BP(0.5) H4BQ(0.5) H4BR(0.5) H8BG(0.5) H8BH(0.5) H8BE(0.5) H8BF(0.5)
 C8B4(0.5) H8BI(0.5) H8BJ(0.5) H8BK(0.5) C8B5(0.5) H8BL(0.5) H8BM(0.5) H8BN(0.5)
5.a Secondary CH2 refined with riding coordinates:
 C1B1(H1BA,H1BB), C1B2(H1BC,H1BD), C1B3(H1BE,H1BF), C3B1(H3BA,H3BB), C3B2(H3BC,
 H3BD), C3B3(H3BE,H3BF), C4B1(H4BA,H4BB), C4B1(H4BC,H4BD), C2B1(H2BA,H2BB),
 C2B2(H2BC,H2BD), C2B3(H2BE,H2BF), C4B2(H4BE,H4BF), C4B3(H4BG,H4BH), C2B5(H2BJ,
 H2BK), C2B6(H2BL,H2BM), C2B7(H2BN,H2BO), C4B5(H4BL,H4BM), C4B6(H4BN,H4BO),
 C5B1(H5BA,H5BB), C5B2(H5BC,H5BD), C5B3(H5BG,H5BH), C5B3(H5BE,H5BF), C6B1(H6BA,
 H6BB), C6B2(H6BC,H6BD), C6B3(H6BE,H6BF), C8B1(H8BA,H8BB), C8B2(H8BC,H8BD),
 C8B3(H8BG,H8BH), C8B3(H8BE,H8BF), C7B1(H7BA,H7BB), C7B2(H7BC,H7BD), C7B3(H7BE,
 H7BF), C7B5(H7BJ,H7BK), C7B6(H7BL,H7BM), C7B7(H7BN,H7BO)
5.b Me refined with riding coordinates:
 C2B4(H2BG,H2BH,H2BI), C4B4(H4BI,H4BJ,H4BK), C2B8(H2BP,H2BQ,H2BR), C4B7(H4BP,
 H4BQ,H4BR), C7B4(H7BG,H7BH,H7BI), C8B4(H8BI,H8BJ,H8BK), C7B8(H7BP,H7BQ,H7BR),
 C8B5(H8BL,H8BM,H8BN)
5.c Aromatic/amide H refined with riding coordinates:
 C1C(H1C), C1D(H1D), C2C(H2C), C2D(H2D), C3C(H3C), C3D(H3D), C4C(H4C),
 C4D(H4D), C12(H12), C13(H13), C15(H15), C16(H16), C22(H22), C23(H23), C25(H25),
  C26(H26), C32(H32), C33(H33), C35(H35), C36(H36), C42(H42), C43(H43),
 C45(H45), C46(H46), C5C(H5C), C5D(H5D), C6C(H6C), C6D(H6D), C7C(H7C), C7D(H7D),
  C8C(H8C), C8D(H8D), C52(H52), C53(H53), C55(H55), C56(H56), C62(H62),
 C63(H63), C65(H65), C66(H66), C72(H72), C73(H73), C75(H75), C76(H76), C82(H82),
  C83(H83), C85(H85), C86(H86)
5.d Idealised Me refined as rotating group:
 C1B4(H1BG,H1BH,H1BI), C3B4(H3BG,H3BH,H3BI), C6B4(H6BG,H6BH,H6BI), C5B4(H5BI,
 H5BJ,H5BK), C5B5(H5BL,H5BM,H5BN)
;
_shelx_res_file
;
TITL f in P-1
    a.res
    created by SHELXL-2017/1 at 10:47:49 on 28-Jun-2022
CELL 0.71073 16.7951 17.6474 19.8427 77.941 82.828 75.258
ZERR 4 0.0017 0.0017 0.0018 0.003 0.003 0.003
LATT 1
SFAC C H Au Cl N O
UNIT 240 240 8 16 16 16
DFIX 1.37 O2 C24 O2A C24
DFIX 1.42 O2 C2B1 O2A C2B5
DFIX 1.54 C2B2 C2B1 C2B5 C2B6 C2B7 C2B6 C2B8 C2B7 C2B3 C2B2 C2B3 C2B4
DFIX 1.54 C4B2 C4B1 C4B1 C4B5 C4B3 C4B2 C4B6 C4B5 C4B7 C4B6 C4B4 C4B3
DFIX 1.54 C7B6 C7B5 C7B2 C7B1 C7B3 C7B2 C7B7 C7B6 C7B8 C7B7 C7B4 C7B3
DFIX 1.42 O7 C7B5 O7 C7B1
DANG 2.5 C2B6 C2B8
DANG 2.5 C2B2 C2B4
ISOR 0.01 0.02 C7B5
ISOR 0.01 0.02 C7B6
EADP C2B7 C2B3 C2B8 C2B4

L.S. 6
PLAN  50
SIZE 0.03 0.04 0.06
TEMP -123(2)
BOND
fmap 2
ACTA
MERG 2
OMIT 0 180
OMIT -1 0 1
OMIT 1 0 1
OMIT 2 2 2
OMIT 0 1 2
OMIT 2 5 1
OMIT 2 1 3
REM <olex2.extras>
REM <HklSrc "%.\\a.hkl">
REM </olex2.extras>

WGHT    0.035300
FVAR       0.04284   0.58460
AU1   3    0.888276    0.277651    0.018186    11.00000    0.02845    0.02800 =
         0.02393   -0.00166   -0.00360   -0.00830
O1    6    0.647575    0.184977   -0.333360    11.00000    0.06551    0.06016 =
         0.04193   -0.01877   -0.01974   -0.01323
O3    6    1.157586    0.306898    0.380212    11.00000    0.05010    0.04891 =
         0.02959   -0.00102   -0.01354   -0.02370
O4    6    0.413580    0.289414    0.294770    11.00000    0.03751    0.06892 =
         0.04925   -0.01401    0.00725   -0.01783
PART 1
O2    6    1.311747    0.436302   -0.258900    10.50000    0.04528    0.03650 =
         0.08067   -0.00053   -0.00364   -0.02873
PART 0
PART 2
O2A   6    1.319769    0.394460   -0.270717    10.50000    0.07074    0.12889 =
         0.06936    0.02221    0.00897   -0.07199
PART 0
N1    5    0.776733    0.261304    0.005354    11.00000    0.02737    0.03023 =
         0.02766   -0.00504   -0.00334   -0.00456
N2    5    0.918561    0.284196   -0.084488    11.00000    0.02901    0.02988 =
         0.03113   -0.00289   -0.00516   -0.00661
N3    5    0.999952    0.293442    0.031051    11.00000    0.02818    0.02774 =
         0.02219    0.00252   -0.00006   -0.01113
N4    5    0.857817    0.271584    0.121087    11.00000    0.03200    0.02964 =
         0.02973   -0.00038   -0.00404   -0.00934
C1    1    0.794749    0.254663   -0.118850    11.00000    0.03224    0.03078 =
         0.03254   -0.00720   -0.00272   -0.00621
C1A   1    0.750978    0.250423   -0.054723    11.00000    0.02900    0.03266 =
         0.03103   -0.00688   -0.00718   -0.00917
C1B   1    0.712247    0.257609    0.055375    11.00000    0.03135    0.03560 =
         0.02927   -0.00431   -0.00102   -0.00770
C1B1  1    0.606736    0.244781   -0.385148    11.00000    0.05471    0.06449 =
         0.04992   -0.00539   -0.02261   -0.01838
AFIX  23
H1BA  2    0.647233    0.269822   -0.416655    11.00000   -1.20000
H1BB  2    0.566817    0.286627   -0.363902    11.00000   -1.20000
AFIX   0
C1B2  1    0.561827    0.205624   -0.425066    11.00000    0.04311    0.07567 =
         0.05355   -0.01910   -0.01003   -0.01803
AFIX  23
H1BC  2    0.602090    0.161005   -0.442425    11.00000   -1.20000
H1BD  2    0.520171    0.182898   -0.393005    11.00000   -1.20000
AFIX   0
C1B3  1    0.520144    0.260437   -0.484092    11.00000    0.09205    0.08297 =
         0.08639   -0.02295   -0.05002   -0.02113
AFIX  23
H1BE  2    0.561216    0.283824   -0.516348    11.00000   -1.20000
H1BF  2    0.478548    0.304496   -0.467128    11.00000   -1.20000
AFIX   0
C1B4  1    0.477747    0.216656   -0.522435    11.00000    0.11657    0.09733 =
         0.11473   -0.03501   -0.07516   -0.01046
AFIX 137
H1BG  2    0.439354    0.190941   -0.489936    11.00000   -1.50000
H1BH  2    0.519485    0.176117   -0.542749    11.00000   -1.50000
H1BI  2    0.447262    0.254885   -0.559165    11.00000   -1.50000
AFIX   0
C1C   1    0.669741    0.238464   -0.040837    11.00000    0.03894    0.03563 =
         0.03428   -0.00824   -0.00603   -0.01008
AFIX  43
H1C   2    0.637779    0.228955   -0.073093    11.00000   -1.20000
AFIX   0
C1D   1    0.645457    0.242890    0.026150    11.00000    0.02397    0.04444 =
         0.03843   -0.00601   -0.00312   -0.00900
AFIX  43
H1D   2    0.593693    0.237259    0.049348    11.00000   -1.20000
AFIX   0
C2    1    1.054661    0.315075   -0.091022    11.00000    0.03635    0.03822 =
         0.03357    0.00270    0.00200   -0.01939
C2A   1    0.870585    0.273199   -0.132580    11.00000    0.03149    0.02787 =
         0.02654   -0.00309   -0.00654   -0.00561
C2B   1    0.987952    0.303595   -0.119479    11.00000    0.04064    0.02906 =
         0.02446   -0.00093   -0.00178   -0.01149
C2C   1    0.914041    0.284919   -0.198943    11.00000    0.04500    0.03113 =
         0.02756   -0.00233   -0.00834   -0.00650
AFIX  43
H2C   2    0.896435    0.279867   -0.241129    11.00000   -1.20000
AFIX   0
C2D   1    0.984245    0.304359   -0.191306    11.00000    0.04668    0.03859 =
         0.02675   -0.00027   -0.00120   -0.01686
AFIX  43
H2D   2    1.024476    0.316512   -0.227326    11.00000   -1.20000
AFIX   0
C3    1    0.989705    0.281893    0.158411    11.00000    0.03125    0.03663 =
         0.02546    0.00073   -0.00528   -0.01488
C3A   1    1.061058    0.305995   -0.020495    11.00000    0.03821    0.03419 =
         0.02950   -0.00185   -0.00226   -0.01366
C3B   1    1.032356    0.287821    0.092975    11.00000    0.03701    0.02884 =
         0.03302   -0.00476   -0.00753   -0.00875
C3B1  1    1.156145    0.252582    0.445189    11.00000    0.04881    0.05037 =
         0.03056   -0.00474   -0.00789   -0.01595
AFIX  23
H3BA  2    1.183404    0.197419    0.439127    11.00000   -1.20000
H3BB  2    1.098540    0.254081    0.464304    11.00000   -1.20000
AFIX   0
C3B2  1    1.202556    0.279810    0.493416    11.00000    0.06368    0.06190 =
         0.03944   -0.00910   -0.01833   -0.01200
AFIX  23
H3BC  2    1.260729    0.275612    0.474885    11.00000   -1.20000
H3BD  2    1.177227    0.336298    0.496318    11.00000   -1.20000
AFIX   0
C3B3  1    1.199493    0.228497    0.564839    11.00000    0.11257    0.07375 =
         0.05123   -0.01167   -0.03407   -0.01746
AFIX  23
H3BE  2    1.224128    0.172034    0.561417    11.00000   -1.20000
H3BF  2    1.141168    0.232987    0.583010    11.00000   -1.20000
AFIX   0
C3B4  1    1.245820    0.253010    0.615193    11.00000    0.16888    0.09681 =
         0.07141   -0.01985   -0.06526   -0.01614
AFIX 137
H3BG  2    1.220945    0.308582    0.619414    11.00000   -1.50000
H3BH  2    1.303865    0.247609    0.597863    11.00000   -1.50000
H3BI  2    1.242350    0.218554    0.660582    11.00000   -1.50000
AFIX   0
C3C   1    1.133332    0.304660    0.010454    11.00000    0.03694    0.05082 =
         0.03280    0.00348   -0.00493   -0.01484
AFIX  43
H3C   2    1.184669    0.311080   -0.013162    11.00000   -1.20000
AFIX   0
C3D   1    1.115957    0.292747    0.078731    11.00000    0.02365    0.04342 =
         0.03146    0.00001   -0.00793   -0.00963
AFIX  43
H3D   2    1.153394    0.288295    0.112290    11.00000   -1.20000
AFIX   0
C4    1    0.711755    0.265954    0.123750    11.00000    0.03159    0.02902 =
         0.03365    0.00117   -0.00526   -0.00706
C4A   1    0.907697    0.277902    0.169783    11.00000    0.03545    0.03342 =
         0.02487   -0.00229   -0.00719   -0.00779
C4B   1    0.780229    0.271688    0.153294    11.00000    0.02806    0.03585 =
         0.03143   -0.00430   -0.00386   -0.00741
C4B1  1    0.346475    0.357798    0.286140    11.00000    0.04140    0.08512 =
         0.07652   -0.02820    0.01863   -0.01609
PART 1
AFIX  23
H4BA  2    0.297988    0.343159    0.314601    10.50000   -1.20000
H4BB  2    0.333212    0.369171    0.237270    10.50000   -1.20000
AFIX  23
PART 0
PART 2
H4BC  2    0.292748    0.343851    0.301387    10.50000   -1.20000
H4BD  2    0.345449    0.386727    0.237680    10.50000   -1.20000
AFIX   0
PART 0
C4C   1    0.858590    0.282508    0.232955    11.00000    0.04050    0.05024 =
         0.02628   -0.00629   -0.00566   -0.01136
AFIX  43
H4C   2    0.876874    0.287030    0.275043    11.00000   -1.20000
AFIX   0
C4D   1    0.782094    0.279410    0.223305    11.00000    0.03508    0.05151 =
         0.03075   -0.01153    0.00040   -0.01060
AFIX  43
H4D   2    0.736752    0.281919    0.257237    11.00000   -1.20000
AFIX   0
C11   1    0.755860    0.238511   -0.177470    11.00000    0.03229    0.03910 =
         0.02617   -0.00663   -0.00300   -0.01418
C12   1    0.750292    0.162417   -0.178246    11.00000    0.05395    0.03876 =
         0.04105   -0.00967   -0.01064   -0.00897
AFIX  43
H12   2    0.772170    0.119869   -0.142565    11.00000   -1.20000
AFIX   0
C13   1    0.712544    0.147363   -0.231359    11.00000    0.04595    0.04421 =
         0.03692   -0.01689   -0.00335   -0.00890
AFIX  43
H13   2    0.707800    0.094731   -0.230822    11.00000   -1.20000
AFIX   0
C14   1    0.682326    0.207408   -0.284124    11.00000    0.03912    0.05051 =
         0.03043   -0.01451   -0.00452   -0.01170
C15   1    0.688343    0.283862   -0.284145    11.00000    0.04891    0.05167 =
         0.04397   -0.00380   -0.02061   -0.01608
AFIX  43
H15   2    0.667673    0.326130   -0.320470    11.00000   -1.20000
AFIX   0
C16   1    0.725343    0.298880   -0.229947    11.00000    0.05115    0.04164 =
         0.03278   -0.00827   -0.00963   -0.01528
AFIX  43
H16   2    0.729179    0.351631   -0.229799    11.00000   -1.20000
AFIX   0
C21   1    1.123290    0.342249   -0.137355    11.00000    0.03577    0.07340 =
         0.02186    0.00455   -0.00554   -0.02520
C22   1    1.177401    0.294138   -0.177871    11.00000    0.03853    0.09098 =
         0.03620    0.00477   -0.00190   -0.01843
AFIX  43
H22   2    1.171790    0.241848   -0.177603    11.00000   -1.20000
AFIX   0
C23   1    1.241564    0.323870   -0.219954    11.00000    0.03545    0.17459 =
         0.03016   -0.00275    0.00323   -0.00904
AFIX  43
H23   2    1.278459    0.291377   -0.248568    11.00000   -1.20000
AFIX   0
C24   1    1.251270    0.399623   -0.219975    11.00000    0.06971    0.17446 =
         0.04867    0.03930   -0.01981   -0.08054
C25   1    1.196733    0.446584   -0.180101    11.00000    0.09140    0.14452 =
         0.04400    0.02043   -0.01161   -0.09178
AFIX  43
H25   2    1.201656    0.499089   -0.180335    11.00000   -1.20000
AFIX   0
C26   1    1.134381    0.417462   -0.139422    11.00000    0.07279    0.09469 =
         0.03887    0.00044   -0.00567   -0.05954
AFIX  43
H26   2    1.097363    0.450786   -0.111538    11.00000   -1.20000
AFIX   0
C31   1    1.033689    0.285731    0.217523    11.00000    0.02287    0.03877 =
         0.02735   -0.00541   -0.00108   -0.00826
C32   1    1.044242    0.225403    0.275053    11.00000    0.03794    0.03537 =
         0.02650   -0.00538   -0.00322   -0.01476
AFIX  43
H32   2    1.023138    0.179917    0.276626    11.00000   -1.20000
AFIX   0
C33   1    1.085029    0.229524    0.330833    11.00000    0.03718    0.03488 =
         0.02897   -0.00161   -0.00069   -0.01113
AFIX  43
H33   2    1.091054    0.187628    0.370006    11.00000   -1.20000
AFIX   0
C34   1    1.116830    0.295784    0.328438    11.00000    0.02671    0.04089 =
         0.03165   -0.00474   -0.00767   -0.01078
C35   1    1.107693    0.356493    0.271241    11.00000    0.03433    0.03463 =
         0.03541   -0.00452   -0.00396   -0.01561
AFIX  43
H35   2    1.129839    0.401340    0.269701    11.00000   -1.20000
AFIX   0
C36   1    1.066702    0.352666    0.216283    11.00000    0.03726    0.03190 =
         0.02913   -0.00211   -0.00070   -0.00809
AFIX  43
H36   2    1.060549    0.395000    0.177455    11.00000   -1.20000
AFIX   0
C41   1    0.632105    0.272026    0.167240    11.00000    0.03646    0.03918 =
         0.02357   -0.00197   -0.00397   -0.01064
C42   1    0.618493    0.211093    0.221081    11.00000    0.03064    0.04336 =
         0.03735   -0.00157   -0.00341   -0.00812
AFIX  43
H42   2    0.660212    0.163185    0.229546    11.00000   -1.20000
AFIX   0
C43   1    0.545199    0.218936    0.262635    11.00000    0.03297    0.05534 =
         0.03603    0.00567   -0.00232   -0.01499
AFIX  43
H43   2    0.537329    0.176826    0.299454    11.00000   -1.20000
AFIX   0
C44   1    0.484001    0.287442    0.250657    11.00000    0.02937    0.05870 =
         0.03615   -0.01843    0.00472   -0.01580
C45   1    0.495895    0.348545    0.196463    11.00000    0.03200    0.04759 =
         0.05538   -0.01585    0.00409   -0.00504
AFIX  43
H45   2    0.453643    0.395958    0.187490    11.00000   -1.20000
AFIX   0
C46   1    0.569363    0.340089    0.155700    11.00000    0.03934    0.04193 =
         0.04236    0.00138   -0.00529   -0.00863
AFIX  43
H46   2    0.576940    0.382183    0.118764    11.00000   -1.20000
AFIX   0
PART 1
C2B1  1    1.315374    0.518120   -0.261536    10.50000    0.04639
AFIX  23
H2BA  2    1.322052    0.526648   -0.215008    10.50000   -1.20000
H2BB  2    1.264159    0.555396   -0.278693    10.50000   -1.20000
AFIX   0
C2B2  1    1.390023    0.531551   -0.311020    10.50000    0.05927
AFIX  23
H2BC  2    1.403790    0.581270   -0.305892    10.50000   -1.20000
H2BD  2    1.438252    0.486791   -0.299103    10.50000   -1.20000
AFIX   0
C2B3  1    1.372746    0.537402   -0.383666    10.50000    0.14947
AFIX  23
H2BE  2    1.410557    0.566082   -0.415033    10.50000   -1.20000
H2BF  2    1.315453    0.568464   -0.390891    10.50000   -1.20000
AFIX   0
C2B4  1    1.383559    0.456742   -0.400960    10.50000    0.14947
AFIX  33
H2BG  2    1.371760    0.462484   -0.449148    10.50000   -1.50000
H2BH  2    1.440513    0.426237   -0.394597    10.50000   -1.50000
H2BI  2    1.345495    0.428617   -0.370476    10.50000   -1.50000
AFIX   0
C4B2  1    0.355153    0.434819    0.303429    10.50000    0.07409    0.04773 =
         0.07113   -0.02099    0.02125    0.01074
AFIX  23
H4BE  2    0.306554    0.478334    0.289603    10.50000   -1.20000
H4BF  2    0.405192    0.449809    0.278164    10.50000   -1.20000
AFIX   0
C4B3  1    0.361683    0.422067    0.381297    10.50000    0.08363    0.05235 =
         0.04590   -0.01560   -0.00639   -0.01045
AFIX  23
H4BG  2    0.312703    0.404797    0.406441    10.50000   -1.20000
H4BH  2    0.411494    0.379923    0.394712    10.50000   -1.20000
AFIX   0
C4B4  1    0.366935    0.500056    0.400173    10.50000    0.06552    0.04330 =
         0.05221   -0.02493    0.00057   -0.00606
AFIX  33
H4BI  2    0.371138    0.492288    0.450084    10.50000   -1.50000
H4BJ  2    0.415777    0.516586    0.375432    10.50000   -1.50000
H4BK  2    0.317262    0.541391    0.387129    10.50000   -1.50000
AFIX   0
PART 0
PART 2
C2B5  1    1.328819    0.474968   -0.284325    10.50000    0.08559
AFIX  23
H2BJ  2    1.342200    0.489686   -0.242307    10.50000   -1.20000
H2BK  2    1.277840    0.512800   -0.301359    10.50000   -1.20000
AFIX   0
C2B6  1    1.401888    0.474163   -0.341140    10.50000    0.15110
AFIX  23
H2BL  2    1.454353    0.451187   -0.318684    10.50000   -1.20000
H2BM  2    1.397727    0.438691   -0.372509    10.50000   -1.20000
AFIX   0
C2B7  1    1.405144    0.554681   -0.383516    10.50000    0.14947
AFIX  23
H2BN  2    1.415073    0.592103   -0.356410    10.50000   -1.20000
H2BO  2    1.356794    0.579602   -0.411057    10.50000   -1.20000
AFIX   0
C2B8  1    1.487134    0.514689   -0.428584    10.50000    0.14947
AFIX  33
H2BP  2    1.505185    0.556373   -0.463463    10.50000   -1.50000
H2BQ  2    1.531368    0.487959   -0.397871    10.50000   -1.50000
H2BR  2    1.474155    0.475687   -0.451519    10.50000   -1.50000
AFIX   0
C4B5  1    0.369072    0.406051    0.334753    10.50000    0.14491
AFIX  23
H4BL  2    0.352852    0.383603    0.383033    10.50000   -1.20000
H4BM  2    0.429759    0.399054    0.330551    10.50000   -1.20000
AFIX   0
C4B6  1    0.329602    0.493043    0.320864    10.50000    0.18776
AFIX  23
H4BN  2    0.334570    0.515622    0.270893    10.50000   -1.20000
H4BO  2    0.354552    0.522520    0.346516    10.50000   -1.20000
AFIX   0
C4B7  1    0.239285    0.495893    0.347029    10.50000    0.16754
AFIX  33
H4BP  2    0.207444    0.551417    0.340153    10.50000   -1.50000
H4BQ  2    0.216416    0.465620    0.321321    10.50000   -1.50000
H4BR  2    0.236240    0.472464    0.396347    10.50000   -1.50000
AFIX   0

PART 0
AU2   3    0.798549    0.048575    0.610032    11.00000    0.03277    0.02911 =
         0.02720   -0.00159    0.00210   -0.01097
O5    6    1.221506   -0.016352    0.874072    11.00000    0.03329    0.07958 =
         0.05840   -0.00047   -0.01550   -0.00562
O6    6    0.561472   -0.273843    0.943285    11.00000    0.03254    0.03545 =
         0.04678    0.00712    0.00261   -0.01151
O7    6    0.571856   -0.052316    0.258277    11.00000    0.09746    0.09495 =
         0.07445    0.00807   -0.04641   -0.05486
O8    6    0.866367    0.528904    0.377092    11.00000    0.05248    0.03700 =
         0.11658    0.03331    0.00979   -0.00978
N5    5    0.871718    0.118944    0.617895    11.00000    0.03344    0.03024 =
         0.02980   -0.00163    0.00112   -0.00657
N6    5    0.826821   -0.015368    0.703513    11.00000    0.02886    0.03256 =
         0.03440   -0.00640    0.00364   -0.01179
N7    5    0.722516   -0.020494    0.603211    11.00000    0.03754    0.03610 =
         0.02467   -0.00026    0.00287   -0.01532
N8    5    0.770921    0.111887    0.515845    11.00000    0.03547    0.03949 =
         0.02698   -0.00371    0.00232   -0.01563
C5    1    0.943358    0.040346    0.721140    11.00000    0.03356    0.02747 =
         0.03433   -0.00805    0.00308   -0.00464
C5A   1    0.931653    0.103020    0.664768    11.00000    0.03309    0.03289 =
         0.03342   -0.00931    0.00331   -0.00834
C5B   1    0.875752    0.190824    0.574894    11.00000    0.03034    0.02829 =
         0.03010    0.00031    0.00082   -0.00803
C5B1  1    1.226993    0.035152    0.919311    11.00000    0.06069    0.07189 =
         0.07374    0.00739   -0.02507   -0.03623
AFIX  23
H5BA  2    1.174796    0.046771    0.948634    11.00000   -1.20000
H5BB  2    1.236914    0.086155    0.892109    11.00000   -1.20000
AFIX   0
C5B2  1    1.298191   -0.006940    0.964109    11.00000    0.06682    0.08115 =
         0.09705    0.01875   -0.05302   -0.02441
AFIX  23
H5BC  2    1.350903   -0.011121    0.934980    11.00000   -1.20000
H5BD  2    1.292518   -0.061647    0.984669    11.00000   -1.20000
AFIX   0
C5B3  1    1.300298    0.037670    1.021748    11.00000    0.11254    0.09644 =
         0.12166    0.01186   -0.06237   -0.04870
PART 2
AFIX  23
H5BG  2    1.248700    0.040698    1.052298   -21.00000   -1.20000
H5BH  2    1.305825    0.092597    1.001953   -21.00000   -1.20000
AFIX  23
PART 0
PART 1
H5BE  2    1.249006    0.035060    1.051791    21.00000   -1.20000
H5BF  2    1.346299    0.004651    1.049374    21.00000   -1.20000
AFIX   0
PART 0
C5C   1    0.974899    0.166168    0.648774    11.00000    0.03739    0.03796 =
         0.03491   -0.00465   -0.00066   -0.01654
AFIX  43
H5C   2    1.020124    0.169521    0.671461    11.00000   -1.20000
AFIX   0
C5D   1    0.939379    0.219261    0.595918    11.00000    0.04749    0.03167 =
         0.02977   -0.00382    0.00801   -0.01579
AFIX  43
H5D   2    0.954151    0.268013    0.575668    11.00000   -1.20000
AFIX   0
C6    1    0.718923   -0.091506    0.724306    11.00000    0.02777    0.03043 =
         0.04081   -0.00571    0.00299   -0.00724
C6A   1    0.888204   -0.009877    0.741008    11.00000    0.03515    0.02986 =
         0.03237   -0.00586    0.00225   -0.00923
C6B   1    0.781586   -0.065034    0.745227    11.00000    0.03534    0.03062 =
         0.02917   -0.00204    0.00424   -0.01154
C6B1  1    0.600509   -0.356249    0.969056    11.00000    0.04159    0.04033 =
         0.05108    0.00922   -0.00085   -0.00891
AFIX  23
H6BA  2    0.656361   -0.360377    0.982780    11.00000   -1.20000
H6BB  2    0.605920   -0.388398    0.932666    11.00000   -1.20000
AFIX   0
C6B2  1    0.546730   -0.386896    1.031341    11.00000    0.03542    0.05121 =
         0.05680    0.01640   -0.00492   -0.01257
AFIX  23
H6BC  2    0.488954   -0.373290    1.018628    11.00000   -1.20000
H6BD  2    0.564909   -0.445749    1.042358    11.00000   -1.20000
AFIX   0
C6B3  1    0.548741   -0.354691    1.094134    11.00000    0.07441    0.07668 =
         0.05694    0.00422    0.00227   -0.02350
AFIX  23
H6BE  2    0.526883   -0.296167    1.084440    11.00000   -1.20000
H6BF  2    0.606739   -0.365396    1.105608    11.00000   -1.20000
AFIX   0
C6B4  1    0.498260   -0.390968    1.156408    11.00000    0.09854    0.10618 =
         0.05772    0.01071    0.01210   -0.03620
AFIX 137
H6BG  2    0.497369   -0.364331    1.195258    11.00000   -1.50000
H6BH  2    0.523403   -0.447985    1.169556    11.00000   -1.50000
H6BI  2    0.441664   -0.383830    1.144310    11.00000   -1.50000
AFIX   0
C6C   1    0.880805   -0.057869    0.807668    11.00000    0.04442    0.03575 =
         0.03410   -0.00296   -0.00694   -0.01017
AFIX  43
H6C   2    0.916224   -0.066297    0.843653    11.00000   -1.20000
AFIX   0
C6D   1    0.815975   -0.088772    0.810874    11.00000    0.04046    0.03494 =
         0.03104    0.00092   -0.00066   -0.01315
AFIX  43
H6D   2    0.795724   -0.121314    0.850290    11.00000   -1.20000
AFIX   0
C7    1    0.698443    0.022904    0.479336    11.00000    0.03246    0.04568 =
         0.03195   -0.00541   -0.00066   -0.01537
C7A   1    0.697472   -0.075442    0.656330    11.00000    0.03368    0.03687 =
         0.02800    0.00020    0.00104   -0.01233
C7B   1    0.693441   -0.027466    0.543183    11.00000    0.03559    0.03829 =
         0.03841   -0.00266    0.00137   -0.01531
C7C   1    0.651785   -0.118935    0.628296    11.00000    0.03944    0.03711 =
         0.04100   -0.00052   -0.00207   -0.01975
AFIX  43
H7C   2    0.626302   -0.159668    0.653464    11.00000   -1.20000
AFIX   0
C7D   1    0.651921   -0.091058    0.559654    11.00000    0.04374    0.04316 =
         0.03742   -0.00077   -0.00810   -0.01828
AFIX  43
H7D   2    0.628336   -0.110468    0.527576    11.00000   -1.20000
AFIX   0
C8    1    0.832119    0.224123    0.516744    11.00000    0.03089    0.03481 =
         0.03116   -0.00327    0.00793   -0.00938
C8A   1    0.729841    0.090696    0.469289    11.00000    0.03868    0.04519 =
         0.02847   -0.00150   -0.00020   -0.01521
C8B   1    0.784879    0.186136    0.488396    11.00000    0.03694    0.03390 =
         0.02622    0.00267    0.00341   -0.00986
C8B1  1    0.923102    0.541133    0.319821    11.00000    0.06506    0.05197 =
         0.06063    0.02200   -0.02352   -0.03148
AFIX  23
H8BA  2    0.904287    0.595929    0.293662    11.00000   -1.20000
H8BB  2    0.922884    0.503687    0.289044    11.00000   -1.20000
AFIX   0
C8B2  1    1.010249    0.530090    0.337736    11.00000    0.05014    0.03691 =
         0.06207   -0.00132   -0.00201   -0.01529
AFIX  23
H8BC  2    1.028554    0.475590    0.364613    11.00000   -1.20000
H8BD  2    1.046293    0.533999    0.294304    11.00000   -1.20000
AFIX   0
C8B3  1    1.022508    0.588008    0.377988    11.00000    0.10641    0.04457 =
         0.10013   -0.00356   -0.05218   -0.01860
PART 1
AFIX  23
H8BG  2    0.999732    0.577113    0.426559    10.50000   -1.20000
H8BH  2    0.997658    0.643691    0.356701    10.50000   -1.20000
AFIX  23
PART 0
PART -1
H8BE  2    0.993114    0.642639    0.357738    10.50000   -1.20000
H8BF  2    1.082009    0.586653    0.376278    10.50000   -1.20000
AFIX   0
PART 0
C8C   1    0.719752    0.153390    0.411257    11.00000    0.04227    0.04845 =
         0.03557    0.00033   -0.00701   -0.01577
AFIX  43
H8C   2    0.695031    0.153964    0.370568    11.00000   -1.20000
AFIX   0
C8D   1    0.750705    0.211738    0.423032    11.00000    0.04744    0.03918 =
         0.03210    0.00601   -0.00330   -0.01972
AFIX  43
H8D   2    0.750003    0.261473    0.393064    11.00000   -1.20000
AFIX   0
C51   1    1.014110    0.027742    0.763781    11.00000    0.03321    0.03367 =
         0.03461   -0.00280    0.00316   -0.01262
C52   1    1.021630    0.082068    0.801272    11.00000    0.03786    0.03389 =
         0.04173   -0.00270   -0.00395   -0.00603
AFIX  43
H52   2    0.978999    0.129211    0.801524    11.00000   -1.20000
AFIX   0
C53   1    1.089312    0.070746    0.838937    11.00000    0.04245    0.04389 =
         0.05065   -0.00613   -0.00837   -0.01211
AFIX  43
H53   2    1.093028    0.109990    0.863922    11.00000   -1.20000
AFIX   0
C54   1    1.151209    0.002043    0.839839    11.00000    0.03359    0.04884 =
         0.03544    0.00727   -0.00745   -0.01649
C55   1    1.143240   -0.055436    0.803731    11.00000    0.04669    0.04749 =
         0.04605    0.00072   -0.00252   -0.00458
AFIX  43
H55   2    1.184383   -0.103875    0.805431    11.00000   -1.20000
AFIX   0
C56   1    1.076846   -0.042443    0.766110    11.00000    0.04282    0.04402 =
         0.04783   -0.00953   -0.00508   -0.01035
AFIX  43
H56   2    1.072982   -0.081564    0.741047    11.00000   -1.20000
AFIX   0
C61   1    0.676605   -0.143885    0.778142    11.00000    0.03519    0.03098 =
         0.02878    0.00363   -0.00198   -0.01133
C62   1    0.715148   -0.221620    0.803890    11.00000    0.02699    0.03583 =
         0.03408   -0.00528    0.00294   -0.00374
AFIX  43
H62   2    0.768405   -0.244190    0.784571    11.00000   -1.20000
AFIX   0
C63   1    0.677158   -0.267564    0.857814    11.00000    0.03333    0.02987 =
         0.03914    0.00746   -0.00335   -0.00830
AFIX  43
H63   2    0.704146   -0.321397    0.874230    11.00000   -1.20000
AFIX   0
C64   1    0.600979   -0.235557    0.887385    11.00000    0.02579    0.02975 =
         0.03750    0.00097    0.00190   -0.01328
C65   1    0.560213   -0.159164    0.859419    11.00000    0.03513    0.04345 =
         0.05419    0.00219    0.00674   -0.00829
AFIX  43
H65   2    0.506453   -0.137171    0.878174    11.00000   -1.20000
AFIX   0
C66   1    0.596469   -0.114601    0.804809    11.00000    0.03014    0.03525 =
         0.04886    0.00536    0.00298   -0.00733
AFIX  43
H66   2    0.566479   -0.063082    0.784940    11.00000   -1.20000
AFIX   0
C71   1    0.664991    0.005981    0.419069    11.00000    0.04737    0.03558 =
         0.03516   -0.00121   -0.00374   -0.01596
C72   1    0.716413   -0.010620    0.361532    11.00000    0.03605    0.05823 =
         0.04209   -0.00675   -0.00646   -0.02297
AFIX  43
H72   2    0.772446   -0.007773    0.359189    11.00000   -1.20000
AFIX   0
C73   1    0.687415   -0.031636    0.306408    11.00000    0.05327    0.06264 =
         0.03773   -0.00817   -0.00199   -0.02808
AFIX  43
H73   2    0.723886   -0.044189    0.267573    11.00000   -1.20000
AFIX   0
C74   1    0.605811   -0.033972    0.308890    11.00000    0.05185    0.05889 =
         0.05099    0.00514   -0.02722   -0.02243
C75   1    0.552432   -0.012748    0.365258    11.00000    0.03702    0.08112 =
         0.05193    0.01186   -0.00992   -0.02823
AFIX  43
H75   2    0.495524   -0.011959    0.366306    11.00000   -1.20000
AFIX   0
C76   1    0.581265    0.006628    0.418193    11.00000    0.03618    0.06597 =
         0.04083    0.00713   -0.00567   -0.01783
AFIX  43
H76   2    0.543936    0.021139    0.455998    11.00000   -1.20000
AFIX   0
C81   1    0.841478    0.304268    0.478345    11.00000    0.03557    0.02988 =
         0.03211    0.00200   -0.00106   -0.00754
C82   1    0.797750    0.372485    0.500928    11.00000    0.07964    0.03995 =
         0.08515    0.00067    0.05547   -0.01297
AFIX  43
H82   2    0.760754    0.369112    0.541177    11.00000   -1.20000
AFIX   0
C83   1    0.807525    0.446788    0.464884    11.00000    0.07958    0.03390 =
         0.13801   -0.01018    0.06129   -0.01098
AFIX  43
H83   2    0.776189    0.493803    0.480297    11.00000   -1.20000
AFIX   0
C84   1    0.862184    0.452793    0.407099    11.00000    0.04040    0.03933 =
         0.06097    0.01647   -0.00401   -0.01348
C85   1    0.906765    0.385862    0.385384    11.00000    0.05280    0.04450 =
         0.03248   -0.00361    0.00047   -0.01897
AFIX  43
H85   2    0.945237    0.389126    0.346113    11.00000   -1.20000
AFIX   0
C86   1    0.895709    0.311491    0.421378    11.00000    0.06258    0.03155 =
         0.03839   -0.00587   -0.00018   -0.01608
AFIX  43
H86   2    0.926934    0.264639    0.405638    11.00000   -1.20000
AFIX   0
PART 1
C5B4  1    1.308158    0.119700    1.013145    21.00000    0.10196    0.20528 =
         0.11644   -0.03487    0.02794   -0.03797
AFIX 137
H5BI  2    1.257868    0.156333    0.995103    21.00000   -1.50000
H5BJ  2    1.355706    0.127142    0.980637    21.00000   -1.50000
H5BK  2    1.316178    0.130699    1.057919    21.00000   -1.50000
AFIX   0
C7B1  1    0.619380   -0.084577    0.209553    21.00000    0.02116    0.07576 =
         0.04732   -0.02627   -0.00252   -0.01801
AFIX  23
H7BA  2    0.656547   -0.135350    0.229682    21.00000   -1.20000
H7BB  2    0.653573   -0.048263    0.183693    21.00000   -1.20000
AFIX   0
C7B2  1    0.562704   -0.099777    0.161157    21.00000    0.06946    0.14144 =
         0.04042   -0.02110    0.00210   -0.06548
AFIX  23
H7BC  2    0.531092   -0.047780    0.137387    21.00000   -1.20000
H7BD  2    0.597458   -0.127487    0.125380    21.00000   -1.20000
AFIX   0
C7B3  1    0.503542   -0.148043    0.196628    21.00000    0.05219    0.13514 =
         0.07951   -0.06522    0.01052   -0.03409
AFIX  23
H7BE  2    0.469910   -0.154591    0.161607    21.00000   -1.20000
H7BF  2    0.465601   -0.117825    0.229338    21.00000   -1.20000
AFIX   0
C7B4  1    0.543070   -0.231707    0.236808    21.00000    0.06050    0.10645 =
         0.16015   -0.05034   -0.01124   -0.01044
AFIX  33
H7BG  2    0.499522   -0.258816    0.258278    21.00000   -1.50000
H7BH  2    0.579511   -0.263056    0.204840    21.00000   -1.50000
H7BI  2    0.575192   -0.226200    0.272736    21.00000   -1.50000
AFIX   0
C8B4  1    1.128506    0.568541    0.371873    10.50000    0.05410    0.06584 =
         0.12801   -0.02663   -0.03792   -0.00605
AFIX  33
H8BI  2    1.146093    0.603276    0.396702    10.50000   -1.50000
H8BJ  2    1.150957    0.512673    0.392290    10.50000   -1.50000
H8BK  2    1.148904    0.578575    0.323140    10.50000   -1.50000
AFIX   0
PART 0
PART 2
C5B5  1    1.375938   -0.009286    1.063376   -21.00000    0.08496    0.13000 =
         0.06909    0.01865   -0.05559   -0.04241
AFIX 137
H5BL  2    1.425450   -0.018566    1.031528   -21.00000   -1.50000
H5BM  2    1.366018   -0.060572    1.088279   -21.00000   -1.50000
H5BN  2    1.383966    0.021720    1.096528   -21.00000   -1.50000
AFIX   0
C7B5  1    0.536216   -0.112933    0.253208   -21.00000    0.13498    0.13619 =
         0.12735   -0.02638   -0.02674   -0.03519
AFIX  23
H7BJ  2    0.476352   -0.094525    0.265304   -21.00000   -1.20000
H7BK  2    0.557375   -0.158292    0.290176   -21.00000   -1.20000
AFIX   0
C7B6  1    0.544416   -0.147674    0.186037   -21.00000    0.10434    0.11077 =
         0.09487   -0.02129   -0.01636   -0.02971
AFIX  23
H7BL  2    0.603282   -0.166605    0.170785   -21.00000   -1.20000
H7BM  2    0.517504   -0.192921    0.193958   -21.00000   -1.20000
AFIX   0
C7B7  1    0.501545   -0.079507    0.131776   -21.00000    0.08345    0.04957 =
         0.10376   -0.00864   -0.01053   -0.02619
AFIX  23
H7BN  2    0.535544   -0.039765    0.116967   -21.00000   -1.20000
H7BO  2    0.447314   -0.052648    0.151758   -21.00000   -1.20000
AFIX   0
C7B8  1    0.489484   -0.113088    0.069351   -21.00000    0.18249    0.09054 =
         0.15544   -0.05417   -0.08674   -0.02746
AFIX  33
H7BP  2    0.462003   -0.069528    0.034448   -21.00000   -1.50000
H7BQ  2    0.543375   -0.139161    0.049529   -21.00000   -1.50000
H7BR  2    0.455376   -0.152010    0.084229   -21.00000   -1.50000
AFIX   0
PART 0
PART -1
C8B5  1    0.985394    0.563649    0.461173    10.50000    0.11382    0.09147 =
         0.06094   -0.02349   -0.00269   -0.04398
AFIX  33
H8BL  2    0.993308    0.601616    0.487942    10.50000   -1.50000
H8BM  2    0.926396    0.565549    0.462559    10.50000   -1.50000
H8BN  2    1.015048    0.509717    0.481048    10.50000   -1.50000
AFIX   0

PART 0
AU3   3    1.000000    0.000000    0.500000    10.50000    0.03976    0.03368 =
         0.03307   -0.00777    0.00760   -0.01144
CL3A  4    0.957090    0.084477    0.400949    11.00000    0.05708    0.04794 =
         0.03860    0.00065    0.00172   -0.01394
CL3B  4    0.910639   -0.074981    0.491113    11.00000    0.05030    0.04769 =
         0.05214   -0.01290    0.00644   -0.02243

AU4   3    1.000000    0.000000    1.000000    10.50000    0.04471    0.02771 =
         0.03854    0.00226   -0.01648   -0.00452
CL4A  4    0.881734    0.078949    0.956544    11.00000    0.04930    0.03756 =
         0.06681    0.00563   -0.02556   -0.00261
CL4B  4    1.030255    0.108243    1.027437    11.00000    0.06338    0.03135 =
         0.06127   -0.00321   -0.02858   -0.00679
AU5   3    0.218182    0.527345    0.058496    11.00000    0.05298    0.02915 =
         0.06632   -0.00185   -0.00480   -0.00789
CL5A  4    0.256183    0.536373   -0.056475    11.00000    0.07784    0.05708 =
         0.06856   -0.00614   -0.00198   -0.00239
CL5B  4    0.093923    0.507876    0.039871    11.00000    0.05721    0.04498 =
         0.10347    0.00080   -0.01293   -0.01549
CL5C  4    0.182172    0.517606    0.173396    11.00000    0.10735    0.05035 =
         0.06690    0.00333    0.00521   -0.02291
CL5D  4    0.341852    0.547735    0.077642    11.00000    0.06322    0.05442 =
         0.11627   -0.01882   -0.01645   -0.01431
HKLF 4




REM  f in P-1
REM R1 =  0.0368 for   15533 Fo > 4sig(Fo)  and  0.0609 for all   21056 data
REM   1410 parameters refined using     38 restraints

END

WGHT      0.0353      0.0000

REM Highest difference peak  1.339,  deepest hole -1.725,  1-sigma level  0.126
Q1    1   0.1734  0.5057  0.1000  11.00000  0.05    1.34
Q2    1   1.4116  0.6012 -0.3320  11.00000  0.05    1.24
Q3    1   0.6834  0.3277 -0.3734  11.00000  0.05    0.97
Q4    1   0.1628  0.5748  0.0738  11.00000  0.05    0.89
Q5    1   0.9414  0.2309  0.0120  11.00000  0.05    0.89
Q6    1   1.0872  0.2299 -0.0921  11.00000  0.05    0.88
Q7    1   1.0874  0.2288  0.4080  11.00000  0.05    0.85
Q8    1   1.1283  0.3011  0.6499  11.00000  0.05    0.83
Q9    1   0.5354  0.2028 -0.5685  11.00000  0.05    0.81
Q10   1   0.6847  0.3304  0.1245  11.00000  0.05    0.78
Q11   1   0.9412  0.0176  1.0366  11.00000  0.05    0.76
Q12   1   0.8758  0.2737  0.0067  11.00000  0.05    0.75
Q13   1   0.8215  0.0422  0.6285  11.00000  0.05    0.69
Q14   1   0.6199 -0.1048  0.2497  11.00000  0.05    0.68
Q15   1   0.6649 -0.2503  0.9580  11.00000  0.05    0.67
Q16   1   1.3838  0.4831 -0.3567  11.00000  0.05    0.67
Q17   1   0.5776 -0.4804  1.0493  11.00000  0.05    0.66
Q18   1   0.8108 -0.0145  0.6063  11.00000  0.05    0.65
Q19   1   0.4219  0.4805  0.4458  11.00000  0.05    0.63
Q20   1   0.2374  0.5215  0.0055  11.00000  0.05    0.62
Q21   1   0.4212  0.3976  0.3534  11.00000  0.05    0.61
Q22   1   0.7574  0.0627  0.6534  11.00000  0.05    0.61
Q23   1   0.7570  0.0391  0.7178  11.00000  0.05    0.60
Q24   1   0.9785  0.5059  0.4246  11.00000  0.05    0.59
Q25   1   1.4521 -0.0270  1.0216  11.00000  0.05    0.58
Q26   1   0.4944  0.3665  0.2385  11.00000  0.05    0.58
Q27   1   0.9988  0.0850  1.0923  11.00000  0.05    0.57
Q28   1   0.8892  0.1964 -0.0771  11.00000  0.05    0.57
Q29   1   0.8401  0.3157  0.0471  11.00000  0.05    0.56
Q30   1   1.3325  0.2512  0.5410  11.00000  0.05    0.55
Q31   1   0.7167 -0.1740  0.2039  11.00000  0.05    0.55
Q32   1   0.7975  0.2012  0.0091  11.00000  0.05    0.55
Q33   1   0.9111  0.2346 -0.0378  11.00000  0.05    0.54
Q34   1   0.6914  0.2404 -0.4642  11.00000  0.05    0.54
Q35   1   0.8397  0.0212  0.5624  11.00000  0.05    0.53
Q36   1   0.9787  0.4206  0.3349  11.00000  0.05    0.53
Q37   1   0.2220  0.4436 -0.0287  11.00000  0.05    0.52
Q38   1   0.8792  0.3283  0.0097  11.00000  0.05    0.52
Q39   1   0.9379 -0.0477  0.5226  11.00000  0.05    0.52
Q40   1   0.8834  0.2764  0.5172  11.00000  0.05    0.52
Q41   1   0.9788  0.4261 -0.1680  11.00000  0.05    0.51
Q42   1   1.0802  0.0744  1.0126  11.00000  0.05    0.51
Q43   1   0.9904  0.0669  1.0145  11.00000  0.05    0.50
Q44   1   0.3987 -0.0978  0.2789  11.00000  0.05    0.50
Q45   1   1.0962  0.1418  0.3171  11.00000  0.05    0.50
Q46   1   0.5604 -0.2178  0.0976  11.00000  0.05    0.50
Q47   1   1.1862  0.2471 -0.1607  11.00000  0.05    0.50
Q48   1   0.9200  0.2770  0.0359  11.00000  0.05    0.49
Q49   1   1.0345 -0.0389  0.4526  11.00000  0.05    0.49
Q50   1   1.2627  0.2803 -0.2197  11.00000  0.05    0.49
;
_shelx_res_checksum              89198
_olex2_submission_special_instructions 'No special instructions were received'
loop_
_space_group_symop_operation_xyz
'x, y, z'
'-x, -y, -z'
loop_
_atom_site_label
_atom_site_type_symbol
_atom_site_fract_x
_atom_site_fract_y
_atom_site_fract_z
_atom_site_U_iso_or_equiv
_atom_site_adp_type
_atom_site_occupancy
_atom_site_site_symmetry_order
_atom_site_calc_flag
_atom_site_refinement_flags_posn
_atom_site_refinement_flags_adp
_atom_site_refinement_flags_occupancy
_atom_site_disorder_assembly
_atom_site_disorder_group
Au1 Au 0.88828(2) 0.27765(2) 0.01819(2) 0.02681(6) Uani 1 1 d . . . . .
O1 O 0.6476(3) 0.1850(3) -0.3334(2) 0.0534(12) Uani 1 1 d . . . . .
O3 O 1.1576(3) 0.3069(2) 0.38021(18) 0.0406(10) Uani 1 1 d . . . . .
O4 O 0.4136(3) 0.2894(3) 0.2948(2) 0.0514(11) Uani 1 1 d . . . . .
O2 O 1.3117(8) 0.4363(6) -0.2589(7) 0.052(3) Uani 0.5 1 d D . . A 1
O2A O 1.3198(9) 0.3945(10) -0.2707(7) 0.088(5) Uani 0.5 1 d D . . A 2
N1 N 0.7767(3) 0.2613(2) 0.0054(2) 0.0288(10) Uani 1 1 d . . . . .
N2 N 0.9186(3) 0.2842(3) -0.0845(2) 0.0302(10) Uani 1 1 d . . . . .
N3 N 1.0000(3) 0.2934(2) 0.0311(2) 0.0264(10) Uani 1 1 d . . . . .
N4 N 0.8578(3) 0.2716(3) 0.1211(2) 0.0307(10) Uani 1 1 d . . . . .
C1 C 0.7947(3) 0.2547(3) -0.1189(3) 0.0318(13) Uani 1 1 d . . . . .
C1A C 0.7510(3) 0.2504(3) -0.0547(3) 0.0300(12) Uani 1 1 d . . . . .
C1B C 0.7122(3) 0.2576(3) 0.0554(3) 0.0325(13) Uani 1 1 d . . . . .
C1B1 C 0.6067(4) 0.2448(4) -0.3851(3) 0.0547(18) Uani 1 1 d . . . . .
H1BA H 0.647233 0.269822 -0.416655 0.066 Uiso 1 1 calc R . . . .
H1BB H 0.566817 0.286627 -0.363902 0.066 Uiso 1 1 calc R . . . .
C1B2 C 0.5618(4) 0.2056(4) -0.4251(3) 0.0551(18) Uani 1 1 d . . . . .
H1BC H 0.602090 0.161005 -0.442425 0.066 Uiso 1 1 calc R . . . .
H1BD H 0.520171 0.182898 -0.393005 0.066 Uiso 1 1 calc R . . . .
C1B3 C 0.5201(6) 0.2604(5) -0.4841(4) 0.082(3) Uani 1 1 d . . . . .
H1BE H 0.561216 0.283824 -0.516348 0.099 Uiso 1 1 calc R . . . .
H1BF H 0.478548 0.304496 -0.467128 0.099 Uiso 1 1 calc R . . . .
C1B4 C 0.4777(6) 0.2167(6) -0.5224(5) 0.104(4) Uani 1 1 d . . . . .
H1BG H 0.439354 0.190941 -0.489936 0.156 Uiso 1 1 calc GR . . . .
H1BH H 0.519485 0.176117 -0.542749 0.156 Uiso 1 1 calc GR . . . .
H1BI H 0.447262 0.254885 -0.559165 0.156 Uiso 1 1 calc GR . . . .
C1C C 0.6697(4) 0.2385(3) -0.0408(3) 0.0355(14) Uani 1 1 d . . . . .
H1C H 0.637779 0.228955 -0.073093 0.043 Uiso 1 1 calc R . . . .
C1D C 0.6455(4) 0.2429(3) 0.0262(3) 0.0356(13) Uani 1 1 d . . . . .
H1D H 0.593693 0.237259 0.049348 0.043 Uiso 1 1 calc R . . . .
C2 C 1.0547(4) 0.3151(3) -0.0910(3) 0.0359(14) Uani 1 1 d . . . . .
C2A C 0.8706(3) 0.2732(3) -0.1326(3) 0.0288(12) Uani 1 1 d . . . . .
C2B C 0.9880(4) 0.3036(3) -0.1195(3) 0.0314(13) Uani 1 1 d . . . . .
C2C C 0.9140(4) 0.2849(3) -0.1989(3) 0.0350(14) Uani 1 1 d . . . . .
H2C H 0.896435 0.279867 -0.241129 0.042 Uiso 1 1 calc R . . . .
C2D C 0.9842(4) 0.3044(3) -0.1913(3) 0.0371(14) Uani 1 1 d . . . . .
H2D H 1.024476 0.316512 -0.227326 0.044 Uiso 1 1 calc R . . . .
C3 C 0.9897(3) 0.2819(3) 0.1584(3) 0.0305(13) Uani 1 1 d . . . . .
C3A C 1.0611(4) 0.3060(3) -0.0205(3) 0.0336(13) Uani 1 1 d . . . . .
C3B C 1.0324(4) 0.2878(3) 0.0930(3) 0.0325(13) Uani 1 1 d . . . . .
C3B1 C 1.1561(4) 0.2526(4) 0.4452(3) 0.0424(15) Uani 1 1 d . . . . .
H3BA H 1.183404 0.197419 0.439127 0.051 Uiso 1 1 calc R . . . .
H3BB H 1.098540 0.254081 0.464304 0.051 Uiso 1 1 calc R . . . .
C3B2 C 1.2026(5) 0.2798(4) 0.4934(3) 0.0543(18) Uani 1 1 d . . . . .
H3BC H 1.260729 0.275612 0.474885 0.065 Uiso 1 1 calc R . . . .
H3BD H 1.177227 0.336298 0.496318 0.065 Uiso 1 1 calc R . . . .
C3B3 C 1.1995(6) 0.2285(5) 0.5648(4) 0.078(3) Uani 1 1 d . . . . .
H3BE H 1.224128 0.172034 0.561417 0.093 Uiso 1 1 calc R . . . .
H3BF H 1.141168 0.232987 0.583010 0.093 Uiso 1 1 calc R . . . .
C3B4 C 1.2458(7) 0.2530(6) 0.6152(4) 0.110(4) Uani 1 1 d . . . . .
H3BG H 1.220945 0.308582 0.619414 0.164 Uiso 1 1 calc GR . . . .
H3BH H 1.303865 0.247609 0.597863 0.164 Uiso 1 1 calc GR . . . .
H3BI H 1.242350 0.218554 0.660582 0.164 Uiso 1 1 calc GR . . . .
C3C C 1.1333(4) 0.3047(4) 0.0105(3) 0.0408(15) Uani 1 1 d . . . . .
H3C H 1.184669 0.311080 -0.013162 0.049 Uiso 1 1 calc R . . . .
C3D C 1.1160(3) 0.2927(3) 0.0787(3) 0.0330(13) Uani 1 1 d . . . . .
H3D H 1.153394 0.288295 0.112290 0.040 Uiso 1 1 calc R . . . .
C4 C 0.7118(3) 0.2660(3) 0.1238(3) 0.0322(13) Uani 1 1 d . . . . .
C4A C 0.9077(4) 0.2779(3) 0.1698(3) 0.0313(13) Uani 1 1 d . . . . .
C4B C 0.7802(3) 0.2717(3) 0.1533(3) 0.0319(13) Uani 1 1 d . . . . .
C4B1 C 0.3465(4) 0.3578(5) 0.2861(4) 0.068(2) Uani 1 1 d D . . . .
H4BA H 0.297988 0.343159 0.314601 0.081 Uiso 0.5 1 calc R . . B 1
H4BB H 0.333212 0.369171 0.237270 0.081 Uiso 0.5 1 calc R . . B 1
H4BC H 0.292748 0.343851 0.301387 0.081 Uiso 0.5 1 calc R . . C 2
H4BD H 0.345449 0.386727 0.237680 0.081 Uiso 0.5 1 calc R . . C 2
C4C C 0.8586(4) 0.2825(4) 0.2330(3) 0.0387(14) Uani 1 1 d . . . . .
H4C H 0.876874 0.287030 0.275043 0.046 Uiso 1 1 calc R . . . .
C4D C 0.7821(4) 0.2794(4) 0.2233(3) 0.0387(14) Uani 1 1 d . . . . .
H4D H 0.736752 0.281919 0.257237 0.046 Uiso 1 1 calc R . . . .
C11 C 0.7559(3) 0.2385(3) -0.1775(3) 0.0313(13) Uani 1 1 d . . . . .
C12 C 0.7503(4) 0.1624(4) -0.1782(3) 0.0440(15) Uani 1 1 d . . . . .
H12 H 0.772170 0.119869 -0.142565 0.053 Uiso 1 1 calc R . . . .
C13 C 0.7125(4) 0.1474(4) -0.2314(3) 0.0412(15) Uani 1 1 d . . . . .
H13 H 0.707800 0.094731 -0.230822 0.049 Uiso 1 1 calc R . . . .
C14 C 0.6823(4) 0.2074(4) -0.2841(3) 0.0386(14) Uani 1 1 d . . . . .
C15 C 0.6883(4) 0.2839(4) -0.2841(3) 0.0466(16) Uani 1 1 d . . . . .
H15 H 0.667673 0.326130 -0.320470 0.056 Uiso 1 1 calc R . . . .
C16 C 0.7253(4) 0.2989(4) -0.2299(3) 0.0403(15) Uani 1 1 d . . . . .
H16 H 0.729179 0.351631 -0.229799 0.048 Uiso 1 1 calc R . . . .
C21 C 1.1233(4) 0.3422(4) -0.1374(3) 0.0431(16) Uani 1 1 d . . . . .
C22 C 1.1774(4) 0.2941(5) -0.1779(3) 0.0572(19) Uani 1 1 d . . . . .
H22 H 1.171790 0.241848 -0.177603 0.069 Uiso 1 1 calc R . . . .
C23 C 1.2416(5) 0.3239(7) -0.2200(3) 0.086(3) Uani 1 1 d . . . . .
H23 H 1.278459 0.291377 -0.248568 0.103 Uiso 1 1 calc R . . . .
C24 C 1.2513(6) 0.3996(8) -0.2200(4) 0.096(4) Uani 1 1 d D . . . .
C25 C 1.1967(6) 0.4466(6) -0.1801(4) 0.087(3) Uani 1 1 d . . . . .
H25 H 1.201656 0.499089 -0.180335 0.104 Uiso 1 1 calc R . . . .
C26 C 1.1344(5) 0.4175(5) -0.1394(3) 0.063(2) Uani 1 1 d . . . . .
H26 H 1.097363 0.450786 -0.111538 0.076 Uiso 1 1 calc R . . . .
C31 C 1.0337(3) 0.2857(3) 0.2175(3) 0.0297(12) Uani 1 1 d . . . . .
C32 C 1.0442(3) 0.2254(3) 0.2751(3) 0.0321(13) Uani 1 1 d . . . . .
H32 H 1.023138 0.179917 0.276626 0.039 Uiso 1 1 calc R . . . .
C33 C 1.0850(3) 0.2295(3) 0.3308(3) 0.0340(13) Uani 1 1 d . . . . .
H33 H 1.091054 0.187628 0.370006 0.041 Uiso 1 1 calc R . . . .
C34 C 1.1168(3) 0.2958(3) 0.3284(3) 0.0324(13) Uani 1 1 d . . . . .
C35 C 1.1077(3) 0.3565(3) 0.2712(3) 0.0336(13) Uani 1 1 d . . . . .
H35 H 1.129839 0.401340 0.269701 0.040 Uiso 1 1 calc R . . . .
C36 C 1.0667(3) 0.3527(3) 0.2163(3) 0.0335(13) Uani 1 1 d . . . . .
H36 H 1.060549 0.395000 0.177455 0.040 Uiso 1 1 calc R . . . .
C41 C 0.6321(4) 0.2720(3) 0.1672(3) 0.0332(13) Uani 1 1 d . . . . .
C42 C 0.6185(4) 0.2111(4) 0.2211(3) 0.0380(14) Uani 1 1 d . . . . .
H42 H 0.660212 0.163185 0.229546 0.046 Uiso 1 1 calc R . . . .
C43 C 0.5452(4) 0.2189(4) 0.2626(3) 0.0427(15) Uani 1 1 d . . . . .
H43 H 0.537329 0.176826 0.299454 0.051 Uiso 1 1 calc R . . . .
C44 C 0.4840(4) 0.2874(4) 0.2507(3) 0.0396(15) Uani 1 1 d . . . . .
C45 C 0.4959(4) 0.3485(4) 0.1965(3) 0.0455(16) Uani 1 1 d . . . . .
H45 H 0.453643 0.395958 0.187490 0.055 Uiso 1 1 calc R . . . .
C46 C 0.5694(4) 0.3401(4) 0.1557(3) 0.0426(15) Uani 1 1 d . . . . .
H46 H 0.576940 0.382183 0.118764 0.051 Uiso 1 1 calc R . . . .
C2B1 C 1.3154(8) 0.5181(7) -0.2615(6) 0.046(3) Uiso 0.5 1 d D . . A 1
H2BA H 1.322052 0.526648 -0.215008 0.056 Uiso 0.5 1 calc R . . A 1
H2BB H 1.264159 0.555396 -0.278693 0.056 Uiso 0.5 1 calc R . . A 1
C2B2 C 1.3900(8) 0.5316(9) -0.3110(6) 0.059(4) Uiso 0.5 1 d D . . A 1
H2BC H 1.403790 0.581270 -0.305892 0.071 Uiso 0.5 1 calc R . . A 1
H2BD H 1.438252 0.486791 -0.299103 0.071 Uiso 0.5 1 calc R . . A 1
C2B3 C 1.3727(19) 0.5374(15) -0.3837(11) 0.149(5) Uiso 0.5 1 d D . . A 1
H2BE H 1.410557 0.566082 -0.415033 0.179 Uiso 0.5 1 calc R . . A 1
H2BF H 1.315453 0.568464 -0.390891 0.179 Uiso 0.5 1 calc R . . A 1
C2B4 C 1.3836(17) 0.4567(14) -0.4010(13) 0.149(5) Uiso 0.5 1 d D . . A 1
H2BG H 1.371760 0.462484 -0.449148 0.224 Uiso 0.5 1 calc R . . A 1
H2BH H 1.440513 0.426237 -0.394597 0.224 Uiso 0.5 1 calc R . . A 1
H2BI H 1.345495 0.428617 -0.370476 0.224 Uiso 0.5 1 calc R . . A 1
C4B2 C 0.3552(12) 0.4348(9) 0.3034(8) 0.070(5) Uani 0.5 1 d D . . D 1
H4BE H 0.306554 0.478334 0.289603 0.084 Uiso 0.5 1 calc R . . D 1
H4BF H 0.405192 0.449809 0.278164 0.084 Uiso 0.5 1 calc R . . D 1
C4B3 C 0.3617(10) 0.4221(8) 0.3813(6) 0.061(4) Uani 0.5 1 d D . . D 1
H4BG H 0.312703 0.404797 0.406441 0.073 Uiso 0.5 1 calc R . . D 1
H4BH H 0.411494 0.379923 0.394712 0.073 Uiso 0.5 1 calc R . . D 1
C4B4 C 0.3669(9) 0.5001(7) 0.4002(7) 0.053(4) Uani 0.5 1 d D . . D 1
H4BI H 0.371138 0.492288 0.450084 0.079 Uiso 0.5 1 calc R . . D 1
H4BJ H 0.415777 0.516586 0.375432 0.079 Uiso 0.5 1 calc R . . D 1
H4BK H 0.317262 0.541391 0.387129 0.079 Uiso 0.5 1 calc R . . D 1
C2B5 C 1.3288(13) 0.4750(11) -0.2843(10) 0.086(6) Uiso 0.5 1 d D . . A 2
H2BJ H 1.342200 0.489686 -0.242307 0.103 Uiso 0.5 1 calc R . . A 2
H2BK H 1.277840 0.512800 -0.301359 0.103 Uiso 0.5 1 calc R . . A 2
C2B6 C 1.4019(15) 0.4742(15) -0.3411(13) 0.151(10) Uiso 0.5 1 d D . . A 2
H2BL H 1.454353 0.451187 -0.318684 0.181 Uiso 0.5 1 calc R . . A 2
H2BM H 1.397727 0.438691 -0.372509 0.181 Uiso 0.5 1 calc R . . A 2
C2B7 C 1.4051(16) 0.5547(14) -0.3835(14) 0.149(5) Uiso 0.5 1 d D . . A 2
H2BN H 1.415073 0.592103 -0.356410 0.179 Uiso 0.5 1 calc R . . A 2
H2BO H 1.356794 0.579602 -0.411057 0.179 Uiso 0.5 1 calc R . . A 2
C2B8 C 1.4871(14) 0.5147(15) -0.4286(12) 0.149(5) Uiso 0.5 1 d D . . A 2
H2BP H 1.505185 0.556373 -0.463463 0.224 Uiso 0.5 1 calc R . . A 2
H2BQ H 1.531368 0.487959 -0.397871 0.224 Uiso 0.5 1 calc R . . A 2
H2BR H 1.474155 0.475687 -0.451519 0.224 Uiso 0.5 1 calc R . . A 2
C4B5 C 0.369(2) 0.4061(15) 0.3348(15) 0.145(13) Uiso 0.5 1 d D . . D 2
H4BL H 0.352852 0.383603 0.383033 0.174 Uiso 0.5 1 calc R . . D 2
H4BM H 0.429759 0.399054 0.330551 0.174 Uiso 0.5 1 calc R . . D 2
C4B6 C 0.3296(17) 0.4930(16) 0.3209(17) 0.188(13) Uiso 0.5 1 d D . . D 2
H4BN H 0.334570 0.515622 0.270893 0.225 Uiso 0.5 1 calc R . . D 2
H4BO H 0.354552 0.522520 0.346516 0.225 Uiso 0.5 1 calc R . . D 2
C4B7 C 0.2393(17) 0.4959(18) 0.3470(15) 0.168(11) Uiso 0.5 1 d D . . D 2
H4BP H 0.207444 0.551417 0.340153 0.251 Uiso 0.5 1 calc R . . D 2
H4BQ H 0.216416 0.465620 0.321321 0.251 Uiso 0.5 1 calc R . . D 2
H4BR H 0.236240 0.472464 0.396347 0.251 Uiso 0.5 1 calc R . . D 2
Au2 Au 0.79855(2) 0.04857(2) 0.61003(2) 0.02994(6) Uani 1 1 d . . . . .
O5 O 1.2215(3) -0.0164(3) 0.8741(2) 0.0593(13) Uani 1 1 d . . . . .
O6 O 0.5615(2) -0.2738(2) 0.9433(2) 0.0403(10) Uani 1 1 d . . . . .
O7 O 0.5719(4) -0.0523(4) 0.2583(3) 0.0830(18) Uani 1 1 d D . . . .
O8 O 0.8664(3) 0.5289(3) 0.3771(3) 0.0774(17) Uani 1 1 d . . . . .
N5 N 0.8717(3) 0.1189(3) 0.6179(2) 0.0322(11) Uani 1 1 d . . . . .
N6 N 0.8268(3) -0.0154(3) 0.7035(2) 0.0316(10) Uani 1 1 d . . . . .
N7 N 0.7225(3) -0.0205(3) 0.6032(2) 0.0328(11) Uani 1 1 d . . . . .
N8 N 0.7709(3) 0.1119(3) 0.5158(2) 0.0335(11) Uani 1 1 d . . . . .
C5 C 0.9434(3) 0.0403(3) 0.7211(3) 0.0324(13) Uani 1 1 d . . . . .
C5A C 0.9317(3) 0.1030(3) 0.6648(3) 0.0331(13) Uani 1 1 d . . . . .
C5B C 0.8758(3) 0.1908(3) 0.5749(3) 0.0305(12) Uani 1 1 d . . . . .
C5B1 C 1.2270(5) 0.0352(5) 0.9193(4) 0.066(2) Uani 1 1 d . . . . .
H5BA H 1.174796 0.046771 0.948634 0.080 Uiso 1 1 calc R . . . .
H5BB H 1.236914 0.086155 0.892109 0.080 Uiso 1 1 calc R . . . .
C5B2 C 1.2982(5) -0.0069(5) 0.9641(4) 0.082(3) Uani 1 1 d . . . . .
H5BC H 1.350903 -0.011121 0.934980 0.098 Uiso 1 1 calc R . . . .
H5BD H 1.292518 -0.061647 0.984669 0.098 Uiso 1 1 calc R . . . .
C5B3 C 1.3003(7) 0.0377(6) 1.0217(5) 0.106(4) Uani 1 1 d . . . . .
H5BG H 1.248700 0.040698 1.052298 0.127 Uiso 0.415(7) 1 calc R . . E 2
H5BH H 1.305825 0.092597 1.001953 0.127 Uiso 0.415(7) 1 calc R . . E 2
H5BE H 1.249006 0.035060 1.051791 0.127 Uiso 0.585(7) 1 calc R . . E 1
H5BF H 1.346299 0.004651 1.049374 0.127 Uiso 0.585(7) 1 calc R . . E 1
C5C C 0.9749(4) 0.1662(3) 0.6488(3) 0.0358(13) Uani 1 1 d . . . . .
H5C H 1.020124 0.169521 0.671461 0.043 Uiso 1 1 calc R . . . .
C5D C 0.9394(4) 0.2193(3) 0.5959(3) 0.0364(14) Uani 1 1 d . . . . .
H5D H 0.954151 0.268013 0.575668 0.044 Uiso 1 1 calc R . . . .
C6 C 0.7189(3) -0.0915(3) 0.7243(3) 0.0336(13) Uani 1 1 d . . . . .
C6A C 0.8882(4) -0.0099(3) 0.7410(3) 0.0326(13) Uani 1 1 d . . . . .
C6B C 0.7816(4) -0.0650(3) 0.7452(3) 0.0321(13) Uani 1 1 d . . . . .
C6B1 C 0.6005(4) -0.3562(4) 0.9691(3) 0.0474(16) Uani 1 1 d . . . . .
H6BA H 0.656361 -0.360377 0.982780 0.057 Uiso 1 1 calc R . . . .
H6BB H 0.605920 -0.388398 0.932666 0.057 Uiso 1 1 calc R . . . .
C6B2 C 0.5467(4) -0.3869(4) 1.0313(3) 0.0512(17) Uani 1 1 d . . . . .
H6BC H 0.488954 -0.373290 1.018628 0.061 Uiso 1 1 calc R . . . .
H6BD H 0.564909 -0.445749 1.042358 0.061 Uiso 1 1 calc R . . . .
C6B3 C 0.5487(5) -0.3547(5) 1.0941(4) 0.071(2) Uani 1 1 d . . . . .
H6BE H 0.526883 -0.296167 1.084440 0.086 Uiso 1 1 calc R . . . .
H6BF H 0.606739 -0.365396 1.105608 0.086 Uiso 1 1 calc R . . . .
C6B4 C 0.4983(6) -0.3910(6) 1.1564(4) 0.091(3) Uani 1 1 d . . . . .
H6BG H 0.497369 -0.364331 1.195258 0.136 Uiso 1 1 calc GR . . . .
H6BH H 0.523403 -0.447985 1.169556 0.136 Uiso 1 1 calc GR . . . .
H6BI H 0.441664 -0.383830 1.144310 0.136 Uiso 1 1 calc GR . . . .
C6C C 0.8808(4) -0.0579(3) 0.8077(3) 0.0381(14) Uani 1 1 d . . . . .
H6C H 0.916224 -0.066297 0.843653 0.046 Uiso 1 1 calc R . . . .
C6D C 0.8160(4) -0.0888(3) 0.8109(3) 0.0359(14) Uani 1 1 d . . . . .
H6D H 0.795724 -0.121314 0.850290 0.043 Uiso 1 1 calc R . . . .
C7 C 0.6984(4) 0.0229(4) 0.4793(3) 0.0360(14) Uani 1 1 d . . . . .
C7A C 0.6975(4) -0.0754(3) 0.6563(3) 0.0333(13) Uani 1 1 d . . . . .
C7B C 0.6934(4) -0.0275(3) 0.5432(3) 0.0372(14) Uani 1 1 d . . . . .
C7C C 0.6518(4) -0.1189(3) 0.6283(3) 0.0383(14) Uani 1 1 d . . . . .
H7C H 0.626302 -0.159668 0.653464 0.046 Uiso 1 1 calc R . . . .
C7D C 0.6519(4) -0.0911(3) 0.5597(3) 0.0405(15) Uani 1 1 d . . . . .
H7D H 0.628336 -0.110468 0.527576 0.049 Uiso 1 1 calc R . . . .
C8 C 0.8321(3) 0.2241(3) 0.5167(3) 0.0333(13) Uani 1 1 d . . . . .
C8A C 0.7298(4) 0.0907(4) 0.4693(3) 0.0375(14) Uani 1 1 d . . . . .
C8B C 0.7849(4) 0.1861(3) 0.4884(3) 0.0338(13) Uani 1 1 d . . . . .
C8B1 C 0.9231(4) 0.5411(4) 0.3198(4) 0.059(2) Uani 1 1 d . . . . .
H8BA H 0.904287 0.595929 0.293662 0.071 Uiso 1 1 calc R . . . .
H8BB H 0.922884 0.503687 0.289044 0.071 Uiso 1 1 calc R . . . .
C8B2 C 1.0102(4) 0.5301(4) 0.3377(4) 0.0501(17) Uani 1 1 d . . . . .
H8BC H 1.028554 0.475590 0.364613 0.060 Uiso 1 1 calc R . . . .
H8BD H 1.046293 0.533999 0.294304 0.060 Uiso 1 1 calc R . . . .
C8B3 C 1.0225(6) 0.5880(4) 0.3780(4) 0.081(3) Uani 1 1 d . . . . .
H8BG H 0.999732 0.577113 0.426559 0.097 Uiso 0.5 1 calc R . . F 1
H8BH H 0.997658 0.643691 0.356701 0.097 Uiso 0.5 1 calc R . . F 1
H8BE H 0.993114 0.642639 0.357738 0.097 Uiso 0.5 1 calc R . . G -1
H8BF H 1.082009 0.586653 0.376278 0.097 Uiso 0.5 1 calc R . . G -1
C8C C 0.7198(4) 0.1534(4) 0.4113(3) 0.0420(15) Uani 1 1 d . . . . .
H8C H 0.695031 0.153964 0.370568 0.050 Uiso 1 1 calc R . . . .
C8D C 0.7507(4) 0.2117(4) 0.4230(3) 0.0397(14) Uani 1 1 d . . . . .
H8D H 0.750003 0.261473 0.393064 0.048 Uiso 1 1 calc R . . . .
C51 C 1.0141(4) 0.0277(3) 0.7638(3) 0.0340(13) Uani 1 1 d . . . . .
C52 C 1.0216(4) 0.0821(3) 0.8013(3) 0.0388(14) Uani 1 1 d . . . . .
H52 H 0.978999 0.129211 0.801524 0.047 Uiso 1 1 calc R . . . .
C53 C 1.0893(4) 0.0707(4) 0.8389(3) 0.0453(16) Uani 1 1 d . . . . .
H53 H 1.093028 0.109990 0.863922 0.054 Uiso 1 1 calc R . . . .
C54 C 1.1512(4) 0.0020(4) 0.8398(3) 0.0399(15) Uani 1 1 d . . . . .
C55 C 1.1432(4) -0.0554(4) 0.8037(3) 0.0494(17) Uani 1 1 d . . . . .
H55 H 1.184383 -0.103875 0.805431 0.059 Uiso 1 1 calc R . . . .
C56 C 1.0768(4) -0.0424(4) 0.7661(3) 0.0446(15) Uani 1 1 d . . . . .
H56 H 1.072982 -0.081564 0.741047 0.053 Uiso 1 1 calc R . . . .
C61 C 0.6766(4) -0.1439(3) 0.7781(3) 0.0324(13) Uani 1 1 d . . . . .
C62 C 0.7151(3) -0.2216(3) 0.8039(3) 0.0336(13) Uani 1 1 d . . . . .
H62 H 0.768405 -0.244190 0.784571 0.040 Uiso 1 1 calc R . . . .
C63 C 0.6772(4) -0.2676(3) 0.8578(3) 0.0360(14) Uani 1 1 d . . . . .
H63 H 0.704146 -0.321397 0.874230 0.043 Uiso 1 1 calc R . . . .
C64 C 0.6010(3) -0.2356(3) 0.8874(3) 0.0312(13) Uani 1 1 d . . . . .
C65 C 0.5602(4) -0.1592(4) 0.8594(3) 0.0470(16) Uani 1 1 d . . . . .
H65 H 0.506453 -0.137171 0.878174 0.056 Uiso 1 1 calc R . . . .
C66 C 0.5965(4) -0.1146(3) 0.8048(3) 0.0406(15) Uani 1 1 d . . . . .
H66 H 0.566479 -0.063082 0.784940 0.049 Uiso 1 1 calc R . . . .
C71 C 0.6650(4) 0.0060(3) 0.4191(3) 0.0390(14) Uani 1 1 d . . . . .
C72 C 0.7164(4) -0.0106(4) 0.3615(3) 0.0433(15) Uani 1 1 d . . . . .
H72 H 0.772446 -0.007773 0.359189 0.052 Uiso 1 1 calc R . . . .
C73 C 0.6874(4) -0.0316(4) 0.3064(3) 0.0488(17) Uani 1 1 d . . . . .
H73 H 0.723886 -0.044189 0.267573 0.059 Uiso 1 1 calc R . . . .
C74 C 0.6058(4) -0.0340(4) 0.3089(3) 0.0524(18) Uani 1 1 d . . . . .
C75 C 0.5524(4) -0.0127(4) 0.3653(3) 0.0571(19) Uani 1 1 d . . . . .
H75 H 0.495524 -0.011959 0.366306 0.069 Uiso 1 1 calc R . . . .
C76 C 0.5813(4) 0.0066(4) 0.4182(3) 0.0489(17) Uani 1 1 d . . . . .
H76 H 0.543936 0.021139 0.455998 0.059 Uiso 1 1 calc R . . . .
C81 C 0.8415(4) 0.3043(3) 0.4783(3) 0.0338(13) Uani 1 1 d . . . . .
C82 C 0.7977(5) 0.3725(4) 0.5009(4) 0.076(3) Uani 1 1 d . . . . .
H82 H 0.760754 0.369112 0.541177 0.091 Uiso 1 1 calc R . . . .
C83 C 0.8075(5) 0.4468(4) 0.4649(5) 0.091(3) Uani 1 1 d . . . . .
H83 H 0.776189 0.493803 0.480297 0.110 Uiso 1 1 calc R . . . .
C84 C 0.8622(4) 0.4528(4) 0.4071(4) 0.0500(17) Uani 1 1 d . . . . .
C85 C 0.9068(4) 0.3859(4) 0.3854(3) 0.0427(15) Uani 1 1 d . . . . .
H85 H 0.945237 0.389126 0.346113 0.051 Uiso 1 1 calc R . . . .
C86 C 0.8957(4) 0.3115(3) 0.4214(3) 0.0437(16) Uani 1 1 d . . . . .
H86 H 0.926934 0.264639 0.405638 0.052 Uiso 1 1 calc R . . . .
C5B4 C 1.3082(13) 0.1197(15) 1.0131(10) 0.143(9) Uani 0.585(7) 1 d . . . E 1
H5BI H 1.257868 0.156333 0.995103 0.215 Uiso 0.585(7) 1 calc GR . . E 1
H5BJ H 1.355706 0.127142 0.980637 0.215 Uiso 0.585(7) 1 calc GR . . E 1
H5BK H 1.316178 0.130699 1.057919 0.215 Uiso 0.585(7) 1 calc GR . . E 1
C7B1 C 0.6194(6) -0.0846(7) 0.2096(5) 0.045(3) Uani 0.585(7) 1 d D . . E 1
H7BA H 0.656547 -0.135350 0.229682 0.054 Uiso 0.585(7) 1 calc R . . E 1
H7BB H 0.653573 -0.048263 0.183693 0.054 Uiso 0.585(7) 1 calc R . . E 1
C7B2 C 0.5627(9) -0.0998(12) 0.1612(6) 0.076(5) Uani 0.585(7) 1 d D . . E 1
H7BC H 0.531092 -0.047780 0.137387 0.091 Uiso 0.585(7) 1 calc R . . E 1
H7BD H 0.597458 -0.127487 0.125380 0.091 Uiso 0.585(7) 1 calc R . . E 1
C7B3 C 0.5035(10) -0.1480(10) 0.1966(8) 0.081(6) Uani 0.585(7) 1 d D . . E 1
H7BE H 0.469910 -0.154591 0.161607 0.098 Uiso 0.585(7) 1 calc R . . E 1
H7BF H 0.465601 -0.117825 0.229338 0.098 Uiso 0.585(7) 1 calc R . . E 1
C7B4 C 0.5431(10) -0.2317(10) 0.2368(10) 0.107(6) Uani 0.585(7) 1 d D . . E 1
H7BG H 0.499522 -0.258816 0.258278 0.160 Uiso 0.585(7) 1 calc R . . E 1
H7BH H 0.579511 -0.263056 0.204840 0.160 Uiso 0.585(7) 1 calc R . . E 1
H7BI H 0.575192 -0.226200 0.272736 0.160 Uiso 0.585(7) 1 calc R . . E 1
C8B4 C 1.1285(9) 0.5685(9) 0.3719(10) 0.080(5) Uani 0.5 1 d . . . H 1
H8BI H 1.146093 0.603276 0.396702 0.120 Uiso 0.5 1 calc R . . H 1
H8BJ H 1.150957 0.512673 0.392290 0.120 Uiso 0.5 1 calc R . . H 1
H8BK H 1.148904 0.578575 0.323140 0.120 Uiso 0.5 1 calc R . . H 1
C5B5 C 1.3759(13) -0.0093(14) 1.0634(10) 0.093(8) Uani 0.415(7) 1 d . . . E 2
H5BL H 1.425450 -0.018566 1.031528 0.139 Uiso 0.415(7) 1 calc GR . . E 2
H5BM H 1.366018 -0.060572 1.088279 0.139 Uiso 0.415(7) 1 calc GR . . E 2
H5BN H 1.383966 0.021720 1.096528 0.139 Uiso 0.415(7) 1 calc GR . . E 2
C7B5 C 0.5362(18) -0.1129(15) 0.2532(13) 0.130(10) Uani 0.415(7) 1 d D U . E 2
H7BJ H 0.476352 -0.094525 0.265304 0.157 Uiso 0.415(7) 1 calc R . . E 2
H7BK H 0.557375 -0.158292 0.290176 0.157 Uiso 0.415(7) 1 calc R . . E 2
C7B6 C 0.544(2) -0.1477(16) 0.1860(13) 0.101(12) Uani 0.415(7) 1 d D U . E 2
H7BL H 0.603282 -0.166605 0.170785 0.122 Uiso 0.415(7) 1 calc R . . E 2
H7BM H 0.517504 -0.192921 0.193958 0.122 Uiso 0.415(7) 1 calc R . . E 2
C7B7 C 0.5015(14) -0.0795(10) 0.1318(10) 0.078(6) Uani 0.415(7) 1 d D . . E 2
H7BN H 0.535544 -0.039765 0.116967 0.093 Uiso 0.415(7) 1 calc R . . E 2
H7BO H 0.447314 -0.052648 0.151758 0.093 Uiso 0.415(7) 1 calc R . . E 2
C7B8 C 0.4895(18) -0.1131(14) 0.0694(13) 0.132(12) Uani 0.415(7) 1 d D . . E 2
H7BP H 0.462003 -0.069528 0.034448 0.199 Uiso 0.415(7) 1 calc R . . E 2
H7BQ H 0.543375 -0.139161 0.049529 0.199 Uiso 0.415(7) 1 calc R . . E 2
H7BR H 0.455376 -0.152010 0.084229 0.199 Uiso 0.415(7) 1 calc R . . E 2
C8B5 C 0.9854(12) 0.5636(11) 0.4612(8) 0.084(5) Uani 0.5 1 d . . . H -1
H8BL H 0.993308 0.601616 0.487942 0.126 Uiso 0.5 1 calc R . . H -1
H8BM H 0.926396 0.565549 0.462559 0.126 Uiso 0.5 1 calc R . . H -1
H8BN H 1.015048 0.509717 0.481048 0.126 Uiso 0.5 1 calc R . . H -1
Au3 Au 1.000000 0.000000 0.500000 0.03566(8) Uani 1 2 d S T P . .
Cl3A Cl 0.95709(11) 0.08448(9) 0.40095(8) 0.0494(4) Uani 1 1 d . . . . .
Cl3B Cl 0.91064(10) -0.07498(9) 0.49111(8) 0.0484(4) Uani 1 1 d . . . . .
Au4 Au 1.000000 0.000000 1.000000 0.03781(9) Uani 1 2 d S T P . .
Cl4A Cl 0.88173(10) 0.07895(9) 0.95654(9) 0.0531(4) Uani 1 1 d . . . . .
Cl4B Cl 1.03026(11) 0.10824(9) 1.02744(9) 0.0515(4) Uani 1 1 d . . . . .
Au5 Au 0.21818(2) 0.52734(2) 0.05850(2) 0.05083(8) Uani 1 1 d . . . . .
Cl5A Cl 0.25618(13) 0.53637(11) -0.05648(10) 0.0715(5) Uani 1 1 d . . . . .
Cl5B Cl 0.09392(12) 0.50788(10) 0.03987(11) 0.0695(5) Uani 1 1 d . . . . .
Cl5C Cl 0.18217(15) 0.51761(11) 0.17340(10) 0.0772(6) Uani 1 1 d . . . . .
Cl5D Cl 0.34185(13) 0.54774(11) 0.07764(12) 0.0766(6) Uani 1 1 d . . . . .
loop_
_atom_site_aniso_label
_atom_site_aniso_U_11
_atom_site_aniso_U_22
_atom_site_aniso_U_33
_atom_site_aniso_U_23
_atom_site_aniso_U_13
_atom_site_aniso_U_12
Au1 0.02845(12) 0.02800(11) 0.02393(10) -0.00166(8) -0.00360(9) -0.00830(9)
O1 0.066(3) 0.060(3) 0.042(2) -0.019(2) -0.020(2) -0.013(2)
O3 0.050(3) 0.049(2) 0.030(2) -0.0010(18) -0.0135(19) -0.024(2)
O4 0.038(3) 0.069(3) 0.049(3) -0.014(2) 0.007(2) -0.018(2)
O2 0.045(6) 0.037(6) 0.081(8) -0.001(6) -0.004(5) -0.029(6)
O2A 0.071(10) 0.129(14) 0.069(9) 0.022(10) 0.009(7) -0.072(11)
N1 0.027(3) 0.030(2) 0.028(2) -0.005(2) -0.003(2) -0.005(2)
N2 0.029(3) 0.030(2) 0.031(2) -0.003(2) -0.005(2) -0.007(2)
N3 0.028(3) 0.028(2) 0.022(2) 0.0025(18) -0.0001(19) -0.011(2)
N4 0.032(3) 0.030(2) 0.030(2) 0.000(2) -0.004(2) -0.009(2)
C1 0.032(3) 0.031(3) 0.033(3) -0.007(2) -0.003(3) -0.006(3)
C1A 0.029(3) 0.033(3) 0.031(3) -0.007(2) -0.007(2) -0.009(2)
C1B 0.031(3) 0.036(3) 0.029(3) -0.004(2) -0.001(3) -0.008(3)
C1B1 0.055(5) 0.064(5) 0.050(4) -0.005(4) -0.023(4) -0.018(4)
C1B2 0.043(4) 0.076(5) 0.054(4) -0.019(4) -0.010(3) -0.018(4)
C1B3 0.092(7) 0.083(6) 0.086(6) -0.023(5) -0.050(5) -0.021(5)
C1B4 0.117(8) 0.097(7) 0.115(8) -0.035(6) -0.075(7) -0.010(6)
C1C 0.039(4) 0.036(3) 0.034(3) -0.008(3) -0.006(3) -0.010(3)
C1D 0.024(3) 0.044(3) 0.038(3) -0.006(3) -0.003(3) -0.009(3)
C2 0.036(4) 0.038(3) 0.034(3) 0.003(3) 0.002(3) -0.019(3)
C2A 0.031(3) 0.028(3) 0.027(3) -0.003(2) -0.007(2) -0.006(2)
C2B 0.041(4) 0.029(3) 0.024(3) -0.001(2) -0.002(3) -0.011(3)
C2C 0.045(4) 0.031(3) 0.028(3) -0.002(2) -0.008(3) -0.006(3)
C2D 0.047(4) 0.039(3) 0.027(3) 0.000(3) -0.001(3) -0.017(3)
C3 0.031(3) 0.037(3) 0.025(3) 0.001(2) -0.005(2) -0.015(3)
C3A 0.038(4) 0.034(3) 0.030(3) -0.002(2) -0.002(3) -0.014(3)
C3B 0.037(4) 0.029(3) 0.033(3) -0.005(2) -0.008(3) -0.009(3)
C3B1 0.049(4) 0.050(4) 0.031(3) -0.005(3) -0.008(3) -0.016(3)
C3B2 0.064(5) 0.062(4) 0.039(4) -0.009(3) -0.018(3) -0.012(4)
C3B3 0.113(7) 0.074(5) 0.051(4) -0.012(4) -0.034(5) -0.017(5)
C3B4 0.169(11) 0.097(7) 0.071(6) -0.020(5) -0.065(7) -0.016(7)
C3C 0.037(4) 0.051(4) 0.033(3) 0.003(3) -0.005(3) -0.015(3)
C3D 0.024(3) 0.043(3) 0.031(3) 0.000(3) -0.008(2) -0.010(3)
C4 0.032(3) 0.029(3) 0.034(3) 0.001(2) -0.005(3) -0.007(2)
C4A 0.035(3) 0.033(3) 0.025(3) -0.002(2) -0.007(2) -0.008(3)
C4B 0.028(3) 0.036(3) 0.031(3) -0.004(2) -0.004(3) -0.007(3)
C4B1 0.041(5) 0.085(6) 0.077(5) -0.028(5) 0.019(4) -0.016(4)
C4C 0.041(4) 0.050(4) 0.026(3) -0.006(3) -0.006(3) -0.011(3)
C4D 0.035(4) 0.052(4) 0.031(3) -0.012(3) 0.000(3) -0.011(3)
C11 0.032(3) 0.039(3) 0.026(3) -0.007(2) -0.003(2) -0.014(3)
C12 0.054(4) 0.039(3) 0.041(3) -0.010(3) -0.011(3) -0.009(3)
C13 0.046(4) 0.044(4) 0.037(3) -0.017(3) -0.003(3) -0.009(3)
C14 0.039(4) 0.051(4) 0.030(3) -0.015(3) -0.005(3) -0.012(3)
C15 0.049(4) 0.052(4) 0.044(4) -0.004(3) -0.021(3) -0.016(3)
C16 0.051(4) 0.042(3) 0.033(3) -0.008(3) -0.010(3) -0.015(3)
C21 0.036(4) 0.073(5) 0.022(3) 0.005(3) -0.006(3) -0.025(3)
C22 0.039(4) 0.091(6) 0.036(4) 0.005(4) -0.002(3) -0.018(4)
C23 0.035(5) 0.175(10) 0.030(4) -0.003(5) 0.003(3) -0.009(6)
C24 0.070(7) 0.174(11) 0.049(5) 0.039(6) -0.020(5) -0.081(8)
C25 0.091(7) 0.145(9) 0.044(4) 0.020(5) -0.012(5) -0.092(7)
C26 0.073(5) 0.095(6) 0.039(4) 0.000(4) -0.006(4) -0.060(5)
C31 0.023(3) 0.039(3) 0.027(3) -0.005(2) -0.001(2) -0.008(2)
C32 0.038(3) 0.035(3) 0.026(3) -0.005(2) -0.003(3) -0.015(3)
C33 0.037(4) 0.035(3) 0.029(3) -0.002(2) -0.001(3) -0.011(3)
C34 0.027(3) 0.041(3) 0.032(3) -0.005(3) -0.008(2) -0.011(3)
C35 0.034(3) 0.035(3) 0.035(3) -0.005(3) -0.004(3) -0.016(3)
C36 0.037(4) 0.032(3) 0.029(3) -0.002(2) -0.001(3) -0.008(3)
C41 0.036(3) 0.039(3) 0.024(3) -0.002(2) -0.004(3) -0.011(3)
C42 0.031(3) 0.043(3) 0.037(3) -0.002(3) -0.003(3) -0.008(3)
C43 0.033(4) 0.055(4) 0.036(3) 0.006(3) -0.002(3) -0.015(3)
C44 0.029(4) 0.059(4) 0.036(3) -0.018(3) 0.005(3) -0.016(3)
C45 0.032(4) 0.048(4) 0.055(4) -0.016(3) 0.004(3) -0.005(3)
C46 0.039(4) 0.042(4) 0.042(3) 0.001(3) -0.005(3) -0.009(3)
C4B2 0.074(12) 0.048(9) 0.071(11) -0.021(9) 0.021(9) 0.011(9)
C4B3 0.084(12) 0.052(9) 0.046(8) -0.016(7) -0.006(8) -0.010(8)
C4B4 0.066(10) 0.043(7) 0.052(8) -0.025(7) 0.001(7) -0.006(7)
Au2 0.03277(13) 0.02911(11) 0.02720(11) -0.00159(9) 0.00210(9) -0.01097(9)
O5 0.033(3) 0.080(3) 0.058(3) 0.000(3) -0.016(2) -0.006(2)
O6 0.033(2) 0.035(2) 0.047(2) 0.0071(19) 0.0026(19) -0.0115(18)
O7 0.097(5) 0.095(4) 0.074(4) 0.008(3) -0.046(4) -0.055(4)
O8 0.052(3) 0.037(3) 0.117(4) 0.033(3) 0.010(3) -0.010(2)
N5 0.033(3) 0.030(2) 0.030(2) -0.002(2) 0.001(2) -0.007(2)
N6 0.029(3) 0.033(3) 0.034(2) -0.006(2) 0.004(2) -0.012(2)
N7 0.038(3) 0.036(3) 0.025(2) 0.000(2) 0.003(2) -0.015(2)
N8 0.035(3) 0.039(3) 0.027(2) -0.004(2) 0.002(2) -0.016(2)
C5 0.034(3) 0.027(3) 0.034(3) -0.008(2) 0.003(3) -0.005(2)
C5A 0.033(3) 0.033(3) 0.033(3) -0.009(3) 0.003(3) -0.008(3)
C5B 0.030(3) 0.028(3) 0.030(3) 0.000(2) 0.001(2) -0.008(2)
C5B1 0.061(5) 0.072(5) 0.074(5) 0.007(4) -0.025(4) -0.036(4)
C5B2 0.067(6) 0.081(6) 0.097(6) 0.019(5) -0.053(5) -0.024(5)
C5B3 0.113(9) 0.096(8) 0.122(9) 0.012(7) -0.062(7) -0.049(7)
C5C 0.037(4) 0.038(3) 0.035(3) -0.005(3) -0.001(3) -0.017(3)
C5D 0.047(4) 0.032(3) 0.030(3) -0.004(2) 0.008(3) -0.016(3)
C6 0.028(3) 0.030(3) 0.041(3) -0.006(3) 0.003(3) -0.007(2)
C6A 0.035(3) 0.030(3) 0.032(3) -0.006(2) 0.002(3) -0.009(3)
C6B 0.035(3) 0.031(3) 0.029(3) -0.002(2) 0.004(3) -0.012(3)
C6B1 0.042(4) 0.040(4) 0.051(4) 0.009(3) -0.001(3) -0.009(3)
C6B2 0.035(4) 0.051(4) 0.057(4) 0.016(3) -0.005(3) -0.013(3)
C6B3 0.074(6) 0.077(6) 0.057(5) 0.004(4) 0.002(4) -0.023(5)
C6B4 0.099(7) 0.106(7) 0.058(5) 0.011(5) 0.012(5) -0.036(6)
C6C 0.044(4) 0.036(3) 0.034(3) -0.003(3) -0.007(3) -0.010(3)
C6D 0.040(4) 0.035(3) 0.031(3) 0.001(3) -0.001(3) -0.013(3)
C7 0.032(3) 0.046(3) 0.032(3) -0.005(3) -0.001(3) -0.015(3)
C7A 0.034(3) 0.037(3) 0.028(3) 0.000(2) 0.001(3) -0.012(3)
C7B 0.036(4) 0.038(3) 0.038(3) -0.003(3) 0.001(3) -0.015(3)
C7C 0.039(4) 0.037(3) 0.041(3) -0.001(3) -0.002(3) -0.020(3)
C7D 0.044(4) 0.043(4) 0.037(3) -0.001(3) -0.008(3) -0.018(3)
C8 0.031(3) 0.035(3) 0.031(3) -0.003(3) 0.008(3) -0.009(3)
C8A 0.039(4) 0.045(4) 0.028(3) -0.002(3) 0.000(3) -0.015(3)
C8B 0.037(4) 0.034(3) 0.026(3) 0.003(2) 0.003(3) -0.010(3)
C8B1 0.065(5) 0.052(4) 0.061(4) 0.022(3) -0.024(4) -0.031(4)
C8B2 0.050(4) 0.037(3) 0.062(4) -0.001(3) -0.002(3) -0.015(3)
C8B3 0.106(7) 0.045(4) 0.100(6) -0.004(4) -0.052(6) -0.019(4)
C8C 0.042(4) 0.048(4) 0.036(3) 0.000(3) -0.007(3) -0.016(3)
C8D 0.047(4) 0.039(3) 0.032(3) 0.006(3) -0.003(3) -0.020(3)
C51 0.033(3) 0.034(3) 0.035(3) -0.003(3) 0.003(3) -0.013(3)
C52 0.038(4) 0.034(3) 0.042(3) -0.003(3) -0.004(3) -0.006(3)
C53 0.042(4) 0.044(4) 0.051(4) -0.006(3) -0.008(3) -0.012(3)
C54 0.034(4) 0.049(4) 0.035(3) 0.007(3) -0.007(3) -0.016(3)
C55 0.047(4) 0.047(4) 0.046(4) 0.001(3) -0.003(3) -0.005(3)
C56 0.043(4) 0.044(4) 0.048(4) -0.010(3) -0.005(3) -0.010(3)
C61 0.035(3) 0.031(3) 0.029(3) 0.004(2) -0.002(3) -0.011(3)
C62 0.027(3) 0.036(3) 0.034(3) -0.005(3) 0.003(3) -0.004(3)
C63 0.033(4) 0.030(3) 0.039(3) 0.007(3) -0.003(3) -0.008(3)
C64 0.026(3) 0.030(3) 0.038(3) 0.001(2) 0.002(3) -0.013(2)
C65 0.035(4) 0.043(4) 0.054(4) 0.002(3) 0.007(3) -0.008(3)
C66 0.030(4) 0.035(3) 0.049(4) 0.005(3) 0.003(3) -0.007(3)
C71 0.047(4) 0.036(3) 0.035(3) -0.001(3) -0.004(3) -0.016(3)
C72 0.036(4) 0.058(4) 0.042(3) -0.007(3) -0.006(3) -0.023(3)
C73 0.053(5) 0.063(4) 0.038(3) -0.008(3) -0.002(3) -0.028(4)
C74 0.052(5) 0.059(4) 0.051(4) 0.005(3) -0.027(4) -0.022(4)
C75 0.037(4) 0.081(5) 0.052(4) 0.012(4) -0.010(3) -0.028(4)
C76 0.036(4) 0.066(4) 0.041(3) 0.007(3) -0.006(3) -0.018(3)
C81 0.036(3) 0.030(3) 0.032(3) 0.002(2) -0.001(3) -0.008(3)
C82 0.080(6) 0.040(4) 0.085(6) 0.001(4) 0.055(5) -0.013(4)
C83 0.080(6) 0.034(4) 0.138(8) -0.010(5) 0.061(6) -0.011(4)
C84 0.040(4) 0.039(4) 0.061(4) 0.016(3) -0.004(3) -0.013(3)
C85 0.053(4) 0.044(4) 0.032(3) -0.004(3) 0.000(3) -0.019(3)
C86 0.063(5) 0.032(3) 0.038(3) -0.006(3) 0.000(3) -0.016(3)
C5B4 0.102(16) 0.21(3) 0.116(16) -0.035(17) 0.028(13) -0.038(17)
C7B1 0.021(6) 0.076(8) 0.047(6) -0.026(6) -0.003(5) -0.018(5)
C7B2 0.069(11) 0.141(15) 0.040(7) -0.021(9) 0.002(7) -0.065(11)
C7B3 0.052(11) 0.135(18) 0.080(11) -0.065(12) 0.011(9) -0.034(10)
C7B4 0.060(11) 0.106(14) 0.160(18) -0.050(13) -0.011(11) -0.010(10)
C8B4 0.054(10) 0.066(10) 0.128(15) -0.027(10) -0.038(10) -0.006(8)
C5B5 0.085(16) 0.13(2) 0.069(13) 0.019(13) -0.056(13) -0.042(15)
C7B5 0.135(13) 0.136(13) 0.127(13) -0.026(9) -0.027(9) -0.035(9)
C7B6 0.104(15) 0.111(14) 0.095(14) -0.021(9) -0.016(9) -0.030(10)
C7B7 0.083(16) 0.050(11) 0.104(17) -0.009(11) -0.011(14) -0.026(11)
C7B8 0.18(3) 0.091(18) 0.16(2) -0.054(18) -0.09(2) -0.027(18)
C8B5 0.114(15) 0.091(13) 0.061(10) -0.023(9) -0.003(10) -0.044(12)
Au3 0.0398(2) 0.03368(17) 0.03307(16) -0.00777(14) 0.00760(14) -0.01144(15)
Cl3A 0.0571(11) 0.0479(9) 0.0386(8) 0.0007(7) 0.0017(8) -0.0139(8)
Cl3B 0.0503(10) 0.0477(9) 0.0521(9) -0.0129(8) 0.0064(8) -0.0224(8)
Au4 0.0447(2) 0.02771(16) 0.03854(17) 0.00226(13) -0.01648(16) -0.00452(14)
Cl4A 0.0493(10) 0.0376(8) 0.0668(10) 0.0056(8) -0.0256(9) -0.0026(7)
Cl4B 0.0634(11) 0.0313(8) 0.0613(10) -0.0032(7) -0.0286(9) -0.0068(7)
Au5 0.05298(18) 0.02915(13) 0.06632(18) -0.00185(12) -0.00480(14) -0.00789(12)
Cl5A 0.0778(14) 0.0571(11) 0.0686(12) -0.0061(9) -0.0020(11) -0.0024(10)
Cl5B 0.0572(12) 0.0450(10) 0.1035(15) 0.0008(10) -0.0129(11) -0.0155(9)
Cl5C 0.1073(18) 0.0503(11) 0.0669(12) 0.0033(9) 0.0052(12) -0.0229(11)
Cl5D 0.0632(13) 0.0544(11) 0.1163(17) -0.0188(11) -0.0164(12) -0.0143(10)
loop_
_atom_type_symbol
_atom_type_description
_atom_type_scat_dispersion_real
_atom_type_scat_dispersion_imag
_atom_type_scat_source
C C 0.0033 0.0016 'International Tables Vol C Tables 4.2.6.8 and 6.1.1.4'
H H 0.0000 0.0000 'International Tables Vol C Tables 4.2.6.8 and 6.1.1.4'
Au Au -2.0133 8.8022 'International Tables Vol C Tables 4.2.6.8 and 6.1.1.4'
Cl Cl 0.1484 0.1585 'International Tables Vol C Tables 4.2.6.8 and 6.1.1.4'
N N 0.0061 0.0033 'International Tables Vol C Tables 4.2.6.8 and 6.1.1.4'
O O 0.0106 0.0060 'International Tables Vol C Tables 4.2.6.8 and 6.1.1.4'
loop_
_geom_angle_atom_site_label_1
_geom_angle_atom_site_label_2
_geom_angle_atom_site_label_3
_geom_angle
_geom_angle_site_symmetry_1
_geom_angle_site_symmetry_3
_geom_angle_publ_flag
N1 Au1 N2 89.76(17) . . ?
N1 Au1 N4 90.29(17) . . ?
N2 Au1 N4 179.76(17) . . ?
N3 Au1 N1 179.74(17) . . ?
N3 Au1 N2 90.22(17) . . ?
N3 Au1 N4 89.73(17) . . ?
C14 O1 C1B1 118.7(5) . . ?
C34 O3 C3B1 117.3(4) . . ?
C44 O4 C4B1 119.8(5) . . ?
C24 O2 C2B1 124.9(12) . . ?
C24 O2A C2B5 100.6(13) . . ?
C1A N1 Au1 126.6(4) . . ?
C1B N1 Au1 126.3(3) . . ?
C1B N1 C1A 107.0(4) . . ?
C2A N2 Au1 126.2(4) . . ?
C2B N2 Au1 126.0(3) . . ?
C2B N2 C2A 107.7(4) . . ?
C3A N3 Au1 126.3(3) . . ?
C3B N3 Au1 126.8(4) . . ?
C3B N3 C3A 106.8(4) . . ?
C4A N4 Au1 126.3(4) . . ?
C4B N4 Au1 125.4(3) . . ?
C4B N4 C4A 107.8(4) . . ?
C1A C1 C11 117.5(5) . . ?
C2A C1 C1A 124.3(5) . . ?
C2A C1 C11 118.2(5) . . ?
N1 C1A C1 126.2(5) . . ?
N1 C1A C1C 108.5(5) . . ?
C1 C1A C1C 125.2(5) . . ?
N1 C1B C1D 109.0(4) . . ?
N1 C1B C4 126.1(5) . . ?
C4 C1B C1D 124.9(5) . . ?
O1 C1B1 C1B2 107.8(5) . . ?
C1B3 C1B2 C1B1 114.0(6) . . ?
C1B2 C1B3 C1B4 111.0(7) . . ?
C1D C1C C1A 108.4(5) . . ?
C1C C1D C1B 107.1(5) . . ?
C2B C2 C21 119.9(5) . . ?
C3A C2 C2B 124.0(5) . . ?
C3A C2 C21 116.1(5) . . ?
N2 C2A C2C 107.8(5) . . ?
C1 C2A N2 126.4(5) . . ?
C1 C2A C2C 125.8(5) . . ?
N2 C2B C2 126.8(5) . . ?
N2 C2B C2D 108.3(5) . . ?
C2 C2B C2D 124.7(5) . . ?
C2D C2C C2A 107.9(5) . . ?
C2C C2D C2B 108.2(5) . . ?
C3B C3 C31 117.6(5) . . ?
C4A C3 C3B 123.5(5) . . ?
C4A C3 C31 118.8(5) . . ?
N3 C3A C2 126.0(5) . . ?
N3 C3A C3C 108.8(5) . . ?
C2 C3A C3C 125.2(5) . . ?
N3 C3B C3 126.3(5) . . ?
N3 C3B C3D 108.1(5) . . ?
C3 C3B C3D 125.5(5) . . ?
O3 C3B1 C3B2 106.5(5) . . ?
C3B3 C3B2 C3B1 109.9(6) . . ?
C3B2 C3B3 C3B4 112.0(7) . . ?
C3D C3C C3A 107.5(5) . . ?
C3C C3D C3B 108.7(5) . . ?
C1B C4 C41 118.0(5) . . ?
C4B C4 C1B 124.1(5) . . ?
C4B C4 C41 117.9(5) . . ?
N4 C4A C4C 107.7(5) . . ?
C3 C4A N4 126.5(5) . . ?
C3 C4A C4C 125.7(5) . . ?
N4 C4B C4 126.8(5) . . ?
N4 C4B C4D 107.7(5) . . ?
C4 C4B C4D 125.5(5) . . ?
O4 C4B1 C4B2 119.4(9) . . ?
O4 C4B1 C4B5 99.8(12) . . ?
C4D C4C C4A 108.5(5) . . ?
C4C C4D C4B 108.4(5) . . ?
C12 C11 C1 119.9(5) . . ?
C16 C11 C1 121.0(5) . . ?
C16 C11 C12 119.1(5) . . ?
C11 C12 C13 120.2(6) . . ?
C14 C13 C12 120.9(6) . . ?
O1 C14 C15 125.3(5) . . ?
C13 C14 O1 115.4(5) . . ?
C13 C14 C15 119.3(5) . . ?
C14 C15 C16 119.5(6) . . ?
C11 C16 C15 120.9(5) . . ?
C22 C21 C2 122.3(6) . . ?
C26 C21 C2 119.5(6) . . ?
C26 C21 C22 118.1(6) . . ?
C21 C22 C23 119.1(8) . . ?
C24 C23 C22 121.1(8) . . ?
C23 C24 O2 126.9(12) . . ?
C23 C24 O2A 94.4(11) . . ?
C25 C24 O2 114.0(11) . . ?
C25 C24 O2A 146.4(12) . . ?
C25 C24 C23 119.0(8) . . ?
C24 C25 C26 119.6(9) . . ?
C21 C26 C25 123.0(8) . . ?
C32 C31 C3 122.0(5) . . ?
C32 C31 C36 117.8(5) . . ?
C36 C31 C3 120.2(5) . . ?
C31 C32 C33 121.8(5) . . ?
C34 C33 C32 119.3(5) . . ?
O3 C34 C33 124.7(5) . . ?
O3 C34 C35 115.4(5) . . ?
C35 C34 C33 119.9(5) . . ?
C36 C35 C34 120.7(5) . . ?
C35 C36 C31 120.4(5) . . ?
C42 C41 C4 122.0(5) . . ?
C46 C41 C4 120.3(5) . . ?
C46 C41 C42 117.7(6) . . ?
C43 C42 C41 121.3(6) . . ?
C44 C43 C42 120.1(6) . . ?
O4 C44 C45 124.8(6) . . ?
C43 C44 O4 115.7(6) . . ?
C43 C44 C45 119.5(6) . . ?
C46 C45 C44 119.7(6) . . ?
C45 C46 C41 121.7(6) . . ?
O2 C2B1 C2B2 106.2(11) . . ?
C2B3 C2B2 C2B1 110.9(15) . . ?
C2B2 C2B3 C2B4 111.3(18) . . ?
C4B1 C4B2 C4B3 108.3(11) . . ?
C4B4 C4B3 C4B2 109.1(11) . . ?
O2A C2B5 C2B6 103.4(15) . . ?
C2B7 C2B6 C2B5 114(2) . . ?
C2B6 C2B7 C2B8 90.5(15) . . ?
C4B6 C4B5 C4B1 115(2) . . ?
C4B5 C4B6 C4B7 103(3) . . ?
N5 Au2 N6 89.90(17) . . ?
N5 Au2 N7 178.58(19) . . ?
N5 Au2 N8 90.23(17) . . ?
N6 Au2 N7 90.10(17) . . ?
N6 Au2 N8 179.5(2) . . ?
N8 Au2 N7 89.79(17) . . ?
C54 O5 C5B1 117.3(5) . . ?
C64 O6 C6B1 116.7(4) . . ?
C74 O7 C7B5 134.8(12) . . ?
C7B1 O7 C74 119.7(7) . . ?
C84 O8 C8B1 119.2(6) . . ?
C5A N5 Au2 126.6(4) . . ?
C5B N5 Au2 126.2(4) . . ?
C5B N5 C5A 107.0(4) . . ?
C6A N6 Au2 126.0(3) . . ?
C6A N6 C6B 107.9(4) . . ?
C6B N6 Au2 125.7(4) . . ?
C7A N7 Au2 125.8(4) . . ?
C7A N7 C7B 107.9(4) . . ?
C7B N7 Au2 126.0(4) . . ?
C8A N8 Au2 125.8(4) . . ?
C8B N8 Au2 125.9(4) . . ?
C8B N8 C8A 108.1(4) . . ?
C5A C5 C6A 122.0(5) . . ?
C5A C5 C51 119.5(5) . . ?
C6A C5 C51 118.5(5) . . ?
N5 C5A C5 125.8(5) . . ?
N5 C5A C5C 108.5(5) . . ?
C5 C5A C5C 125.5(5) . . ?
N5 C5B C5D 108.2(5) . . ?
N5 C5B C8 125.4(5) . . ?
C8 C5B C5D 126.0(5) . . ?
O5 C5B1 C5B2 107.8(7) . . ?
C5B1 C5B2 C5B3 111.5(8) . . ?
C5B2 C5B3 C5B5 107.3(12) . . ?
C5B4 C5B3 C5B2 126.5(12) . . ?
C5D C5C C5A 107.2(5) . . ?
C5C C5D C5B 109.1(5) . . ?
C6B C6 C7A 123.7(5) . . ?
C6B C6 C61 116.9(5) . . ?
C7A C6 C61 119.3(5) . . ?
N6 C6A C5 127.1(5) . . ?
N6 C6A C6C 107.9(5) . . ?
C5 C6A C6C 124.7(5) . . ?
N6 C6B C6 125.5(5) . . ?
N6 C6B C6D 107.2(5) . . ?
C6 C6B C6D 127.1(5) . . ?
O6 C6B1 C6B2 108.0(5) . . ?
C6B3 C6B2 C6B1 114.5(6) . . ?
C6B2 C6B3 C6B4 112.7(7) . . ?
C6D C6C C6A 108.2(5) . . ?
C6C C6D C6B 108.7(5) . . ?
C7B C7 C8A 123.3(5) . . ?
C7B C7 C71 118.7(5) . . ?
C8A C7 C71 117.9(5) . . ?
N7 C7A C6 126.0(5) . . ?
N7 C7A C7C 108.3(4) . . ?
C6 C7A C7C 125.4(5) . . ?
N7 C7B C7 125.6(5) . . ?
N7 C7B C7D 107.9(5) . . ?
C7 C7B C7D 126.4(5) . . ?
C7D C7C C7A 107.2(5) . . ?
C7C C7D C7B 108.6(5) . . ?
C5B C8 C8B 124.8(5) . . ?
C5B C8 C81 117.8(5) . . ?
C8B C8 C81 117.2(5) . . ?
N8 C8A C7 126.6(5) . . ?
N8 C8A C8C 107.4(5) . . ?
C7 C8A C8C 125.9(5) . . ?
N8 C8B C8 125.2(5) . . ?
N8 C8B C8D 107.7(5) . . ?
C8 C8B C8D 126.8(5) . . ?
O8 C8B1 C8B2 114.5(6) . . ?
C8B3 C8B2 C8B1 115.3(6) . . ?
C8B2 C8B3 C8B4 100.2(8) . . ?
C8B2 C8B3 C8B5 109.1(8) . . ?
C8B5 C8B3 C8B4 110.8(10) . . ?
C8D C8C C8A 108.8(5) . . ?
C8C C8D C8B 107.9(5) . . ?
C52 C51 C5 123.0(5) . . ?
C52 C51 C56 117.5(5) . . ?
C56 C51 C5 119.5(5) . . ?
C51 C52 C53 122.3(6) . . ?
C54 C53 C52 119.5(6) . . ?
O5 C54 C53 125.6(6) . . ?
O5 C54 C55 115.4(6) . . ?
C53 C54 C55 119.0(6) . . ?
C56 C55 C54 120.5(6) . . ?
C55 C56 C51 121.1(6) . . ?
C62 C61 C6 121.8(5) . . ?
C62 C61 C66 117.8(5) . . ?
C66 C61 C6 120.4(5) . . ?
C61 C62 C63 121.0(5) . . ?
C64 C63 C62 120.4(5) . . ?
O6 C64 C63 124.7(5) . . ?
O6 C64 C65 116.5(5) . . ?
C63 C64 C65 118.8(5) . . ?
C66 C65 C64 120.8(6) . . ?
C65 C66 C61 120.9(6) . . ?
C72 C71 C7 120.3(5) . . ?
C72 C71 C76 117.5(5) . . ?
C76 C71 C7 122.3(6) . . ?
C71 C72 C73 121.1(6) . . ?
C74 C73 C72 119.6(6) . . ?
O7 C74 C73 124.1(7) . . ?
O7 C74 C75 116.4(6) . . ?
C73 C74 C75 119.4(6) . . ?
C76 C75 C74 120.3(6) . . ?
C75 C76 C71 121.9(6) . . ?
C82 C81 C8 120.7(5) . . ?
C86 C81 C8 121.1(5) . . ?
C86 C81 C82 118.2(5) . . ?
C81 C82 C83 120.1(6) . . ?
C84 C83 C82 120.8(7) . . ?
O8 C84 C83 114.8(6) . . ?
C85 C84 O8 125.7(6) . . ?
C85 C84 C83 119.5(6) . . ?
C84 C85 C86 119.3(6) . . ?
C81 C86 C85 122.1(6) . . ?
O7 C7B1 C7B2 107.2(9) . . ?
C7B3 C7B2 C7B1 114.2(11) . . ?
C7B2 C7B3 C7B4 115.4(16) . . ?
O7 C7B5 C7B6 123(2) . . ?
C7B7 C7B6 C7B5 106(2) . . ?
C7B6 C7B7 C7B8 109.3(17) . . ?
Cl3A Au3 Cl3A 180.0 . 2_756 ?
Cl3A Au3 Cl3B 89.99(6) 2_756 2_756 ?
Cl3A Au3 Cl3B 90.02(6) 2_756 . ?
Cl3A Au3 Cl3B 90.02(6) . 2_756 ?
Cl3A Au3 Cl3B 89.98(6) . . ?
Cl3B Au3 Cl3B 180.00(5) . 2_756 ?
Cl4A Au4 Cl4A 180.0 2_757 . ?
Cl4A Au4 Cl4B 89.76(6) 2_757 2_757 ?
Cl4A Au4 Cl4B 89.76(6) . . ?
Cl4A Au4 Cl4B 90.24(6) 2_757 . ?
Cl4A Au4 Cl4B 90.24(6) . 2_757 ?
Cl4B Au4 Cl4B 180.0 2_757 . ?
Cl5A Au5 Cl5B 89.64(8) . . ?
Cl5A Au5 Cl5D 90.68(8) . . ?
Cl5B Au5 Cl5D 179.48(8) . . ?
Cl5C Au5 Cl5A 179.20(8) . . ?
Cl5C Au5 Cl5B 91.04(8) . . ?
Cl5C Au5 Cl5D 88.65(9) . . ?
loop_
_geom_bond_atom_site_label_1
_geom_bond_atom_site_label_2
_geom_bond_distance
_geom_bond_site_symmetry_2
_geom_bond_publ_flag
Au1 N1 2.021(4) . ?
Au1 N2 2.024(4) . ?
Au1 N3 2.019(4) . ?
Au1 N4 2.029(4) . ?
O1 C1B1 1.412(7) . ?
O1 C14 1.369(6) . ?
O3 C3B1 1.439(6) . ?
O3 C34 1.375(6) . ?
O4 C4B1 1.423(8) . ?
O4 C44 1.378(7) . ?
O2 C24 1.406(12) . ?
O2 C2B1 1.450(13) . ?
O2A C24 1.429(14) . ?
O2A C2B5 1.433(15) . ?
N1 C1A 1.383(6) . ?
N1 C1B 1.379(7) . ?
N2 C2A 1.395(6) . ?
N2 C2B 1.364(7) . ?
N3 C3A 1.381(7) . ?
N3 C3B 1.380(6) . ?
N4 C4A 1.394(6) . ?
N4 C4B 1.378(7) . ?
C1 C1A 1.386(7) . ?
C1 C2A 1.375(8) . ?
C1 C11 1.511(7) . ?
C1A C1C 1.418(8) . ?
C1B C1D 1.427(7) . ?
C1B C4 1.394(7) . ?
C1B1 C1B2 1.522(8) . ?
C1B2 C1B3 1.478(10) . ?
C1B3 C1B4 1.531(9) . ?
C1C C1D 1.353(7) . ?
C2 C2B 1.392(7) . ?
C2 C3A 1.390(7) . ?
C2 C21 1.495(8) . ?
C2A C2C 1.426(7) . ?
C2B C2D 1.431(7) . ?
C2C C2D 1.343(8) . ?
C3 C3B 1.400(7) . ?
C3 C4A 1.385(8) . ?
C3 C31 1.484(7) . ?
C3A C3C 1.420(8) . ?
C3B C3D 1.418(8) . ?
C3B1 C3B2 1.524(8) . ?
C3B2 C3B3 1.517(9) . ?
C3B3 C3B4 1.529(10) . ?
C3C C3D 1.334(7) . ?
C4 C4B 1.389(7) . ?
C4 C41 1.491(8) . ?
C4A C4C 1.417(8) . ?
C4B C4D 1.429(7) . ?
C4B1 C4B2 1.515(13) . ?
C4B1 C4B5 1.549(17) . ?
C4C C4D 1.339(8) . ?
C11 C12 1.373(8) . ?
C11 C16 1.369(7) . ?
C12 C13 1.397(7) . ?
C13 C14 1.368(8) . ?
C14 C15 1.378(8) . ?
C15 C16 1.408(7) . ?
C21 C22 1.380(9) . ?
C21 C26 1.378(9) . ?
C22 C23 1.419(10) . ?
C23 C24 1.387(14) . ?
C24 C25 1.363(14) . ?
C25 C26 1.379(10) . ?
C31 C32 1.384(7) . ?
C31 C36 1.422(7) . ?
C32 C33 1.396(7) . ?
C33 C34 1.394(7) . ?
C34 C35 1.382(7) . ?
C35 C36 1.382(7) . ?
C41 C42 1.391(8) . ?
C41 C46 1.381(8) . ?
C42 C43 1.386(8) . ?
C43 C44 1.372(8) . ?
C44 C45 1.389(9) . ?
C45 C46 1.381(8) . ?
C2B1 C2B2 1.529(14) . ?
C2B2 C2B3 1.483(17) . ?
C2B3 C2B4 1.495(17) . ?
C4B2 C4B3 1.528(15) . ?
C4B3 C4B4 1.526(13) . ?
C2B5 C2B6 1.559(17) . ?
C2B6 C2B7 1.503(18) . ?
C2B7 C2B8 1.630(18) . ?
C4B5 C4B6 1.491(18) . ?
C4B6 C4B7 1.532(18) . ?
Au2 N5 1.996(4) . ?
Au2 N6 2.003(4) . ?
Au2 N7 2.010(4) . ?
Au2 N8 2.009(4) . ?
O5 C5B1 1.430(8) . ?
O5 C54 1.369(7) . ?
O6 C6B1 1.447(7) . ?
O6 C64 1.363(6) . ?
O7 C74 1.346(7) . ?
O7 C7B1 1.305(10) . ?
O7 C7B5 1.378(16) . ?
O8 C8B1 1.406(8) . ?
O8 C84 1.366(7) . ?
N5 C5A 1.392(7) . ?
N5 C5B 1.385(7) . ?
N6 C6A 1.378(7) . ?
N6 C6B 1.382(7) . ?
N7 C7A 1.378(7) . ?
N7 C7B 1.382(7) . ?
N8 C8A 1.380(7) . ?
N8 C8B 1.377(7) . ?
C5 C5A 1.393(7) . ?
C5 C6A 1.407(8) . ?
C5 C51 1.488(8) . ?
C5A C5C 1.441(8) . ?
C5B C5D 1.428(8) . ?
C5B C8 1.386(7) . ?
C5B1 C5B2 1.520(9) . ?
C5B2 C5B3 1.526(12) . ?
C5B3 C5B4 1.46(2) . ?
C5B3 C5B5 1.557(19) . ?
C5C C5D 1.340(8) . ?
C6 C6B 1.392(8) . ?
C6 C7A 1.392(7) . ?
C6 C61 1.494(7) . ?
C6A C6C 1.424(7) . ?
C6B C6D 1.429(7) . ?
C6B1 C6B2 1.525(8) . ?
C6B2 C6B3 1.481(9) . ?
C6B3 C6B4 1.530(10) . ?
C6C C6D 1.326(8) . ?
C7 C7B 1.394(8) . ?
C7 C8A 1.394(8) . ?
C7 C71 1.496(7) . ?
C7A C7C 1.439(7) . ?
C7B C7D 1.428(8) . ?
C7C C7D 1.348(8) . ?
C8 C8B 1.391(8) . ?
C8 C81 1.496(7) . ?
C8A C8C 1.414(8) . ?
C8B C8D 1.423(7) . ?
C8B1 C8B2 1.504(9) . ?
C8B2 C8B3 1.488(9) . ?
C8B3 C8B4 1.719(17) . ?
C8B3 C8B5 1.697(17) . ?
C8C C8D 1.337(8) . ?
C51 C52 1.368(8) . ?
C51 C56 1.404(8) . ?
C52 C53 1.387(8) . ?
C53 C54 1.380(8) . ?
C54 C55 1.399(9) . ?
C55 C56 1.364(8) . ?
C61 C62 1.378(7) . ?
C61 C66 1.393(8) . ?
C62 C63 1.393(7) . ?
C63 C64 1.372(8) . ?
C64 C65 1.381(8) . ?
C65 C66 1.373(8) . ?
C71 C72 1.378(8) . ?
C71 C76 1.406(8) . ?
C72 C73 1.402(8) . ?
C73 C74 1.376(9) . ?
C74 C75 1.396(10) . ?
C75 C76 1.348(9) . ?
C81 C82 1.372(9) . ?
C81 C86 1.366(8) . ?
C82 C83 1.395(9) . ?
C83 C84 1.380(10) . ?
C84 C85 1.350(9) . ?
C85 C86 1.402(8) . ?
C7B1 C7B2 1.538(12) . ?
C7B2 C7B3 1.488(15) . ?
C7B3 C7B4 1.548(16) . ?
C7B5 C7B6 1.557(18) . ?
C7B6 C7B7 1.529(18) . ?
C7B7 C7B8 1.535(16) . ?
Au3 Cl3A 2.2776(15) . ?
Au3 Cl3A 2.2776(15) 2_756 ?
Au3 Cl3B 2.2823(15) . ?
Au3 Cl3B 2.2823(15) 2_756 ?
Au4 Cl4A 2.2687(15) 2_757 ?
Au4 Cl4A 2.2688(15) . ?
Au4 Cl4B 2.2806(15) 2_757 ?
Au4 Cl4B 2.2806(15) . ?
Au5 Cl5A 2.275(2) . ?
Au5 Cl5B 2.2849(19) . ?
Au5 Cl5C 2.267(2) . ?
Au5 Cl5D 2.285(2) . ?
