#------------------------------------------------------------------------------
#$Date: 2023-09-05 22:40:57 +0300 (Tue, 05 Sep 2023) $
#$Revision: 286109 $
#$URL: file:///home/coder/svn-repositories/cod/cif/7/24/70/7247089.cif $
#------------------------------------------------------------------------------
#
# This file is available in the Crystallography Open Database (COD),
# http://www.crystallography.net/
#
# All data on this site have been placed in the public domain by the
# contributors.
#
data_7247089
loop_
_publ_author_name
'Bardina, Elena E.'
'Makotchenko, Eugeniya V.'
'Birin, Kirill P.'
'Baidina, Iraida A.'
'Sukhikh, Taisiya S.'
'Novikov, Alexander S.'
'Gorbunova, Yulia G.'
'Tsivadze, Aslan Yu.'
'Gushchin, Artem L.'
_publ_section_title
;
 Noncovalent interactions in gold(iii)
 tetrakis(4-butoxyphenyl)porphyrinate structures
;
_journal_issue                   33
_journal_name_full               CrystEngComm
_journal_page_first              4755
_journal_page_last               4767
_journal_paper_doi               10.1039/D3CE00428G
_journal_volume                  25
_journal_year                    2023
_chemical_formula_moiety         '2(C60 H60 Au N4 O4), Au Cl2, Au Cl4'
_chemical_formula_sum            'C120 H120 Au4 Cl6 N8 O8'
_chemical_formula_weight         2802.80
_space_group_crystal_system      triclinic
_space_group_IT_number           2
_space_group_name_Hall           '-P 1'
_space_group_name_H-M_alt        'P -1'
_atom_sites_solution_hydrogens   geom
_atom_sites_solution_primary     direct
_audit_creation_date             2023-04-11
_audit_creation_method
;
Olex2 1.5
(compiled 2023.03.06 svn.rbb2c1857 for OlexSys, GUI svn.r6748)
;
_audit_update_record
;
2023-04-12 deposited with the CCDC.	2023-07-21 downloaded from the CCDC.
;
_cell_angle_alpha                84.908(6)
_cell_angle_beta                 76.202(6)
_cell_angle_gamma                78.679(6)
_cell_formula_units_Z            2
_cell_length_a                   14.928(4)
_cell_length_b                   18.059(4)
_cell_length_c                   20.972(5)
_cell_measurement_reflns_used    5400
_cell_measurement_temperature    150(2)
_cell_measurement_theta_max      22.92
_cell_measurement_theta_min      2.35
_cell_volume                     5379(2)
_computing_cell_refinement       'Bruker SAINT'
_computing_data_collection       'Bruker APEX3'
_computing_data_reduction        'Bruker SAINT'
_computing_molecular_graphics    'Olex2 1.5 (Dolomanov et al., 2009)'
_computing_publication_material  'Olex2 1.5 (Dolomanov et al., 2009)'
_computing_structure_refinement  'SHELXL 2014/7 (Sheldrick, 2015)'
_computing_structure_solution    'SHELXS  (Sheldrick, 2008)'
_diffrn_ambient_temperature      150(2)
_diffrn_detector_area_resol_mean 7.41
_diffrn_measured_fraction_theta_full 0.987
_diffrn_measured_fraction_theta_max 0.987
_diffrn_measurement_device_type  'Bruker D8 Venture diffractometer'
_diffrn_measurement_method       '\w and \f scans'
_diffrn_radiation_type           MoK\a
_diffrn_radiation_wavelength     0.71073
_diffrn_reflns_av_R_equivalents  0.1038
_diffrn_reflns_av_unetI/netI     0.1130
_diffrn_reflns_Laue_measured_fraction_full 0.987
_diffrn_reflns_Laue_measured_fraction_max 0.987
_diffrn_reflns_limit_h_max       14
_diffrn_reflns_limit_h_min       -14
_diffrn_reflns_limit_k_max       18
_diffrn_reflns_limit_k_min       -17
_diffrn_reflns_limit_l_max       19
_diffrn_reflns_limit_l_min       -20
_diffrn_reflns_number            34148
_diffrn_reflns_point_group_measured_fraction_full 0.987
_diffrn_reflns_point_group_measured_fraction_max 0.987
_diffrn_reflns_theta_full        20.816
_diffrn_reflns_theta_max         20.816
_diffrn_reflns_theta_min         1.492
_diffrn_source                   'Incoatec IuS3.0 microfocus X-ray tube'
_diffrn_source_current           1.4
_diffrn_source_power             0.07
_diffrn_source_voltage           50.0
_exptl_absorpt_coefficient_mu    5.650
_exptl_absorpt_correction_T_max  0.7451
_exptl_absorpt_correction_T_min  0.5680
_exptl_absorpt_correction_type   multi-scan
_exptl_absorpt_process_details
'SADABS-2016/2 (Bruker,2016/2) was used for absorption correction. wR2(int) was 0.1186 before and 0.0726 after correction. The Ratio of minimum to maximum transmission is 0.7623. The \l/2 correction factor is Not present.'
_exptl_crystal_colour            red
_exptl_crystal_colour_primary    red
_exptl_crystal_density_diffrn    1.731
_exptl_crystal_density_method    'not measured'
_exptl_crystal_description       prism
_exptl_crystal_F_000             2756
_exptl_crystal_size_max          0.1
_exptl_crystal_size_mid          0.1
_exptl_crystal_size_min          0.05
_refine_diff_density_max         3.640
_refine_diff_density_min         -2.127
_refine_diff_density_rms         0.447
_refine_ls_extinction_method     none
_refine_ls_goodness_of_fit_ref   1.155
_refine_ls_hydrogen_treatment    constr
_refine_ls_matrix_type           full
_refine_ls_number_parameters     681
_refine_ls_number_reflns         11098
_refine_ls_number_restraints     14
_refine_ls_restrained_S_all      1.155
_refine_ls_R_factor_all          0.1760
_refine_ls_R_factor_gt           0.1010
_refine_ls_shift/su_max          0.000
_refine_ls_shift/su_mean         0.000
_refine_ls_structure_factor_coef Fsqd
_refine_ls_weighting_details
'w=1/[\s^2^(Fo^2^)+(0.1582P)^2^+366.3956P] where P=(Fo^2^+2Fc^2^)/3'
_refine_ls_weighting_scheme      calc
_refine_ls_wR_factor_gt          0.2822
_refine_ls_wR_factor_ref         0.3543
_reflns_Friedel_coverage         0.000
_reflns_number_gt                6764
_reflns_number_total             11098
_reflns_threshold_expression     'I > 2\s(I)'
_cod_data_source_file            d3ce00428g7.cif
_cod_data_source_block           b
_cod_depositor_comments
'Adding full bibliography for 7247089--7247091.cif.'
_cod_database_code               7247089
_shelx_shelxl_version_number     2014/7
_shelx_space_group_comment
;
The symmetry employed for this shelxl refinement is uniquely defined
by the following loop, which should always be used as a source of
symmetry information in preference to the above space-group names.
They are only intended as comments.
;
_shelx_estimated_absorpt_t_max   0.765
_shelx_estimated_absorpt_t_min   0.602
_olex2_refinement_description
;
1. Fixed Uiso
 At 1.2 times of:
  All C(H) groups, All C(H,H) groups, All C(H,H,H,H) groups
 At 1.5 times of:
  All C(H,H,H) groups
2. Restrained distances
 C6B1-C10 = C6B3-C10
 1.54 with sigma of 0.02
 C6B5-C7 = C6B3-C7
 1.54 with sigma of 0.02
 O2D-C10
 2.4 with sigma of 0.04
 O2D-C7
 2.4 with sigma of 0.04
 C6B1-C6B3
 2.5 with sigma of 0.04
 C6B5-C6B3
 2.5 with sigma of 0.04
3. Uiso/Uaniso restraints and constraints
Uanis(O2C) \\sim Ueq: with sigma of 0.01 and sigma for terminal atoms of 0.02
Uiso(C10) = Uiso(C7)
Uiso(C6B1) = Uiso(C6B5) = Uiso(C7) = Uiso(C10)
4. Others
 Sof(C6B5)=Sof(H6BC)=Sof(H6BD)=Sof(C7)=Sof(H7A)=Sof(H7B)=Sof(H6BG)=Sof(H6BH)=1-
 FVAR(1)
 Sof(C6B1)=Sof(H6BA)=Sof(H6BB)=Sof(H6BE)=Sof(H6BF)=Sof(C10)=Sof(H10A)=
 Sof(H10B)=FVAR(1)
5.a Secondary CH2 refined with riding coordinates:
 C1B1(H1BA,H1BB), C1B2(H1BC,H1BD), C1B3(H1BE,H1BF), C2B1(H2BA,H2BB), C2B2(H2BC,
 H2BD), C2B3(H2BE,H2BF), C3B1(H3BA,H3BB), C3B2(H3BC,H3BD), C3B3(H3BE,H3BF),
 C4B1(H4BA,H4BB), C4B2(H4BC,H4BD), C4B3(H4BE,H4BF), C5B1(H5BA,H5BB), C5B2(H5BC,
 H5BD), C5B3(H5BE,H5BF), C6B1(H6BA,H6BB), C6B5(H6BC,H6BD), C7(H7A,H7B),
 C6B3(H6BG,H6BH), C6B3(H6BE,H6BF), C7B1(H7BA,H7BB), C7B2(H7BC,H7BD), C7B3(H7BE,
 H7BF), C8B1(H8BA,H8BB), C8B2(H8BC,H8BD), C8B3(H8BE,H8BF), C10(H10A,H10B)
5.b Me refined with riding coordinates:
 C1B4(H1BG,H1BH,H1BI), C2B4(H2BG,H2BH,H2BI), C3B4(H3BG,H3BH,H3BI), C4B4(H4BG,
 H4BH,H4BI), C5B4(H5BG,H5BH,H5BI), C6B4(H6BI,H6BJ,H6BK), C7B4(H7BG,H7BH,H7BI),
 C8B4(H8BG,H8BH,H8BI)
5.c Aromatic/amide H refined with riding coordinates:
 C2C(H2C), C2D(H2D), C1C(H1C), C1D(H1D), C3C(H3C), C3D(H3D), C4C(H4C),
 C4D(H4D), C5C(H5C), C5D(H5D), C6C(H6C), C6D(H6D), C7C(H7C), C7D(H7D), C8C(H8C),
  C8D(H8D), C12(H12), C13(H13), C15(H15), C16(H16), C22(H22), C23(H23),
 C25(H25), C26(H26), C32(H32), C33(H33), C35(H35), C36(H36), C42(H42), C43(H43),
  C45(H45), C46(H46), C52(H52), C53(H53), C55(H55), C56(H56), C62(H62),
 C63(H63), C65(H65), C66(H66), C72(H72), C73(H73), C75(H75), C76(H76), C82(H82),
  C83(H83), C85(H85), C86(H86)
;
_shelx_res_file
;
    b.res created by SHELXL-2014/7

TITL e in P-1
CELL 0.71073 14.9284 18.0586 20.9722 84.908 76.202 78.679
ZERR 2 0.0035 0.004 0.0047 0.006 0.006 0.006
LATT 1
SFAC C H Au Cl N O
UNIT 240 240 8 12 16 16
DFIX 1.54 C6B1 C10 C6B3 C10
DFIX 1.54 C6B5 C7 C6B3 C7
DANG 2.4 O2D C10
DANG 2.4 O2D C7
DANG 2.5 C6B1 C6B3
DANG 2.5 C6B5 C6B3
EADP C10 C7
EADP C6B1 C6B5 C7 C10
ISOR 0.01 0.02 O2C

L.S. 4
PLAN  14
SIZE 0.05 0.1 0.1
TEMP -123(2)
BOND
MORE -1
BOND $H
fmap 2
acta
MERG 2
SHEL 999 1
OMIT -1 -3 3
REM <olex2.extras>
REM <HklSrc "%.\\b.hkl">
REM </olex2.extras>

WGHT    0.158200  366.395599
FVAR       0.03069   0.63730
AU1   3    0.901558    0.066181    0.103766    11.00000    0.03098    0.03791 =
         0.02923    0.00105   -0.00241    0.00018
AU2   3    0.634297    0.459010    0.407038    11.00000    0.03656    0.03794 =
         0.03072   -0.00370   -0.00651    0.00069
AU3   3    1.226927   -0.271936    0.248557    11.00000    0.04934    0.05361 =
         0.04223    0.00413   -0.01009   -0.00423
AU4   3    0.909055    0.299198    0.200672    11.00000    0.04923    0.04815 =
         0.04315   -0.00467   -0.00715   -0.00209
CL3A  4    1.122640   -0.217144    0.336982    11.00000    0.04716    0.07771 =
         0.05200   -0.00480   -0.01690    0.00026
CL3B  4    1.332540   -0.324907    0.160668    11.00000    0.05199    0.04633 =
         0.05656    0.00629   -0.00013   -0.00705
CL4A  4    0.828141    0.419780    0.193910    11.00000    0.06263    0.04686 =
         0.06562   -0.00687   -0.01442    0.01029
CL4B  4    0.993461    0.179080    0.204359    11.00000    0.08961    0.04803 =
         0.05148   -0.00664   -0.01863    0.00979
CL4C  4    0.972066    0.333855    0.279835    11.00000    0.07219    0.05746 =
         0.06599   -0.00321   -0.04004   -0.00142
CL4D  4    0.845349    0.262674    0.122426    11.00000    0.07260    0.06746 =
         0.04695   -0.01366   -0.01950    0.00683
N1    5    0.846372    0.123530    0.032928    11.00000    0.01065
N2    5    1.029948    0.073615    0.050766    11.00000    0.01766
N3    5    0.956063    0.003813    0.176451    11.00000    0.03334
N4    5    0.773690    0.053683    0.158257    11.00000    0.02527
N5    5    0.567937    0.519520    0.340021    11.00000    0.02897
N6    5    0.663778    0.373625    0.352312    11.00000    0.02198
N7    5    0.704215    0.397493    0.471557    11.00000    0.05303
N8    5    0.605052    0.545433    0.464225    11.00000    0.01809
C2C   1    1.147511    0.098141   -0.035295    11.00000    0.03232
AFIX  43
H2C   2    1.178296    0.116081   -0.077158    11.00000   -1.20000
AFIX   0
C2D   1    1.192467    0.056691    0.007519    11.00000    0.02164
AFIX  43
H2D   2    1.258161    0.041745    0.003514    11.00000   -1.20000
AFIX   0
C2A   1    1.112380    0.038901    0.064942    11.00000    0.03000
C1B   1    1.047651    0.112533   -0.011033    11.00000    0.02074
C1A   1    0.890128    0.160829   -0.022601    11.00000    0.03629
C3A   1    1.053190   -0.008658    0.175442    11.00000    0.03115
C2B   1    0.745766    0.144234    0.035051    11.00000    0.03234
C1C   1    0.820237    0.209364   -0.052124    11.00000    0.02520
AFIX  43
H1C   2    0.831403    0.244876   -0.088031    11.00000   -1.20000
AFIX   0
C1D   1    0.735850    0.194346   -0.018648    11.00000    0.04123
AFIX  43
H1D   2    0.677850    0.215013   -0.030067    11.00000   -1.20000
AFIX   0
C3B   1    0.911943   -0.015812    0.236051    11.00000    0.02170
C3C   1    1.067576   -0.039709    0.240473    11.00000    0.04352
AFIX  43
H3C   2    1.124756   -0.052442    0.254685    11.00000   -1.20000
AFIX   0
C3D   1    0.979978   -0.045808    0.275207    11.00000    0.03634
AFIX  43
H3D   2    0.965351   -0.066689    0.318826    11.00000   -1.20000
AFIX   0
C4A   1    0.754800    0.021478    0.218310    11.00000    0.03148
C4B   1    0.689162    0.078849    0.136169    11.00000    0.03376
C4C   1    0.654485    0.020474    0.237553    11.00000    0.03349
AFIX  43
H4C   2    0.623388   -0.000380    0.278052    11.00000   -1.20000
AFIX   0
C4D   1    0.612494    0.053362    0.189613    11.00000    0.04968
AFIX  43
H4D   2    0.547911    0.059350    0.189377    11.00000   -1.20000
AFIX   0

C5A   1    0.553986    0.495318    0.283483    11.00000    0.04040
C5B   1    0.527810    0.595338    0.345366    11.00000    0.03168
C5C   1    0.513520    0.557535    0.248020    11.00000    0.03948
AFIX  43
H5C   2    0.502563    0.556408    0.205347    11.00000   -1.20000
AFIX   0
C5D   1    0.492032    0.621437    0.285973    11.00000    0.04948
AFIX  43
H5D   2    0.461205    0.670710    0.275692    11.00000   -1.20000
AFIX   0
C6A   1    0.635759    0.360363    0.294441    11.00000    0.04331
C6B   1    0.708135    0.298121    0.364181    11.00000    0.04521
C6C   1    0.661376    0.288802    0.272305    11.00000    0.05443
AFIX  43
H6C   2    0.646216    0.268703    0.236671    11.00000   -1.20000
AFIX   0
C6D   1    0.713617    0.254184    0.314038    11.00000    0.03514
AFIX  43
H6D   2    0.750038    0.204756    0.308916    11.00000   -1.20000
AFIX   0
C7A   1    0.756961    0.327666    0.462441    11.00000    0.03981
C7B   1    0.728688    0.425526    0.525099    11.00000    0.04549
C7C   1    0.809792    0.306849    0.510939    11.00000    0.04885
AFIX  43
H7C   2    0.849353    0.259776    0.516410    11.00000   -1.20000
AFIX   0
C7D   1    0.791610    0.370309    0.549395    11.00000    0.04372
AFIX  43
H7D   2    0.817926    0.374476    0.585653    11.00000   -1.20000
AFIX   0
C8A   1    0.617659    0.549608    0.525278    11.00000    0.02102
C8B   1    0.548461    0.615843    0.455595    11.00000    0.03404
C8C   1    0.573637    0.615265    0.554711    11.00000    0.03164
AFIX  43
H8C   2    0.579137    0.627757    0.596502    11.00000   -1.20000
AFIX   0
C8D   1    0.521444    0.660324    0.517570    11.00000    0.04117
AFIX  43
H8D   2    0.479504    0.706846    0.527315    11.00000   -1.20000
AFIX   0

O1A   6    1.500246   -0.089791    0.155239    11.00000    0.03662    0.05535 =
         0.08434    0.03508   -0.02256    0.01737
O1B   6    0.642416   -0.145001    0.497045    11.00000    0.04079    0.06004 =
         0.02953    0.00670    0.01012   -0.00384
O1C   6    0.307408    0.206157    0.044073    11.00000    0.01847    0.07907 =
         0.08310    0.01081   -0.02967   -0.00687
O1D   6    1.100258    0.339375   -0.266707    11.00000    0.05118    0.03991 =
         0.04997    0.02741   -0.01695   -0.01699
O2A   6    0.830640    0.559456    0.762420    11.00000    0.06036    0.05340 =
         0.05077   -0.00299   -0.00591   -0.01251
O2B   6    0.365330    0.952025    0.359972    11.00000    0.06432    0.03196 =
         0.06130    0.01061   -0.03396    0.01482
O2C   6    0.432594    0.377151    0.049017    11.00000    0.04394    0.04463 =
         0.03015   -0.01090   -0.00555   -0.00139
O2D   6    0.933935   -0.025819    0.444962    11.00000    0.05129    0.02652 =
         0.04357    0.00448   -0.00602    0.01231
C1    1    0.981058    0.157665   -0.042261    11.00000    0.03392
C11   1    1.019576    0.202019   -0.102195    11.00000    0.03157
C12   1    0.999698    0.194739   -0.163971    11.00000    0.02680
AFIX  43
H12   2    0.967166    0.156003   -0.168597    11.00000   -1.20000
AFIX   0
C13   1    1.026909    0.243512   -0.218989    11.00000    0.04277
AFIX  43
H13   2    1.013379    0.236647   -0.259870    11.00000   -1.20000
AFIX   0
C14   1    1.070943    0.298378   -0.213588    11.00000    0.03694
C15   1    1.094564    0.308076   -0.152959    11.00000    0.04097
AFIX  43
H15   2    1.128577    0.346017   -0.148862    11.00000   -1.20000
AFIX   0
C16   1    1.066661    0.261529   -0.102798    11.00000    0.04712
AFIX  43
H16   2    1.080474    0.269786   -0.062345    11.00000   -1.20000
AFIX   0
C1B1  1    1.131460    0.407959   -0.264324    11.00000    0.04691
AFIX  23
H1BA  2    1.192578    0.397947   -0.251552    11.00000   -1.20000
H1BB  2    1.085501    0.441132   -0.231913    11.00000   -1.20000
AFIX   0
C1B2  1    1.141490    0.446653   -0.335719    11.00000    0.06774
AFIX  23
H1BC  2    1.174258    0.489830   -0.338248    11.00000   -1.20000
H1BD  2    1.181045    0.409794   -0.367801    11.00000   -1.20000
AFIX   0
C1B3  1    1.051877    0.473850   -0.354514    11.00000    0.04270
AFIX  23
H1BE  2    1.012179    0.511407   -0.323117    11.00000   -1.20000
H1BF  2    1.018645    0.431011   -0.352304    11.00000   -1.20000
AFIX   0
C1B4  1    1.066224    0.508984   -0.421940    11.00000    0.09306
AFIX  33
H1BG  2    1.005312    0.526648   -0.433247    11.00000   -1.50000
H1BH  2    1.098194    0.551922   -0.423995    11.00000   -1.50000
H1BI  2    1.104652    0.471609   -0.453152    11.00000   -1.50000
AFIX   0
C2    1    1.126645    0.005702    0.123020    11.00000    0.02501
C21   1    1.229007   -0.020641    0.131365    11.00000    0.03620
C22   1    1.257715   -0.097021    0.148258    11.00000    0.04825
AFIX  43
H22   2    1.215300   -0.131343    0.154455    11.00000   -1.20000
AFIX   0
C23   1    1.348469   -0.121852    0.155802    11.00000    0.03417
AFIX  43
H23   2    1.367905   -0.174027    0.165796    11.00000   -1.20000
AFIX   0
C24   1    1.411361   -0.074429    0.149474    11.00000    0.04513
C25   1    1.377769    0.002233    0.135048    11.00000    0.04058
AFIX  43
H25   2    1.418049    0.037674    0.132296    11.00000   -1.20000
AFIX   0
C26   1    1.288863    0.027940    0.124763    11.00000    0.03181
AFIX  43
H26   2    1.269891    0.079698    0.113068    11.00000   -1.20000
AFIX   0
C2B1  1    1.536785   -0.170892    0.153196    11.00000    0.05310
AFIX  23
H2BA  2    1.524208   -0.191875    0.114837    11.00000   -1.20000
H2BB  2    1.506775   -0.197371    0.193655    11.00000   -1.20000
AFIX   0
C2B2  1    1.650629   -0.181562    0.147309    11.00000    0.08257
AFIX  23
H2BC  2    1.680186   -0.232679    0.131599    11.00000   -1.20000
H2BD  2    1.675829   -0.144525    0.113453    11.00000   -1.20000
AFIX   0
C2B3  1    1.677759   -0.172783    0.205036    11.00000    0.08088
AFIX  23
H2BE  2    1.639416   -0.126687    0.226521    11.00000   -1.20000
H2BF  2    1.744396   -0.167122    0.194630    11.00000   -1.20000
AFIX   0
C2B4  1    1.664260   -0.242614    0.251801    11.00000    0.07582
AFIX  33
H2BG  2    1.683283   -0.236532    0.292363    11.00000   -1.50000
H2BH  2    1.598102   -0.247674    0.262284    11.00000   -1.50000
H2BI  2    1.702818   -0.288008    0.230473    11.00000   -1.50000
AFIX   0
C3    1    0.815482   -0.011651    0.258958    11.00000    0.03504
C31   1    0.775272   -0.044790    0.321561    11.00000    0.03175
C32   1    0.791013   -0.121919    0.332661    11.00000    0.03527
AFIX  43
H32   2    0.832442   -0.153399    0.300056    11.00000   -1.20000
AFIX   0
C33   1    0.744854   -0.155107    0.393592    11.00000    0.04547
AFIX  43
H33   2    0.752196   -0.208312    0.401673    11.00000   -1.20000
AFIX   0
C34   1    0.689386   -0.105399    0.439585    11.00000    0.03683
C35   1    0.677509   -0.034866    0.430978    11.00000    0.05016
AFIX  43
H35   2    0.639206   -0.004054    0.465223    11.00000   -1.20000
AFIX   0
C36   1    0.719960   -0.000437    0.371401    11.00000    0.04173
AFIX  43
H36   2    0.710421    0.053091    0.365707    11.00000   -1.20000
AFIX   0
C3B1  1    0.582868   -0.099415    0.547260    11.00000    0.04445
AFIX  23
H3BA  2    0.532335   -0.065632    0.530126    11.00000   -1.20000
H3BB  2    0.618952   -0.067847    0.563792    11.00000   -1.20000
AFIX   0
C3B2  1    0.541025   -0.152305    0.602545    11.00000    0.07252
AFIX  23
H3BC  2    0.501482   -0.121744    0.639381    11.00000   -1.20000
H3BD  2    0.500146   -0.179671    0.586303    11.00000   -1.20000
AFIX   0
C3B3  1    0.610568   -0.205821    0.626202    11.00000    0.04970
AFIX  23
H3BE  2    0.662309   -0.180192    0.628917    11.00000   -1.20000
H3BF  2    0.636655   -0.245834    0.594017    11.00000   -1.20000
AFIX   0
C3B4  1    0.573229   -0.244497    0.696368    11.00000    0.08401
AFIX  33
H3BG  2    0.624836   -0.280443    0.709291    11.00000   -1.50000
H3BH  2    0.548798   -0.205538    0.728941    11.00000   -1.50000
H3BI  2    0.523106   -0.271277    0.693990    11.00000   -1.50000
AFIX   0
C4    1    0.674855    0.117391    0.080296    11.00000    0.03046
C41   1    0.579219    0.143139    0.072117    11.00000    0.03532
C42   1    0.510785    0.191095    0.114076    11.00000    0.05436
AFIX  43
H42   2    0.529114    0.210530    0.148684    11.00000   -1.20000
AFIX   0
C43   1    0.419421    0.212711    0.109860    11.00000    0.04568
AFIX  43
H43   2    0.374254    0.243843    0.140955    11.00000   -1.20000
AFIX   0
C44   1    0.397452    0.185291    0.055918    11.00000    0.03916
C45   1    0.455313    0.136278    0.016234    11.00000    0.04079
AFIX  43
H45   2    0.433162    0.114885   -0.015506    11.00000   -1.20000
AFIX   0
C46   1    0.548859    0.114969    0.019784    11.00000    0.04196
AFIX  43
H46   2    0.591857    0.082636   -0.011462    11.00000   -1.20000
AFIX   0
C4B1  1    0.240139    0.267653    0.079856    11.00000    0.04339
AFIX  23
H4BA  2    0.270246    0.312109    0.078698    11.00000   -1.20000
H4BB  2    0.218417    0.251147    0.126344    11.00000   -1.20000
AFIX   0
C4B2  1    0.159376    0.287796    0.047758    11.00000    0.06350
AFIX  23
H4BC  2    0.120405    0.247935    0.057906    11.00000   -1.20000
H4BD  2    0.182076    0.292706   -0.000521    11.00000   -1.20000
AFIX   0
C4B3  1    0.101055    0.363765    0.074439    11.00000    0.05337
AFIX  23
H4BE  2    0.142891    0.401029    0.070470    11.00000   -1.20000
H4BF  2    0.071570    0.356496    0.121570    11.00000   -1.20000
AFIX   0
C4B4  1    0.024064    0.394516    0.036008    11.00000    0.07316
AFIX  33
H4BG  2   -0.011992    0.442618    0.053705    11.00000   -1.50000
H4BH  2    0.053307    0.402448   -0.010536    11.00000   -1.50000
H4BI  2   -0.017921    0.357973    0.040497    11.00000   -1.50000
AFIX   0

C5    1    0.580756    0.424060    0.261985    11.00000    0.04193
C51   1    0.549520    0.406136    0.206141    11.00000    0.03553
C52   1    0.604972    0.385950    0.145830    11.00000    0.03640
AFIX  43
H52   2    0.671056    0.375961    0.141150    11.00000   -1.20000
AFIX   0
C53   1    0.569615    0.379136    0.090267    11.00000    0.03342
AFIX  43
H53   2    0.611048    0.369813    0.048582    11.00000   -1.20000
AFIX   0
C54   1    0.476672    0.386021    0.097206    11.00000    0.03401
C55   1    0.416023    0.402065    0.157168    11.00000    0.03499
AFIX  43
H55   2    0.350507    0.404229    0.162858    11.00000   -1.20000
AFIX   0
C56   1    0.453071    0.414894    0.208696    11.00000    0.04342
AFIX  43
H56   2    0.410494    0.430709    0.248571    11.00000   -1.20000
AFIX   0
C5B1  1    0.479479    0.356751   -0.015205    11.00000    0.07998
AFIX  23
H5BA  2    0.520161    0.306607   -0.013198    11.00000   -1.20000
H5BB  2    0.520328    0.393775   -0.034865    11.00000   -1.20000
AFIX   0
C5B2  1    0.414717    0.353622   -0.058174    11.00000    0.05150
AFIX  23
H5BC  2    0.451875    0.340474   -0.102800    11.00000   -1.20000
H5BD  2    0.378036    0.313173   -0.040902    11.00000   -1.20000
AFIX   0
C5B3  1    0.351749    0.423388   -0.062382    11.00000    0.05584
AFIX  23
H5BE  2    0.388388    0.463930   -0.079376    11.00000   -1.20000
H5BF  2    0.314207    0.436366   -0.017815    11.00000   -1.20000
AFIX   0
C5B4  1    0.284595    0.420002   -0.107802    11.00000    0.06636
AFIX  33
H5BG  2    0.242790    0.468995   -0.109188    11.00000   -1.50000
H5BH  2    0.321372    0.408217   -0.152236    11.00000   -1.50000
H5BI  2    0.247195    0.380655   -0.090678    11.00000   -1.50000
AFIX   0
C6    1    0.755719    0.277050    0.414401    11.00000    0.03073
C61   1    0.805007    0.195808    0.423147    11.00000    0.04071
C62   1    0.769423    0.151846    0.475578    11.00000    0.03638
AFIX  43
H62   2    0.715135    0.172735    0.506990    11.00000   -1.20000
AFIX   0
C63   1    0.811364    0.076770    0.483861    11.00000    0.04487
AFIX  43
H63   2    0.782526    0.045843    0.518679    11.00000   -1.20000
AFIX   0
C64   1    0.894877    0.046701    0.441744    11.00000    0.03953
C65   1    0.930075    0.090245    0.388471    11.00000    0.04420
AFIX  43
H65   2    0.985615    0.069565    0.358043    11.00000   -1.20000
AFIX   0
C66   1    0.885723    0.165074    0.377779    11.00000    0.04369
AFIX  43
H66   2    0.910420    0.194344    0.340123    11.00000   -1.20000
AFIX   0
PART 1
C6B1  1    0.890176   -0.075273    0.498919    21.00000    0.01507
AFIX  23
H6BA  2    0.823899   -0.074404    0.498225    21.00000   -1.20000
H6BB  2    0.892884   -0.059230    0.542246    21.00000   -1.20000
AFIX   0
PART 2
C6B5  1    0.958324   -0.108781    0.453370   -21.00000    0.01507
AFIX  23
H6BC  2    1.025909   -0.125173    0.452413   -21.00000   -1.20000
H6BD  2    0.942322   -0.134264    0.418781   -21.00000   -1.20000
AFIX   0
C7    1    0.897215   -0.125404    0.521919   -21.00000    0.01507
AFIX  23
H7A   2    0.921858   -0.107805    0.556605   -21.00000   -1.20000
H7B   2    0.831868   -0.098498    0.525242   -21.00000   -1.20000
AFIX   0
PART 0
C6B3  1    0.899852   -0.211683    0.530941    11.00000    0.08744
PART 2
AFIX  23
H6BG  2    0.933877   -0.222540    0.566832   -21.00000   -1.20000
H6BH  2    0.833503   -0.211164    0.553650   -21.00000   -1.20000
AFIX  23
PART 1
H6BE  2    0.918391   -0.214914    0.573530    21.00000   -1.20000
H6BF  2    0.831286   -0.193319    0.539178    21.00000   -1.20000
AFIX   0
PART 0
C6B4  1    0.922234   -0.289631    0.503847    11.00000    0.11518
AFIX  33
H6BI  2    0.888579   -0.323810    0.535325    11.00000   -1.50000
H6BJ  2    0.902757   -0.287022    0.462142    11.00000   -1.50000
H6BK  2    0.989882   -0.308621    0.496501    11.00000   -1.50000
AFIX   0
C8    1    0.687117    0.496225    0.552314    11.00000    0.02238
C71   1    0.722075    0.512501    0.610835    11.00000    0.02888
C72   1    0.719150    0.464810    0.662563    11.00000    0.03690
AFIX  43
H72   2    0.692247    0.421078    0.663641    11.00000   -1.20000
AFIX   0
C73   1    0.755232    0.477541    0.716316    11.00000    0.04611
AFIX  43
H73   2    0.752204    0.442696    0.753134    11.00000   -1.20000
AFIX   0
C74   1    0.793469    0.538459    0.715249    11.00000    0.03422
C75   1    0.793058    0.594779    0.661788    11.00000    0.04351
AFIX  43
H75   2    0.814837    0.640692    0.662322    11.00000   -1.20000
AFIX   0
C76   1    0.760175    0.578634    0.611283    11.00000    0.05469
AFIX  43
H76   2    0.762505    0.613014    0.574162    11.00000   -1.20000
AFIX   0
C7B1  1    0.871848    0.498725    0.802676    11.00000    0.04127
AFIX  23
H7BA  2    0.896852    0.453053    0.776617    11.00000   -1.20000
H7BB  2    0.924711    0.513853    0.816060    11.00000   -1.20000
AFIX   0
C7B2  1    0.803081    0.481344    0.860613    11.00000    0.03998
AFIX  23
H7BC  2    0.753539    0.460332    0.848108    11.00000   -1.20000
H7BD  2    0.773425    0.527574    0.885142    11.00000   -1.20000
AFIX   0
C7B3  1    0.858408    0.419697    0.905457    11.00000    0.05066
AFIX  23
H7BE  2    0.882067    0.372070    0.881968    11.00000   -1.20000
H7BF  2    0.913123    0.438750    0.912230    11.00000   -1.20000
AFIX   0
C7B4  1    0.801242    0.404981    0.966211    11.00000    0.10278
AFIX  33
H7BG  2    0.837150    0.367592    0.991736    11.00000   -1.50000
H7BH  2    0.778661    0.451817    0.989989    11.00000   -1.50000
H7BI  2    0.747616    0.385161    0.959738    11.00000   -1.50000
AFIX   0
C9    1    0.512859    0.643627    0.397280    11.00000    0.03653
C81   1    0.468075    0.722573    0.392784    11.00000    0.05772
C82   1    0.382785    0.745955    0.370849    11.00000    0.04328
AFIX  43
H82   2    0.349824    0.708602    0.363739    11.00000   -1.20000
AFIX   0
C83   1    0.348332    0.818286    0.360136    11.00000    0.04233
AFIX  43
H83   2    0.292922    0.831011    0.343730    11.00000   -1.20000
AFIX   0
C84   1    0.390647    0.876022    0.372126    11.00000    0.04172
C85   1    0.474152    0.856599    0.393820    11.00000    0.05350
AFIX  43
H85   2    0.505840    0.894769    0.401037    11.00000   -1.20000
AFIX   0
C86   1    0.510799    0.779559    0.404869    11.00000    0.04647
AFIX  43
H86   2    0.566371    0.766511    0.421060    11.00000   -1.20000
AFIX   0
C8B1  1    0.287994    0.977437    0.329064    11.00000    0.05199
AFIX  23
H8BA  2    0.229649    0.964676    0.357889    11.00000   -1.20000
H8BB  2    0.299670    0.952418    0.286976    11.00000   -1.20000
AFIX   0
C8B2  1    0.277947    1.063116    0.316691    11.00000    0.05190
AFIX  23
H8BC  2    0.269877    1.086199    0.359254    11.00000   -1.20000
H8BD  2    0.337423    1.074041    0.288135    11.00000   -1.20000
AFIX   0
C8B3  1    0.204172    1.099039    0.287748    11.00000    0.05561
AFIX  23
H8BE  2    0.144186    1.089177    0.316302    11.00000   -1.20000
H8BF  2    0.211716    1.076531    0.245003    11.00000   -1.20000
AFIX   0
C8B4  1    0.198907    1.183202    0.276690    11.00000    0.06668
AFIX  33
H8BG  2    0.146136    1.204567    0.256465    11.00000   -1.50000
H8BH  2    0.189778    1.206226    0.318894    11.00000   -1.50000
H8BI  2    0.257381    1.193565    0.247518    11.00000   -1.50000
AFIX   0
PART 1
C10   1    0.949804   -0.154856    0.484592    21.00000    0.01507
AFIX  23
H10A  2    0.956038   -0.166438    0.438304    21.00000   -1.20000
H10B  2    1.013325   -0.157187    0.492098    21.00000   -1.20000
AFIX   0
HKLF 4

REM  e in P-1
REM R1 =  0.1010 for    6764 Fo > 4sig(Fo)  and  0.1760 for all   11098 data
REM    681 parameters refined using     14 restraints

END

WGHT      0.1582    366.5663

REM Highest difference peak  3.640,  deepest hole -2.127,  1-sigma level  0.447
Q1    1   0.8988  0.3404  0.2521  11.00000  0.05    3.64
Q2    1   0.6425  0.4227  0.3659  11.00000  0.05    3.61
Q3    1   0.9059  0.0212  0.0603  11.00000  0.05    3.60
Q4    1   0.8335  0.0946  0.0965  11.00000  0.05    3.49
Q5    1   1.2621 -0.2411  0.2895  11.00000  0.05    3.43
Q6    1   0.6238  0.4172  0.4399  11.00000  0.05    3.28
Q7    1   0.8786  0.1228  0.1443  11.00000  0.05    3.27
Q8    1   0.9204  0.2419  0.1629  11.00000  0.05    3.16
Q9    1   0.6353  0.4094  0.4258  11.00000  0.05    3.16
Q10   1   1.2463 -0.2143  0.2301  11.00000  0.05    3.14
Q11   1   0.6256  0.5087  0.4488  11.00000  0.05    3.13
Q12   1   1.2074 -0.2128  0.2911  11.00000  0.05    3.08
Q13   1   0.6250  0.2321  0.3076  11.00000  0.05    2.58
Q14   1   0.9854 -0.1177  0.4362  11.00000  0.05    2.25
;
_shelx_res_checksum              32649
_olex2_submission_special_instructions 'No special instructions were received'
loop_
_space_group_symop_operation_xyz
'x, y, z'
'-x, -y, -z'
loop_
_atom_site_label
_atom_site_type_symbol
_atom_site_fract_x
_atom_site_fract_y
_atom_site_fract_z
_atom_site_U_iso_or_equiv
_atom_site_adp_type
_atom_site_occupancy
_atom_site_site_symmetry_order
_atom_site_calc_flag
_atom_site_refinement_flags_posn
_atom_site_refinement_flags_adp
_atom_site_refinement_flags_occupancy
_atom_site_disorder_assembly
_atom_site_disorder_group
Au1 Au 0.90156(10) 0.06618(8) 0.10377(7) 0.0345(5) Uani 1 1 d . . . . .
Au2 Au 0.63430(10) 0.45901(8) 0.40704(7) 0.0362(5) Uani 1 1 d . . . . .
Au3 Au 1.22693(12) -0.27194(10) 0.24856(8) 0.0495(5) Uani 1 1 d . . . . .
Au4 Au 0.90905(12) 0.29920(9) 0.20067(8) 0.0482(5) Uani 1 1 d . . . . .
Cl3A Cl 1.1226(7) -0.2171(7) 0.3370(5) 0.059(3) Uani 1 1 d . . . . .
Cl3B Cl 1.3325(7) -0.3249(6) 0.1607(5) 0.055(3) Uani 1 1 d . . . . .
Cl4A Cl 0.8281(8) 0.4198(6) 0.1939(6) 0.061(3) Uani 1 1 d . . . . .
Cl4B Cl 0.9935(9) 0.1791(6) 0.2044(5) 0.065(3) Uani 1 1 d . . . . .
Cl4C Cl 0.9721(8) 0.3339(6) 0.2798(6) 0.062(3) Uani 1 1 d . . . . .
Cl4D Cl 0.8453(8) 0.2627(7) 0.1224(5) 0.063(3) Uani 1 1 d . . . . .
N1 N 0.8464(15) 0.1235(12) 0.0329(11) 0.011(5) Uiso 1 1 d . . . . .
N2 N 1.0299(17) 0.0736(13) 0.0508(12) 0.018(6) Uiso 1 1 d . . . . .
N3 N 0.9561(19) 0.0038(16) 0.1765(14) 0.033(7) Uiso 1 1 d . . . . .
N4 N 0.7737(18) 0.0537(14) 0.1583(13) 0.025(7) Uiso 1 1 d . . . . .
N5 N 0.5679(19) 0.5195(15) 0.3400(13) 0.029(7) Uiso 1 1 d . . . . .
N6 N 0.6638(17) 0.3736(14) 0.3523(12) 0.022(6) Uiso 1 1 d . . . . .
N7 N 0.704(2) 0.3975(19) 0.4716(17) 0.053(9) Uiso 1 1 d . . . . .
N8 N 0.6051(17) 0.5454(13) 0.4642(12) 0.018(6) Uiso 1 1 d . . . . .
C2C C 1.148(2) 0.0981(19) -0.0353(17) 0.032(9) Uiso 1 1 d . . . . .
H2C H 1.1783 0.1161 -0.0772 0.039 Uiso 1 1 calc R U . . .
C2D C 1.192(2) 0.0567(17) 0.0075(15) 0.022(8) Uiso 1 1 d . . . . .
H2D H 1.2582 0.0417 0.0035 0.026 Uiso 1 1 calc R U . . .
C2A C 1.112(2) 0.0389(19) 0.0649(17) 0.030(9) Uiso 1 1 d . . . . .
C1B C 1.048(2) 0.1125(17) -0.0110(15) 0.021(8) Uiso 1 1 d . . . . .
C1A C 0.890(3) 0.161(2) -0.0226(18) 0.036(9) Uiso 1 1 d . . . . .
C3A C 1.053(2) -0.0087(19) 0.1754(17) 0.031(9) Uiso 1 1 d . . . . .
C2B C 0.746(2) 0.144(2) 0.0351(17) 0.032(9) Uiso 1 1 d . . . . .
C1C C 0.820(2) 0.2094(18) -0.0521(16) 0.025(8) Uiso 1 1 d . . . . .
H1C H 0.8314 0.2449 -0.0880 0.030 Uiso 1 1 calc R U . . .
C1D C 0.736(3) 0.194(2) -0.0186(18) 0.041(10) Uiso 1 1 d . . . . .
H1D H 0.6778 0.2150 -0.0301 0.049 Uiso 1 1 calc R U . . .
C3B C 0.912(2) -0.0158(17) 0.2361(15) 0.022(8) Uiso 1 1 d . . . . .
C3C C 1.068(3) -0.040(2) 0.2405(19) 0.044(10) Uiso 1 1 d . . . . .
H3C H 1.1248 -0.0524 0.2547 0.052 Uiso 1 1 calc R U . . .
C3D C 0.980(2) -0.046(2) 0.2752(18) 0.036(9) Uiso 1 1 d . . . . .
H3D H 0.9654 -0.0667 0.3188 0.044 Uiso 1 1 calc R U . . .
C4A C 0.755(2) 0.0215(19) 0.2183(17) 0.031(9) Uiso 1 1 d . . . . .
C4B C 0.689(2) 0.079(2) 0.1362(17) 0.034(9) Uiso 1 1 d . . . . .
C4C C 0.654(2) 0.0205(19) 0.2376(18) 0.033(9) Uiso 1 1 d . . . . .
H4C H 0.6234 -0.0004 0.2781 0.040 Uiso 1 1 calc R U . . .
C4D C 0.612(3) 0.053(2) 0.1896(19) 0.050(11) Uiso 1 1 d . . . . .
H4D H 0.5479 0.0594 0.1894 0.060 Uiso 1 1 calc R U . . .
C5A C 0.554(3) 0.495(2) 0.2835(18) 0.040(10) Uiso 1 1 d . . . . .
C5B C 0.528(2) 0.5953(19) 0.3454(17) 0.032(9) Uiso 1 1 d . . . . .
C5C C 0.514(3) 0.558(2) 0.2480(19) 0.039(10) Uiso 1 1 d . . . . .
H5C H 0.5026 0.5564 0.2053 0.047 Uiso 1 1 calc R U . . .
C5D C 0.492(3) 0.621(2) 0.2860(19) 0.049(11) Uiso 1 1 d . . . . .
H5D H 0.4612 0.6707 0.2757 0.059 Uiso 1 1 calc R U . . .
C6A C 0.636(3) 0.360(2) 0.2944(19) 0.043(10) Uiso 1 1 d . . . . .
C6B C 0.708(3) 0.298(2) 0.3642(19) 0.045(10) Uiso 1 1 d . . . . .
C6C C 0.661(3) 0.289(2) 0.272(2) 0.054(12) Uiso 1 1 d . . . . .
H6C H 0.6462 0.2687 0.2367 0.065 Uiso 1 1 calc R U . . .
C6D C 0.714(2) 0.254(2) 0.3140(17) 0.035(9) Uiso 1 1 d . . . . .
H6D H 0.7500 0.2048 0.3089 0.042 Uiso 1 1 calc R U . . .
C7A C 0.757(3) 0.328(2) 0.4624(18) 0.040(10) Uiso 1 1 d . . . . .
C7B C 0.729(3) 0.426(2) 0.5251(19) 0.045(10) Uiso 1 1 d . . . . .
C7C C 0.810(3) 0.307(2) 0.5109(19) 0.049(11) Uiso 1 1 d . . . . .
H7C H 0.8494 0.2598 0.5164 0.059 Uiso 1 1 calc R U . . .
C7D C 0.792(3) 0.370(2) 0.5494(19) 0.044(10) Uiso 1 1 d . . . . .
H7D H 0.8179 0.3745 0.5857 0.052 Uiso 1 1 calc R U . . .
C8A C 0.618(2) 0.5496(17) 0.5253(15) 0.021(8) Uiso 1 1 d . . . . .
C8B C 0.548(2) 0.616(2) 0.4556(17) 0.034(9) Uiso 1 1 d . . . . .
C8C C 0.574(2) 0.6153(19) 0.5547(17) 0.032(9) Uiso 1 1 d . . . . .
H8C H 0.5791 0.6278 0.5965 0.038 Uiso 1 1 calc R U . . .
C8D C 0.521(3) 0.660(2) 0.5176(18) 0.041(10) Uiso 1 1 d . . . . .
H8D H 0.4795 0.7068 0.5273 0.049 Uiso 1 1 calc R U . . .
O1A O 1.5002(18) -0.0898(16) 0.1552(15) 0.063(9) Uani 1 1 d . . . . .
O1B O 0.6424(17) -0.1450(15) 0.4970(12) 0.048(7) Uani 1 1 d . . . . .
O1C O 0.3074(16) 0.2062(16) 0.0441(15) 0.058(8) Uani 1 1 d . . . . .
O1D O 1.1003(18) 0.3394(14) -0.2667(12) 0.047(7) Uani 1 1 d . . . . .
O2A O 0.8306(19) 0.5595(15) 0.7624(13) 0.056(8) Uani 1 1 d . . . . .
O2B O 0.3653(19) 0.9520(14) 0.3600(13) 0.053(8) Uani 1 1 d . . . . .
O2C O 0.4326(17) 0.3772(14) 0.0490(11) 0.040(6) Uani 1 1 d . U . . .
O2D O 0.9339(17) -0.0258(12) 0.4450(12) 0.044(7) Uani 1 1 d D . . . .
C1 C 0.981(2) 0.158(2) -0.0423(17) 0.034(9) Uiso 1 1 d . . . . .
C11 C 1.020(2) 0.2020(19) -0.1022(17) 0.032(9) Uiso 1 1 d . . . . .
C12 C 1.000(2) 0.1947(19) -0.1640(16) 0.027(8) Uiso 1 1 d . . . . .
H12 H 0.9672 0.1560 -0.1686 0.032 Uiso 1 1 calc R U . . .
C13 C 1.027(3) 0.244(2) -0.2190(19) 0.043(10) Uiso 1 1 d . . . . .
H13 H 1.0134 0.2366 -0.2599 0.051 Uiso 1 1 calc R U . . .
C14 C 1.071(3) 0.298(2) -0.2136(18) 0.037(9) Uiso 1 1 d . . . . .
C15 C 1.095(3) 0.308(2) -0.1530(18) 0.041(10) Uiso 1 1 d . . . . .
H15 H 1.1286 0.3460 -0.1489 0.049 Uiso 1 1 calc R U . . .
C16 C 1.067(3) 0.262(2) -0.103(2) 0.047(11) Uiso 1 1 d . . . . .
H16 H 1.0805 0.2698 -0.0623 0.057 Uiso 1 1 calc R U . . .
C1B1 C 1.131(3) 0.408(2) -0.2643(19) 0.047(11) Uiso 1 1 d . . . . .
H1BA H 1.1926 0.3979 -0.2516 0.056 Uiso 1 1 calc R U . . .
H1BB H 1.0855 0.4411 -0.2319 0.056 Uiso 1 1 calc R U . . .
C1B2 C 1.141(3) 0.447(3) -0.336(2) 0.068(13) Uiso 1 1 d . . . . .
H1BC H 1.1743 0.4898 -0.3382 0.081 Uiso 1 1 calc R U . . .
H1BD H 1.1810 0.4098 -0.3678 0.081 Uiso 1 1 calc R U . . .
C1B3 C 1.052(3) 0.474(2) -0.3545(19) 0.043(10) Uiso 1 1 d . . . . .
H1BE H 1.0122 0.5114 -0.3231 0.051 Uiso 1 1 calc R U . . .
H1BF H 1.0186 0.4310 -0.3523 0.051 Uiso 1 1 calc R U . . .
C1B4 C 1.066(4) 0.509(3) -0.422(3) 0.093(17) Uiso 1 1 d . . . . .
H1BG H 1.0053 0.5266 -0.4332 0.140 Uiso 1 1 calc R U . . .
H1BH H 1.0982 0.5519 -0.4240 0.140 Uiso 1 1 calc R U . . .
H1BI H 1.1047 0.4716 -0.4532 0.140 Uiso 1 1 calc R U . . .
C2 C 1.127(2) 0.0057(18) 0.1230(16) 0.025(8) Uiso 1 1 d . . . . .
C21 C 1.229(3) -0.021(2) 0.1314(18) 0.036(9) Uiso 1 1 d . . . . .
C22 C 1.258(3) -0.097(2) 0.1483(19) 0.048(11) Uiso 1 1 d . . . . .
H22 H 1.2153 -0.1313 0.1545 0.058 Uiso 1 1 calc R U . . .
C23 C 1.348(2) -0.122(2) 0.1558(17) 0.034(9) Uiso 1 1 d . . . . .
H23 H 1.3679 -0.1740 0.1658 0.041 Uiso 1 1 calc R U . . .
C24 C 1.411(3) -0.074(2) 0.1495(19) 0.045(10) Uiso 1 1 d . . . . .
C25 C 1.378(3) 0.002(2) 0.1350(18) 0.041(10) Uiso 1 1 d . . . . .
H25 H 1.4180 0.0377 0.1323 0.049 Uiso 1 1 calc R U . . .
C26 C 1.289(2) 0.028(2) 0.1248(16) 0.032(9) Uiso 1 1 d . . . . .
H26 H 1.2699 0.0797 0.1131 0.038 Uiso 1 1 calc R U . . .
C2B1 C 1.537(3) -0.171(2) 0.153(2) 0.053(11) Uiso 1 1 d . . . . .
H2BA H 1.5242 -0.1919 0.1148 0.064 Uiso 1 1 calc R U . . .
H2BB H 1.5068 -0.1974 0.1937 0.064 Uiso 1 1 calc R U . . .
C2B2 C 1.651(4) -0.182(3) 0.147(3) 0.083(16) Uiso 1 1 d . . . . .
H2BC H 1.6802 -0.2327 0.1316 0.099 Uiso 1 1 calc R U . . .
H2BD H 1.6758 -0.1445 0.1135 0.099 Uiso 1 1 calc R U . . .
C2B3 C 1.678(4) -0.173(3) 0.205(3) 0.081(15) Uiso 1 1 d . . . . .
H2BE H 1.6394 -0.1267 0.2265 0.097 Uiso 1 1 calc R U . . .
H2BF H 1.7444 -0.1671 0.1946 0.097 Uiso 1 1 calc R U . . .
C2B4 C 1.664(4) -0.243(3) 0.252(2) 0.076(15) Uiso 1 1 d . . . . .
H2BG H 1.6833 -0.2365 0.2924 0.114 Uiso 1 1 calc R U . . .
H2BH H 1.5981 -0.2477 0.2623 0.114 Uiso 1 1 calc R U . . .
H2BI H 1.7028 -0.2880 0.2305 0.114 Uiso 1 1 calc R U . . .
C3 C 0.815(2) -0.012(2) 0.2590(17) 0.035(9) Uiso 1 1 d . . . . .
C31 C 0.775(2) -0.0448(19) 0.3216(17) 0.032(9) Uiso 1 1 d . . . . .
C32 C 0.791(2) -0.122(2) 0.3327(18) 0.035(9) Uiso 1 1 d . . . . .
H32 H 0.8324 -0.1534 0.3001 0.042 Uiso 1 1 calc R U . . .
C33 C 0.745(3) -0.155(2) 0.3936(19) 0.045(10) Uiso 1 1 d . . . . .
H33 H 0.7522 -0.2083 0.4017 0.055 Uiso 1 1 calc R U . . .
C34 C 0.689(3) -0.105(2) 0.4396(18) 0.037(9) Uiso 1 1 d . . . . .
C35 C 0.678(3) -0.035(2) 0.431(2) 0.050(11) Uiso 1 1 d . . . . .
H35 H 0.6392 -0.0041 0.4652 0.060 Uiso 1 1 calc R U . . .
C36 C 0.720(3) 0.000(2) 0.3714(18) 0.042(10) Uiso 1 1 d . . . . .
H36 H 0.7104 0.0531 0.3657 0.050 Uiso 1 1 calc R U . . .
C3B1 C 0.583(3) -0.099(2) 0.5473(18) 0.044(10) Uiso 1 1 d . . . . .
H3BA H 0.5323 -0.0656 0.5301 0.053 Uiso 1 1 calc R U . . .
H3BB H 0.6190 -0.0678 0.5638 0.053 Uiso 1 1 calc R U . . .
C3B2 C 0.541(3) -0.152(3) 0.603(2) 0.073(14) Uiso 1 1 d . . . . .
H3BC H 0.5015 -0.1217 0.6394 0.087 Uiso 1 1 calc R U . . .
H3BD H 0.5001 -0.1797 0.5863 0.087 Uiso 1 1 calc R U . . .
C3B3 C 0.611(3) -0.206(2) 0.626(2) 0.050(11) Uiso 1 1 d . . . . .
H3BE H 0.6623 -0.1802 0.6289 0.060 Uiso 1 1 calc R U . . .
H3BF H 0.6367 -0.2458 0.5940 0.060 Uiso 1 1 calc R U . . .
C3B4 C 0.573(4) -0.244(3) 0.696(3) 0.084(16) Uiso 1 1 d . . . . .
H3BG H 0.6248 -0.2804 0.7093 0.126 Uiso 1 1 calc R U . . .
H3BH H 0.5488 -0.2055 0.7289 0.126 Uiso 1 1 calc R U . . .
H3BI H 0.5231 -0.2713 0.6940 0.126 Uiso 1 1 calc R U . . .
C4 C 0.675(2) 0.1174(19) 0.0803(17) 0.030(9) Uiso 1 1 d . . . . .
C41 C 0.579(2) 0.143(2) 0.0721(18) 0.035(9) Uiso 1 1 d . . . . .
C42 C 0.511(3) 0.191(2) 0.114(2) 0.054(12) Uiso 1 1 d . . . . .
H42 H 0.5291 0.2105 0.1487 0.065 Uiso 1 1 calc R U . . .
C43 C 0.419(3) 0.213(2) 0.1099(19) 0.046(10) Uiso 1 1 d . . . . .
H43 H 0.3743 0.2438 0.1410 0.055 Uiso 1 1 calc R U . . .
C44 C 0.397(3) 0.185(2) 0.0559(18) 0.039(10) Uiso 1 1 d . . . . .
C45 C 0.455(3) 0.136(2) 0.0162(19) 0.041(10) Uiso 1 1 d . . . . .
H45 H 0.4332 0.1149 -0.0155 0.049 Uiso 1 1 calc R U . . .
C46 C 0.549(3) 0.115(2) 0.0198(19) 0.042(10) Uiso 1 1 d . . . . .
H46 H 0.5919 0.0826 -0.0115 0.050 Uiso 1 1 calc R U . . .
C4B1 C 0.240(3) 0.268(2) 0.0799(19) 0.043(10) Uiso 1 1 d . . . . .
H4BA H 0.2702 0.3121 0.0787 0.052 Uiso 1 1 calc R U . . .
H4BB H 0.2184 0.2511 0.1263 0.052 Uiso 1 1 calc R U . . .
C4B2 C 0.159(3) 0.288(3) 0.048(2) 0.064(13) Uiso 1 1 d . . . . .
H4BC H 0.1204 0.2479 0.0579 0.076 Uiso 1 1 calc R U . . .
H4BD H 0.1821 0.2927 -0.0005 0.076 Uiso 1 1 calc R U . . .
C4B3 C 0.101(3) 0.364(2) 0.074(2) 0.053(11) Uiso 1 1 d . . . . .
H4BE H 0.1429 0.4010 0.0705 0.064 Uiso 1 1 calc R U . . .
H4BF H 0.0716 0.3565 0.1216 0.064 Uiso 1 1 calc R U . . .
C4B4 C 0.024(3) 0.395(3) 0.036(2) 0.073(14) Uiso 1 1 d . . . . .
H4BG H -0.0120 0.4426 0.0537 0.110 Uiso 1 1 calc R U . . .
H4BH H 0.0533 0.4024 -0.0105 0.110 Uiso 1 1 calc R U . . .
H4BI H -0.0179 0.3580 0.0405 0.110 Uiso 1 1 calc R U . . .
C5 C 0.581(3) 0.424(2) 0.2620(19) 0.042(10) Uiso 1 1 d . . . . .
C51 C 0.550(2) 0.406(2) 0.2061(18) 0.036(9) Uiso 1 1 d . . . . .
C52 C 0.605(3) 0.386(2) 0.1458(17) 0.036(9) Uiso 1 1 d . . . . .
H52 H 0.6711 0.3760 0.1412 0.044 Uiso 1 1 calc R U . . .
C53 C 0.570(2) 0.3791(19) 0.0903(18) 0.033(9) Uiso 1 1 d . . . . .
H53 H 0.6110 0.3698 0.0486 0.040 Uiso 1 1 calc R U . . .
C54 C 0.477(2) 0.386(2) 0.0972(17) 0.034(9) Uiso 1 1 d . . . . .
C55 C 0.416(3) 0.4021(19) 0.1572(17) 0.035(9) Uiso 1 1 d . . . . .
H55 H 0.3505 0.4042 0.1629 0.042 Uiso 1 1 calc R U . . .
C56 C 0.453(3) 0.415(2) 0.2087(19) 0.043(10) Uiso 1 1 d . . . . .
H56 H 0.4105 0.4307 0.2486 0.052 Uiso 1 1 calc R U . . .
C5B1 C 0.479(4) 0.357(3) -0.015(2) 0.080(15) Uiso 1 1 d . . . . .
H5BA H 0.5202 0.3066 -0.0132 0.096 Uiso 1 1 calc R U . . .
H5BB H 0.5203 0.3938 -0.0349 0.096 Uiso 1 1 calc R U . . .
C5B2 C 0.415(3) 0.354(2) -0.058(2) 0.052(11) Uiso 1 1 d . . . . .
H5BC H 0.4519 0.3405 -0.1028 0.062 Uiso 1 1 calc R U . . .
H5BD H 0.3780 0.3132 -0.0409 0.062 Uiso 1 1 calc R U . . .
C5B3 C 0.352(3) 0.423(2) -0.062(2) 0.056(12) Uiso 1 1 d . . . . .
H5BE H 0.3884 0.4639 -0.0794 0.067 Uiso 1 1 calc R U . . .
H5BF H 0.3142 0.4364 -0.0178 0.067 Uiso 1 1 calc R U . . .
C5B4 C 0.285(3) 0.420(3) -0.108(2) 0.066(13) Uiso 1 1 d . . . . .
H5BG H 0.2428 0.4690 -0.1092 0.100 Uiso 1 1 calc R U . . .
H5BH H 0.3214 0.4082 -0.1522 0.100 Uiso 1 1 calc R U . . .
H5BI H 0.2472 0.3807 -0.0907 0.100 Uiso 1 1 calc R U . . .
C6 C 0.756(2) 0.2771(19) 0.4144(17) 0.031(9) Uiso 1 1 d . . . . .
C61 C 0.805(3) 0.196(2) 0.4231(18) 0.041(10) Uiso 1 1 d . . . . .
C62 C 0.769(3) 0.152(2) 0.4756(18) 0.036(9) Uiso 1 1 d . . . . .
H62 H 0.7151 0.1727 0.5070 0.044 Uiso 1 1 calc R U . . .
C63 C 0.811(3) 0.077(2) 0.4839(19) 0.045(10) Uiso 1 1 d . . . . .
H63 H 0.7825 0.0458 0.5187 0.054 Uiso 1 1 calc R U . . .
C64 C 0.895(3) 0.047(2) 0.4417(18) 0.040(10) Uiso 1 1 d . . . . .
C65 C 0.930(3) 0.090(2) 0.3885(19) 0.044(10) Uiso 1 1 d . . . . .
H65 H 0.9856 0.0696 0.3580 0.053 Uiso 1 1 calc R U . . .
C66 C 0.886(3) 0.165(2) 0.3778(19) 0.044(10) Uiso 1 1 d . . . . .
H66 H 0.9104 0.1943 0.3401 0.052 Uiso 1 1 calc R U . . .
C6B1 C 0.890(3) -0.0753(16) 0.499(2) 0.015(7) Uiso 0.64(3) 1 d D . P A 1
H6BA H 0.8239 -0.0744 0.4982 0.018 Uiso 0.64(3) 1 calc R U P A 1
H6BB H 0.8929 -0.0592 0.5422 0.018 Uiso 0.64(3) 1 calc R U P A 1
C6B5 C 0.958(5) -0.109(3) 0.453(3) 0.015(7) Uiso 0.36(3) 1 d D . P A 2
H6BC H 1.0259 -0.1252 0.4524 0.018 Uiso 0.36(3) 1 calc R U P A 2
H6BD H 0.9423 -0.1343 0.4188 0.018 Uiso 0.36(3) 1 calc R U P A 2
C7 C 0.897(5) -0.125(2) 0.522(2) 0.015(7) Uiso 0.36(3) 1 d D . P A 2
H7A H 0.9219 -0.1078 0.5566 0.018 Uiso 0.36(3) 1 calc R U P A 2
H7B H 0.8319 -0.0985 0.5252 0.018 Uiso 0.36(3) 1 calc R U P A 2
C6B3 C 0.900(4) -0.2117(19) 0.531(2) 0.087(17) Uiso 1 1 d D . . . .
H6BG H 0.9339 -0.2225 0.5668 0.105 Uiso 0.36(3) 1 calc R U P A 2
H6BH H 0.8335 -0.2112 0.5536 0.105 Uiso 0.36(3) 1 calc R U P A 2
H6BE H 0.9184 -0.2149 0.5735 0.105 Uiso 0.64(3) 1 calc R U P A 1
H6BF H 0.8313 -0.1933 0.5392 0.105 Uiso 0.64(3) 1 calc R U P A 1
C6B4 C 0.922(5) -0.290(4) 0.504(3) 0.12(2) Uiso 1 1 d . . . . .
H6BI H 0.8886 -0.3238 0.5353 0.173 Uiso 1 1 calc R U . . .
H6BJ H 0.9028 -0.2870 0.4621 0.173 Uiso 1 1 calc R U . . .
H6BK H 0.9899 -0.3086 0.4965 0.173 Uiso 1 1 calc R U . . .
C8 C 0.687(2) 0.4962(18) 0.5523(15) 0.022(8) Uiso 1 1 d . . . . .
C71 C 0.722(2) 0.5125(19) 0.6108(16) 0.029(8) Uiso 1 1 d . . . . .
C72 C 0.719(2) 0.465(2) 0.6626(17) 0.037(9) Uiso 1 1 d . . . . .
H72 H 0.6922 0.4211 0.6636 0.044 Uiso 1 1 calc R U . . .
C73 C 0.755(3) 0.478(2) 0.716(2) 0.046(10) Uiso 1 1 d . . . . .
H73 H 0.7522 0.4427 0.7531 0.055 Uiso 1 1 calc R U . . .
C74 C 0.793(2) 0.538(2) 0.7152(18) 0.034(9) Uiso 1 1 d . . . . .
C75 C 0.793(3) 0.595(2) 0.6618(19) 0.044(10) Uiso 1 1 d . . . . .
H75 H 0.8148 0.6407 0.6623 0.052 Uiso 1 1 calc R U . . .
C76 C 0.760(3) 0.579(2) 0.611(2) 0.055(12) Uiso 1 1 d . . . . .
H76 H 0.7625 0.6130 0.5742 0.066 Uiso 1 1 calc R U . . .
C7B1 C 0.872(3) 0.499(2) 0.8027(18) 0.041(10) Uiso 1 1 d . . . . .
H7BA H 0.8969 0.4531 0.7766 0.050 Uiso 1 1 calc R U . . .
H7BB H 0.9247 0.5139 0.8161 0.050 Uiso 1 1 calc R U . . .
C7B2 C 0.803(3) 0.481(2) 0.8606(18) 0.040(10) Uiso 1 1 d . . . . .
H7BC H 0.7535 0.4603 0.8481 0.048 Uiso 1 1 calc R U . . .
H7BD H 0.7734 0.5276 0.8851 0.048 Uiso 1 1 calc R U . . .
C7B3 C 0.858(3) 0.420(2) 0.905(2) 0.051(11) Uiso 1 1 d . . . . .
H7BE H 0.8821 0.3721 0.8820 0.061 Uiso 1 1 calc R U . . .
H7BF H 0.9131 0.4387 0.9122 0.061 Uiso 1 1 calc R U . . .
C7B4 C 0.801(4) 0.405(3) 0.966(3) 0.103(19) Uiso 1 1 d . . . . .
H7BG H 0.8371 0.3676 0.9917 0.154 Uiso 1 1 calc R U . . .
H7BH H 0.7787 0.4518 0.9900 0.154 Uiso 1 1 calc R U . . .
H7BI H 0.7476 0.3852 0.9597 0.154 Uiso 1 1 calc R U . . .
C9 C 0.513(2) 0.644(2) 0.3973(18) 0.037(9) Uiso 1 1 d . . . . .
C81 C 0.468(3) 0.723(3) 0.393(2) 0.058(12) Uiso 1 1 d . . . . .
C82 C 0.383(3) 0.746(2) 0.3708(18) 0.043(10) Uiso 1 1 d . . . . .
H82 H 0.3498 0.7086 0.3637 0.052 Uiso 1 1 calc R U . . .
C83 C 0.348(3) 0.818(2) 0.3601(18) 0.042(10) Uiso 1 1 d . . . . .
H83 H 0.2929 0.8310 0.3437 0.051 Uiso 1 1 calc R U . . .
C84 C 0.391(3) 0.876(2) 0.3721(19) 0.042(10) Uiso 1 1 d . . . . .
C85 C 0.474(3) 0.857(2) 0.394(2) 0.053(11) Uiso 1 1 d . . . . .
H85 H 0.5058 0.8948 0.4010 0.064 Uiso 1 1 calc R U . . .
C86 C 0.511(3) 0.780(2) 0.4049(19) 0.046(10) Uiso 1 1 d . . . . .
H86 H 0.5664 0.7665 0.4211 0.056 Uiso 1 1 calc R U . . .
C8B1 C 0.288(3) 0.977(2) 0.329(2) 0.052(11) Uiso 1 1 d . . . . .
H8BA H 0.2296 0.9647 0.3579 0.062 Uiso 1 1 calc R U . . .
H8BB H 0.2997 0.9524 0.2870 0.062 Uiso 1 1 calc R U . . .
C8B2 C 0.278(3) 1.063(2) 0.317(2) 0.052(11) Uiso 1 1 d . . . . .
H8BC H 0.2699 1.0862 0.3593 0.062 Uiso 1 1 calc R U . . .
H8BD H 0.3374 1.0740 0.2881 0.062 Uiso 1 1 calc R U . . .
C8B3 C 0.204(3) 1.099(2) 0.288(2) 0.056(12) Uiso 1 1 d . . . . .
H8BE H 0.1442 1.0892 0.3163 0.067 Uiso 1 1 calc R U . . .
H8BF H 0.2117 1.0765 0.2450 0.067 Uiso 1 1 calc R U . . .
C8B4 C 0.199(3) 1.183(3) 0.277(2) 0.067(13) Uiso 1 1 d . . . . .
H8BG H 0.1461 1.2046 0.2565 0.100 Uiso 1 1 calc R U . . .
H8BH H 0.1898 1.2062 0.3189 0.100 Uiso 1 1 calc R U . . .
H8BI H 0.2574 1.1936 0.2475 0.100 Uiso 1 1 calc R U . . .
C10 C 0.950(3) -0.1549(15) 0.485(2) 0.015(7) Uiso 0.64(3) 1 d D . P A 1
H10A H 0.9560 -0.1664 0.4383 0.018 Uiso 0.64(3) 1 calc R U P A 1
H10B H 1.0133 -0.1572 0.4921 0.018 Uiso 0.64(3) 1 calc R U P A 1
loop_
_atom_site_aniso_label
_atom_site_aniso_U_11
_atom_site_aniso_U_22
_atom_site_aniso_U_33
_atom_site_aniso_U_23
_atom_site_aniso_U_13
_atom_site_aniso_U_12
Au1 0.0310(9) 0.0379(10) 0.0292(9) 0.0011(7) -0.0024(7) 0.0002(7)
Au2 0.0366(9) 0.0379(10) 0.0307(9) -0.0037(7) -0.0065(7) 0.0007(7)
Au3 0.0493(11) 0.0536(12) 0.0422(11) 0.0041(8) -0.0101(8) -0.0042(8)
Au4 0.0492(11) 0.0482(11) 0.0432(11) -0.0047(8) -0.0072(8) -0.0021(8)
Cl3A 0.047(7) 0.078(8) 0.052(7) -0.005(6) -0.017(5) 0.000(6)
Cl3B 0.052(7) 0.046(7) 0.057(7) 0.006(5) 0.000(5) -0.007(5)
Cl4A 0.063(7) 0.047(7) 0.066(8) -0.007(5) -0.014(6) 0.010(6)
Cl4B 0.090(9) 0.048(7) 0.051(7) -0.007(5) -0.019(6) 0.010(6)
Cl4C 0.072(8) 0.057(7) 0.066(8) -0.003(6) -0.040(6) -0.001(6)
Cl4D 0.073(8) 0.067(8) 0.047(7) -0.014(6) -0.019(6) 0.007(6)
O1A 0.037(17) 0.06(2) 0.08(2) 0.035(16) -0.023(15) 0.017(14)
O1B 0.041(16) 0.060(18) 0.030(15) 0.007(13) 0.010(12) -0.004(13)
O1C 0.018(14) 0.08(2) 0.08(2) 0.011(17) -0.030(14) -0.007(14)
O1D 0.051(17) 0.040(16) 0.050(17) 0.027(13) -0.017(13) -0.017(13)
O2A 0.060(19) 0.053(19) 0.051(18) -0.003(14) -0.006(15) -0.013(15)
O2B 0.064(19) 0.032(17) 0.061(19) 0.011(13) -0.034(15) 0.015(14)
O2C 0.044(10) 0.045(10) 0.030(9) -0.011(8) -0.006(8) -0.001(8)
O2D 0.051(17) 0.027(15) 0.044(16) 0.004(12) -0.006(13) 0.012(12)
loop_
_atom_type_symbol
_atom_type_description
_atom_type_scat_dispersion_real
_atom_type_scat_dispersion_imag
_atom_type_scat_source
C C 0.0033 0.0016 'International Tables Vol C Tables 4.2.6.8 and 6.1.1.4'
H H 0.0000 0.0000 'International Tables Vol C Tables 4.2.6.8 and 6.1.1.4'
Au Au -2.0133 8.8022 'International Tables Vol C Tables 4.2.6.8 and 6.1.1.4'
Cl Cl 0.1484 0.1585 'International Tables Vol C Tables 4.2.6.8 and 6.1.1.4'
N N 0.0061 0.0033 'International Tables Vol C Tables 4.2.6.8 and 6.1.1.4'
O O 0.0106 0.0060 'International Tables Vol C Tables 4.2.6.8 and 6.1.1.4'
loop_
_geom_angle_atom_site_label_1
_geom_angle_atom_site_label_2
_geom_angle_atom_site_label_3
_geom_angle
_geom_angle_site_symmetry_1
_geom_angle_site_symmetry_3
_geom_angle_publ_flag
N1 Au1 N2 90.0(9) . . ?
N1 Au1 N3 177.9(10) . . ?
N1 Au1 N4 91.8(10) . . ?
N2 Au1 N3 91.1(10) . . ?
N2 Au1 N4 177.4(10) . . ?
N4 Au1 N3 87.1(11) . . ?
N6 Au2 N5 88.7(11) . . ?
N6 Au2 N7 90.1(12) . . ?
N6 Au2 N8 179.0(11) . . ?
N7 Au2 N5 178.1(12) . . ?
N8 Au2 N5 92.3(10) . . ?
N8 Au2 N7 88.9(12) . . ?
Cl3B Au3 Cl3A 178.9(4) . . ?
Cl4A Au4 Cl4B 178.2(4) . . ?
Cl4C Au4 Cl4A 89.5(4) . . ?
Cl4C Au4 Cl4B 91.0(4) . . ?
Cl4C Au4 Cl4D 179.0(4) . . ?
Cl4D Au4 Cl4A 91.2(4) . . ?
Cl4D Au4 Cl4B 88.4(4) . . ?
C1A N1 Au1 129(2) . . ?
C1A N1 C2B 106(2) . . ?
C2B N1 Au1 125.1(19) . . ?
C2A N2 Au1 127(2) . . ?
C2A N2 C1B 109(2) . . ?
C1B N2 Au1 123.8(19) . . ?
C3A N3 Au1 122(2) . . ?
C3B N3 Au1 129(2) . . ?
C3B N3 C3A 107(3) . . ?
C4A N4 Au1 127(2) . . ?
C4A N4 C4B 110(3) . . ?
C4B N4 Au1 123(2) . . ?
C5A N5 Au2 128(2) . . ?
C5A N5 C5B 108(3) . . ?
C5B N5 Au2 124(2) . . ?
C6A N6 Au2 133(2) . . ?
C6B N6 Au2 130(2) . . ?
C6B N6 C6A 97(3) . . ?
C7A N7 Au2 126(3) . . ?
C7A N7 C7B 106(3) . . ?
C7B N7 Au2 126(3) . . ?
C8A N8 Au2 131(2) . . ?
C8A N8 C8B 102(2) . . ?
C8B N8 Au2 127(2) . . ?
C2D C2C H2C 123.7 . . ?
C2D C2C C1B 113(3) . . ?
C1B C2C H2C 123.7 . . ?
C2C C2D H2D 128.2 . . ?
C2C C2D C2A 104(3) . . ?
C2A C2D H2D 128.2 . . ?
N2 C2A C2D 108(3) . . ?
C2 C2A N2 128(3) . . ?
C2 C2A C2D 123(3) . . ?
N2 C1B C2C 106(3) . . ?
C1 C1B N2 127(3) . . ?
C1 C1B C2C 127(3) . . ?
N1 C1A C1C 110(3) . . ?
C1 C1A N1 125(3) . . ?
C1 C1A C1C 125(3) . . ?
N3 C3A C3C 109(3) . . ?
C2 C3A N3 128(3) . . ?
C2 C3A C3C 123(3) . . ?
C1D C2B N1 107(3) . . ?
C4 C2B N1 126(3) . . ?
C4 C2B C1D 127(3) . . ?
C1A C1C H1C 126.7 . . ?
C1D C1C C1A 107(3) . . ?
C1D C1C H1C 126.7 . . ?
C2B C1D H1D 124.7 . . ?
C1C C1D C2B 111(3) . . ?
C1C C1D H1D 124.7 . . ?
N3 C3B C3D 109(3) . . ?
N3 C3B C3 127(3) . . ?
C3 C3B C3D 124(3) . . ?
C3A C3C H3C 128.1 . . ?
C3D C3C C3A 104(3) . . ?
C3D C3C H3C 128.1 . . ?
C3B C3D H3D 125.0 . . ?
C3C C3D C3B 110(3) . . ?
C3C C3D H3D 125.0 . . ?
N4 C4A C4C 108(3) . . ?
N4 C4A C3 130(3) . . ?
C3 C4A C4C 121(3) . . ?
N4 C4B C4D 106(3) . . ?
C4 C4B N4 130(3) . . ?
C4 C4B C4D 124(3) . . ?
C4A C4C H4C 125.0 . . ?
C4D C4C C4A 110(3) . . ?
C4D C4C H4C 125.0 . . ?
C4B C4D H4D 127.1 . . ?
C4C C4D C4B 106(3) . . ?
C4C C4D H4D 127.1 . . ?
N5 C5A C5C 109(3) . . ?
C5 C5A N5 126(3) . . ?
C5 C5A C5C 124(4) . . ?
N5 C5B C5D 108(3) . . ?
N5 C5B C9 131(3) . . ?
C9 C5B C5D 121(3) . . ?
C5A C5C H5C 125.6 . . ?
C5D C5C C5A 109(4) . . ?
C5D C5C H5C 125.6 . . ?
C5B C5D H5D 127.6 . . ?
C5C C5D C5B 105(3) . . ?
C5C C5D H5D 127.6 . . ?
N6 C6A C5 119(3) . . ?
C6C C6A N6 117(3) . . ?
C6C C6A C5 124(4) . . ?
C6D C6B N6 111(3) . . ?
C6D C6B C6 124(4) . . ?
C6 C6B N6 123(3) . . ?
C6A C6C H6C 129.1 . . ?
C6D C6C C6A 102(4) . . ?
C6D C6C H6C 129.1 . . ?
C6B C6D H6D 124.1 . . ?
C6C C6D C6B 112(4) . . ?
C6C C6D H6D 124.1 . . ?
N7 C7A C7C 111(3) . . ?
N7 C7A C6 126(3) . . ?
C7C C7A C6 122(3) . . ?
C7D C7B N7 109(3) . . ?
C7D C7B C8 126(4) . . ?
C8 C7B N7 124(3) . . ?
C7A C7C H7C 127.2 . . ?
C7D C7C C7A 106(4) . . ?
C7D C7C H7C 127.2 . . ?
C7B C7D C7C 108(4) . . ?
C7B C7D H7D 126.1 . . ?
C7C C7D H7D 126.1 . . ?
N8 C8A C8C 114(3) . . ?
N8 C8A C8 123(3) . . ?
C8C C8A C8 122(3) . . ?
N8 C8B C8D 112(3) . . ?
N8 C8B C9 126(3) . . ?
C9 C8B C8D 122(3) . . ?
C8A C8C H8C 124.1 . . ?
C8D C8C C8A 112(3) . . ?
C8D C8C H8C 124.1 . . ?
C8B C8D H8D 129.9 . . ?
C8C C8D C8B 100(3) . . ?
C8C C8D H8D 129.9 . . ?
C24 O1A C2B1 111(3) . . ?
C3B1 O1B C34 116(3) . . ?
C44 O1C C4B1 120(3) . . ?
C14 O1D C1B1 123(3) . . ?
C74 O2A C7B1 116(3) . . ?
C84 O2B C8B1 118(3) . . ?
C54 O2C C5B1 124(3) . . ?
C64 O2D C6B1 119(3) . . ?
C64 O2D C6B5 169(4) . . ?
C1B C1 C11 116(3) . . ?
C1A C1 C1B 124(3) . . ?
C1A C1 C11 120(3) . . ?
C12 C11 C1 122(3) . . ?
C16 C11 C1 125(3) . . ?
C16 C11 C12 112(3) . . ?
C11 C12 H12 119.0 . . ?
C13 C12 C11 122(3) . . ?
C13 C12 H12 119.0 . . ?
C12 C13 H13 119.9 . . ?
C14 C13 C12 120(4) . . ?
C14 C13 H13 119.9 . . ?
O1D C14 C13 118(4) . . ?
O1D C14 C15 121(3) . . ?
C13 C14 C15 121(4) . . ?
C14 C15 H15 121.6 . . ?
C16 C15 C14 117(4) . . ?
C16 C15 H15 121.6 . . ?
C11 C16 H16 116.0 . . ?
C15 C16 C11 128(4) . . ?
C15 C16 H16 116.0 . . ?
O1D C1B1 H1BA 110.4 . . ?
O1D C1B1 H1BB 110.4 . . ?
O1D C1B1 C1B2 106(3) . . ?
H1BA C1B1 H1BB 108.6 . . ?
C1B2 C1B1 H1BA 110.4 . . ?
C1B2 C1B1 H1BB 110.4 . . ?
C1B1 C1B2 H1BC 108.8 . . ?
C1B1 C1B2 H1BD 108.8 . . ?
H1BC C1B2 H1BD 107.7 . . ?
C1B3 C1B2 C1B1 114(4) . . ?
C1B3 C1B2 H1BC 108.8 . . ?
C1B3 C1B2 H1BD 108.8 . . ?
C1B2 C1B3 H1BE 109.4 . . ?
C1B2 C1B3 H1BF 109.4 . . ?
C1B2 C1B3 C1B4 111(4) . . ?
H1BE C1B3 H1BF 108.0 . . ?
C1B4 C1B3 H1BE 109.4 . . ?
C1B4 C1B3 H1BF 109.4 . . ?
C1B3 C1B4 H1BG 109.5 . . ?
C1B3 C1B4 H1BH 109.5 . . ?
C1B3 C1B4 H1BI 109.5 . . ?
H1BG C1B4 H1BH 109.5 . . ?
H1BG C1B4 H1BI 109.5 . . ?
H1BH C1B4 H1BI 109.5 . . ?
C2A C2 C3A 123(3) . . ?
C2A C2 C21 119(3) . . ?
C3A C2 C21 118(3) . . ?
C22 C21 C2 118(3) . . ?
C26 C21 C2 122(3) . . ?
C26 C21 C22 120(3) . . ?
C21 C22 H22 120.4 . . ?
C23 C22 C21 119(4) . . ?
C23 C22 H22 120.4 . . ?
C22 C23 H23 118.6 . . ?
C24 C23 C22 123(4) . . ?
C24 C23 H23 118.6 . . ?
O1A C24 C23 130(4) . . ?
O1A C24 C25 115(3) . . ?
C23 C24 C25 116(4) . . ?
C24 C25 H25 118.6 . . ?
C26 C25 C24 123(4) . . ?
C26 C25 H25 118.6 . . ?
C21 C26 C25 120(3) . . ?
C21 C26 H26 120.1 . . ?
C25 C26 H26 120.1 . . ?
O1A C2B1 H2BA 110.4 . . ?
O1A C2B1 H2BB 110.4 . . ?
O1A C2B1 C2B2 107(3) . . ?
H2BA C2B1 H2BB 108.6 . . ?
C2B2 C2B1 H2BA 110.4 . . ?
C2B2 C2B1 H2BB 110.4 . . ?
C2B1 C2B2 H2BC 108.3 . . ?
C2B1 C2B2 H2BD 108.3 . . ?
H2BC C2B2 H2BD 107.4 . . ?
C2B3 C2B2 C2B1 116(4) . . ?
C2B3 C2B2 H2BC 108.3 . . ?
C2B3 C2B2 H2BD 108.3 . . ?
C2B2 C2B3 H2BE 109.8 . . ?
C2B2 C2B3 H2BF 109.8 . . ?
C2B2 C2B3 C2B4 109(5) . . ?
H2BE C2B3 H2BF 108.2 . . ?
C2B4 C2B3 H2BE 109.8 . . ?
C2B4 C2B3 H2BF 109.8 . . ?
C2B3 C2B4 H2BG 109.5 . . ?
C2B3 C2B4 H2BH 109.5 . . ?
C2B3 C2B4 H2BI 109.5 . . ?
H2BG C2B4 H2BH 109.5 . . ?
H2BG C2B4 H2BI 109.5 . . ?
H2BH C2B4 H2BI 109.5 . . ?
C3B C3 C4A 120(3) . . ?
C3B C3 C31 122(3) . . ?
C4A C3 C31 118(3) . . ?
C32 C31 C3 120(3) . . ?
C32 C31 C36 119(3) . . ?
C36 C31 C3 121(3) . . ?
C31 C32 H32 119.9 . . ?
C31 C32 C33 120(3) . . ?
C33 C32 H32 119.9 . . ?
C32 C33 H33 121.8 . . ?
C34 C33 C32 116(4) . . ?
C34 C33 H33 121.8 . . ?
C33 C34 O1B 111(3) . . ?
C35 C34 O1B 124(3) . . ?
C35 C34 C33 124(4) . . ?
C34 C35 H35 119.4 . . ?
C34 C35 C36 121(4) . . ?
C36 C35 H35 119.4 . . ?
C31 C36 C35 120(4) . . ?
C31 C36 H36 120.2 . . ?
C35 C36 H36 120.2 . . ?
O1B C3B1 H3BA 110.2 . . ?
O1B C3B1 H3BB 110.2 . . ?
O1B C3B1 C3B2 107(3) . . ?
H3BA C3B1 H3BB 108.5 . . ?
C3B2 C3B1 H3BA 110.2 . . ?
C3B2 C3B1 H3BB 110.2 . . ?
C3B1 C3B2 H3BC 109.0 . . ?
C3B1 C3B2 H3BD 109.0 . . ?
H3BC C3B2 H3BD 107.8 . . ?
C3B3 C3B2 C3B1 113(4) . . ?
C3B3 C3B2 H3BC 109.0 . . ?
C3B3 C3B2 H3BD 109.0 . . ?
C3B2 C3B3 H3BE 108.7 . . ?
C3B2 C3B3 H3BF 108.7 . . ?
C3B2 C3B3 C3B4 114(4) . . ?
H3BE C3B3 H3BF 107.6 . . ?
C3B4 C3B3 H3BE 108.7 . . ?
C3B4 C3B3 H3BF 108.7 . . ?
C3B3 C3B4 H3BG 109.5 . . ?
C3B3 C3B4 H3BH 109.5 . . ?
C3B3 C3B4 H3BI 109.5 . . ?
H3BG C3B4 H3BH 109.5 . . ?
H3BG C3B4 H3BI 109.5 . . ?
H3BH C3B4 H3BI 109.5 . . ?
C2B C4 C41 118(3) . . ?
C4B C4 C2B 122(3) . . ?
C4B C4 C41 119(3) . . ?
C42 C41 C4 124(3) . . ?
C42 C41 C46 116(3) . . ?
C46 C41 C4 120(3) . . ?
C41 C42 H42 117.2 . . ?
C43 C42 C41 126(4) . . ?
C43 C42 H42 117.2 . . ?
C42 C43 H43 122.6 . . ?
C42 C43 C44 115(4) . . ?
C44 C43 H43 122.6 . . ?
O1C C44 C43 121(3) . . ?
C45 C44 O1C 115(3) . . ?
C45 C44 C43 124(4) . . ?
C44 C45 H45 119.5 . . ?
C44 C45 C46 121(4) . . ?
C46 C45 H45 119.5 . . ?
C41 C46 H46 120.7 . . ?
C45 C46 C41 119(3) . . ?
C45 C46 H46 120.7 . . ?
O1C C4B1 H4BA 110.1 . . ?
O1C C4B1 H4BB 110.1 . . ?
O1C C4B1 C4B2 108(3) . . ?
H4BA C4B1 H4BB 108.4 . . ?
C4B2 C4B1 H4BA 110.1 . . ?
C4B2 C4B1 H4BB 110.1 . . ?
C4B1 C4B2 H4BC 110.2 . . ?
C4B1 C4B2 H4BD 110.2 . . ?
C4B1 C4B2 C4B3 108(3) . . ?
H4BC C4B2 H4BD 108.5 . . ?
C4B3 C4B2 H4BC 110.2 . . ?
C4B3 C4B2 H4BD 110.2 . . ?
C4B2 C4B3 H4BE 109.5 . . ?
C4B2 C4B3 H4BF 109.5 . . ?
C4B2 C4B3 C4B4 111(4) . . ?
H4BE C4B3 H4BF 108.1 . . ?
C4B4 C4B3 H4BE 109.5 . . ?
C4B4 C4B3 H4BF 109.5 . . ?
C4B3 C4B4 H4BG 109.5 . . ?
C4B3 C4B4 H4BH 109.5 . . ?
C4B3 C4B4 H4BI 109.5 . . ?
H4BG C4B4 H4BH 109.5 . . ?
H4BG C4B4 H4BI 109.5 . . ?
H4BH C4B4 H4BI 109.5 . . ?
C5A C5 C6A 125(4) . . ?
C5A C5 C51 119(3) . . ?
C51 C5 C6A 117(3) . . ?
C52 C51 C5 127(3) . . ?
C52 C51 C56 113(3) . . ?
C56 C51 C5 120(3) . . ?
C51 C52 H52 118.1 . . ?
C51 C52 C53 124(3) . . ?
C53 C52 H52 118.1 . . ?
C52 C53 H53 120.5 . . ?
C54 C53 C52 119(3) . . ?
C54 C53 H53 120.5 . . ?
O2C C54 C55 114(3) . . ?
C53 C54 O2C 126(3) . . ?
C53 C54 C55 121(3) . . ?
C54 C55 H55 120.9 . . ?
C54 C55 C56 118(3) . . ?
C56 C55 H55 120.9 . . ?
C51 C56 H56 117.8 . . ?
C55 C56 C51 124(4) . . ?
C55 C56 H56 117.8 . . ?
O2C C5B1 H5BA 109.0 . . ?
O2C C5B1 H5BB 109.0 . . ?
O2C C5B1 C5B2 113(4) . . ?
H5BA C5B1 H5BB 107.8 . . ?
C5B2 C5B1 H5BA 109.0 . . ?
C5B2 C5B1 H5BB 109.0 . . ?
C5B1 C5B2 H5BC 109.1 . . ?
C5B1 C5B2 H5BD 109.1 . . ?
H5BC C5B2 H5BD 107.8 . . ?
C5B3 C5B2 C5B1 113(4) . . ?
C5B3 C5B2 H5BC 109.1 . . ?
C5B3 C5B2 H5BD 109.1 . . ?
C5B2 C5B3 H5BE 109.1 . . ?
C5B2 C5B3 H5BF 109.1 . . ?
C5B2 C5B3 C5B4 112(4) . . ?
H5BE C5B3 H5BF 107.9 . . ?
C5B4 C5B3 H5BE 109.1 . . ?
C5B4 C5B3 H5BF 109.1 . . ?
C5B3 C5B4 H5BG 109.5 . . ?
C5B3 C5B4 H5BH 109.5 . . ?
C5B3 C5B4 H5BI 109.5 . . ?
H5BG C5B4 H5BH 109.5 . . ?
H5BG C5B4 H5BI 109.5 . . ?
H5BH C5B4 H5BI 109.5 . . ?
C6B C6 C7A 123(3) . . ?
C6B C6 C61 121(3) . . ?
C7A C6 C61 116(3) . . ?
C62 C61 C6 120(3) . . ?
C62 C61 C66 119(4) . . ?
C66 C61 C6 121(3) . . ?
C61 C62 H62 119.5 . . ?
C61 C62 C63 121(4) . . ?
C63 C62 H62 119.5 . . ?
C62 C63 H63 119.7 . . ?
C64 C63 C62 121(4) . . ?
C64 C63 H63 119.7 . . ?
O2D C64 C63 123(3) . . ?
O2D C64 C65 118(3) . . ?
C65 C64 C63 118(4) . . ?
C64 C65 H65 119.3 . . ?
C64 C65 C66 121(4) . . ?
C66 C65 H65 119.3 . . ?
C61 C66 C65 119(4) . . ?
C61 C66 H66 120.4 . . ?
C65 C66 H66 120.4 . . ?
O2D C6B1 H6BA 110.9 . . ?
O2D C6B1 H6BB 111.0 . . ?
O2D C6B1 C10 104(3) . . ?
H6BA C6B1 H6BB 109.0 . . ?
C10 C6B1 H6BA 110.9 . . ?
C10 C6B1 H6BB 111.0 . . ?
O2D C6B5 H6BC 111.2 . . ?
O2D C6B5 H6BD 111.2 . . ?
O2D C6B5 C7 103(4) . . ?
H6BC C6B5 H6BD 109.1 . . ?
C7 C6B5 H6BC 111.2 . . ?
C7 C6B5 H6BD 111.2 . . ?
C6B5 C7 H7A 110.1 . . ?
C6B5 C7 H7B 110.1 . . ?
H7A C7 H7B 108.4 . . ?
C6B3 C7 C6B5 108(3) . . ?
C6B3 C7 H7A 110.1 . . ?
C6B3 C7 H7B 110.1 . . ?
C7 C6B3 H6BG 98.8 . . ?
C7 C6B3 H6BH 98.8 . . ?
H6BG C6B3 H6BH 103.9 . . ?
H6BE C6B3 H6BF 107.8 . . ?
C6B4 C6B3 C7 151(4) . . ?
C6B4 C6B3 H6BG 98.8 . . ?
C6B4 C6B3 H6BH 98.8 . . ?
C6B4 C6B3 H6BE 109.1 . . ?
C6B4 C6B3 H6BF 109.0 . . ?
C6B4 C6B3 C10 113(4) . . ?
C10 C6B3 H6BE 109.0 . . ?
C10 C6B3 H6BF 109.0 . . ?
C6B3 C6B4 H6BI 109.5 . . ?
C6B3 C6B4 H6BJ 109.5 . . ?
C6B3 C6B4 H6BK 109.5 . . ?
H6BI C6B4 H6BJ 109.5 . . ?
H6BI C6B4 H6BK 109.5 . . ?
H6BJ C6B4 H6BK 109.5 . . ?
C7B C8 C8A 122(3) . . ?
C7B C8 C71 115(3) . . ?
C8A C8 C71 123(3) . . ?
C72 C71 C8 121(3) . . ?
C72 C71 C76 118(3) . . ?
C76 C71 C8 121(3) . . ?
C71 C72 H72 119.3 . . ?
C71 C72 C73 121(4) . . ?
C73 C72 H72 119.3 . . ?
C72 C73 H73 120.1 . . ?
C74 C73 C72 120(4) . . ?
C74 C73 H73 120.1 . . ?
O2A C74 C75 111(3) . . ?
C73 C74 O2A 128(3) . . ?
C73 C74 C75 121(4) . . ?
C74 C75 H75 121.8 . . ?
C76 C75 C74 116(4) . . ?
C76 C75 H75 121.8 . . ?
C71 C76 H76 118.5 . . ?
C75 C76 C71 123(4) . . ?
C75 C76 H76 118.5 . . ?
O2A C7B1 H7BA 109.5 . . ?
O2A C7B1 H7BB 109.5 . . ?
H7BA C7B1 H7BB 108.0 . . ?
C7B2 C7B1 O2A 111(3) . . ?
C7B2 C7B1 H7BA 109.5 . . ?
C7B2 C7B1 H7BB 109.5 . . ?
C7B1 C7B2 H7BC 110.3 . . ?
C7B1 C7B2 H7BD 110.3 . . ?
C7B1 C7B2 C7B3 107(3) . . ?
H7BC C7B2 H7BD 108.6 . . ?
C7B3 C7B2 H7BC 110.3 . . ?
C7B3 C7B2 H7BD 110.3 . . ?
C7B2 C7B3 H7BE 109.2 . . ?
C7B2 C7B3 H7BF 109.2 . . ?
H7BE C7B3 H7BF 107.9 . . ?
C7B4 C7B3 C7B2 112(4) . . ?
C7B4 C7B3 H7BE 109.2 . . ?
C7B4 C7B3 H7BF 109.2 . . ?
C7B3 C7B4 H7BG 109.5 . . ?
C7B3 C7B4 H7BH 109.5 . . ?
C7B3 C7B4 H7BI 109.5 . . ?
H7BG C7B4 H7BH 109.5 . . ?
H7BG C7B4 H7BI 109.5 . . ?
H7BH C7B4 H7BI 109.5 . . ?
C5B C9 C8B 119(3) . . ?
C5B C9 C81 122(3) . . ?
C81 C9 C8B 119(3) . . ?
C82 C81 C9 123(4) . . ?
C86 C81 C9 121(4) . . ?
C86 C81 C82 116(4) . . ?
C81 C82 H82 119.0 . . ?
C83 C82 C81 122(4) . . ?
C83 C82 H82 119.0 . . ?
C82 C83 H83 118.9 . . ?
C82 C83 C84 122(4) . . ?
C84 C83 H83 118.9 . . ?
O2B C84 C83 128(4) . . ?
O2B C84 C85 113(3) . . ?
C83 C84 C85 118(4) . . ?
C84 C85 H85 120.4 . . ?
C84 C85 C86 119(4) . . ?
C86 C85 H85 120.4 . . ?
C81 C86 C85 122(4) . . ?
C81 C86 H86 119.1 . . ?
C85 C86 H86 119.1 . . ?
O2B C8B1 H8BA 110.1 . . ?
O2B C8B1 H8BB 110.1 . . ?
O2B C8B1 C8B2 108(3) . . ?
H8BA C8B1 H8BB 108.4 . . ?
C8B2 C8B1 H8BA 110.1 . . ?
C8B2 C8B1 H8BB 110.1 . . ?
C8B1 C8B2 H8BC 108.1 . . ?
C8B1 C8B2 H8BD 108.1 . . ?
H8BC C8B2 H8BD 107.3 . . ?
C8B3 C8B2 C8B1 117(4) . . ?
C8B3 C8B2 H8BC 108.1 . . ?
C8B3 C8B2 H8BD 108.1 . . ?
C8B2 C8B3 H8BE 108.8 . . ?
C8B2 C8B3 H8BF 108.8 . . ?
C8B2 C8B3 C8B4 114(4) . . ?
H8BE C8B3 H8BF 107.7 . . ?
C8B4 C8B3 H8BE 108.8 . . ?
C8B4 C8B3 H8BF 108.8 . . ?
C8B3 C8B4 H8BG 109.5 . . ?
C8B3 C8B4 H8BH 109.5 . . ?
C8B3 C8B4 H8BI 109.5 . . ?
H8BG C8B4 H8BH 109.5 . . ?
H8BG C8B4 H8BI 109.5 . . ?
H8BH C8B4 H8BI 109.5 . . ?
C6B1 C10 H10A 110.2 . . ?
C6B1 C10 H10B 110.2 . . ?
C6B3 C10 C6B1 108(2) . . ?
C6B3 C10 H10A 110.2 . . ?
C6B3 C10 H10B 110.2 . . ?
H10A C10 H10B 108.5 . . ?
loop_
_geom_bond_atom_site_label_1
_geom_bond_atom_site_label_2
_geom_bond_distance
_geom_bond_site_symmetry_2
_geom_bond_publ_flag
Au1 N1 1.98(2) . ?
Au1 N2 2.00(2) . ?
Au1 N3 2.04(3) . ?
Au1 N4 2.02(3) . ?
Au2 N5 2.03(3) . ?
Au2 N6 1.92(2) . ?
Au2 N7 2.03(3) . ?
Au2 N8 1.97(2) . ?
Au3 Cl3A 2.277(11) . ?
Au3 Cl3B 2.266(10) . ?
Au4 Cl4A 2.284(10) . ?
Au4 Cl4B 2.290(11) . ?
Au4 Cl4C 2.279(11) . ?
Au4 Cl4D 2.284(11) . ?
N1 C1A 1.38(4) . ?
N1 C2B 1.47(4) . ?
N2 C2A 1.35(4) . ?
N2 C1B 1.41(4) . ?
N3 C3A 1.42(4) . ?
N3 C3B 1.32(4) . ?
N4 C4A 1.33(4) . ?
N4 C4B 1.42(4) . ?
N5 C5A 1.37(4) . ?
N5 C5B 1.39(4) . ?
N6 C6A 1.43(4) . ?
N6 C6B 1.42(5) . ?
N7 C7A 1.35(5) . ?
N7 C7B 1.42(5) . ?
N8 C8A 1.35(4) . ?
N8 C8B 1.40(4) . ?
C2C H2C 0.9500 . ?
C2C C2D 1.34(5) . ?
C2C C1B 1.43(5) . ?
C2D H2D 0.9500 . ?
C2D C2A 1.54(5) . ?
C2A C2 1.35(5) . ?
C1B C1 1.41(5) . ?
C1A C1C 1.45(5) . ?
C1A C1 1.31(5) . ?
C3A C3C 1.48(5) . ?
C3A C2 1.40(5) . ?
C2B C1D 1.40(5) . ?
C2B C4 1.38(5) . ?
C1C H1C 0.9500 . ?
C1C C1D 1.35(5) . ?
C1D H1D 0.9500 . ?
C3B C3D 1.45(5) . ?
C3B C3 1.39(5) . ?
C3C H3C 0.9500 . ?
C3C C3D 1.36(5) . ?
C3D H3D 0.9500 . ?
C4A C4C 1.46(5) . ?
C4A C3 1.40(5) . ?
C4B C4D 1.51(5) . ?
C4B C4 1.35(5) . ?
C4C H4C 0.9500 . ?
C4C C4D 1.34(5) . ?
C4D H4D 0.9500 . ?
C5A C5C 1.41(5) . ?
C5A C5 1.35(5) . ?
C5B C5D 1.47(5) . ?
C5B C9 1.40(5) . ?
C5C H5C 0.9500 . ?
C5C C5D 1.40(5) . ?
C5D H5D 0.9500 . ?
C6A C6C 1.36(5) . ?
C6A C5 1.49(5) . ?
C6B C6D 1.35(5) . ?
C6B C6 1.39(5) . ?
C6C H6C 0.9500 . ?
C6C C6D 1.34(5) . ?
C6D H6D 0.9500 . ?
C7A C7C 1.41(5) . ?
C7A C6 1.42(5) . ?
C7B C7D 1.38(5) . ?
C7B C8 1.41(5) . ?
C7C H7C 0.9500 . ?
C7C C7D 1.41(5) . ?
C7D H7D 0.9500 . ?
C8A C8C 1.36(4) . ?
C8A C8 1.45(4) . ?
C8B C8D 1.52(5) . ?
C8B C9 1.46(5) . ?
C8C H8C 0.9500 . ?
C8C C8D 1.34(5) . ?
C8D H8D 0.9500 . ?
O1A C24 1.33(5) . ?
O1A C2B1 1.46(5) . ?
O1B C34 1.45(4) . ?
O1B C3B1 1.41(4) . ?
O1C C44 1.40(4) . ?
O1C C4B1 1.47(4) . ?
O1D C14 1.31(4) . ?
O1D C1B1 1.41(5) . ?
O2A C74 1.36(4) . ?
O2A C7B1 1.45(4) . ?
O2B C84 1.37(4) . ?
O2B C8B1 1.44(5) . ?
O2C C54 1.37(4) . ?
O2C C5B1 1.41(5) . ?
O2D C64 1.33(4) . ?
O2D C6B1 1.48(4) . ?
O2D C6B5 1.48(6) . ?
C1 C11 1.49(5) . ?
C11 C12 1.42(5) . ?
C11 C16 1.39(5) . ?
C12 H12 0.9500 . ?
C12 C13 1.42(5) . ?
C13 H13 0.9500 . ?
C13 C14 1.32(5) . ?
C14 C15 1.43(5) . ?
C15 H15 0.9500 . ?
C15 C16 1.33(5) . ?
C16 H16 0.9500 . ?
C1B1 H1BA 0.9900 . ?
C1B1 H1BB 0.9900 . ?
C1B1 C1B2 1.58(6) . ?
C1B2 H1BC 0.9900 . ?
C1B2 H1BD 0.9900 . ?
C1B2 C1B3 1.46(6) . ?
C1B3 H1BE 0.9900 . ?
C1B3 H1BF 0.9900 . ?
C1B3 C1B4 1.48(6) . ?
C1B4 H1BG 0.9800 . ?
C1B4 H1BH 0.9800 . ?
C1B4 H1BI 0.9800 . ?
C2 C21 1.56(5) . ?
C21 C22 1.40(5) . ?
C21 C26 1.35(5) . ?
C22 H22 0.9500 . ?
C22 C23 1.38(5) . ?
C23 H23 0.9500 . ?
C23 C24 1.37(5) . ?
C24 C25 1.41(5) . ?
C25 H25 0.9500 . ?
C25 C26 1.38(5) . ?
C26 H26 0.9500 . ?
C2B1 H2BA 0.9900 . ?
C2B1 H2BB 0.9900 . ?
C2B1 C2B2 1.65(6) . ?
C2B2 H2BC 0.9900 . ?
C2B2 H2BD 0.9900 . ?
C2B2 C2B3 1.40(6) . ?
C2B3 H2BE 0.9900 . ?
C2B3 H2BF 0.9900 . ?
C2B3 C2B4 1.54(7) . ?
C2B4 H2BG 0.9800 . ?
C2B4 H2BH 0.9800 . ?
C2B4 H2BI 0.9800 . ?
C3 C31 1.44(5) . ?
C31 C32 1.37(5) . ?
C31 C36 1.38(5) . ?
C32 H32 0.9500 . ?
C32 C33 1.44(5) . ?
C33 H33 0.9500 . ?
C33 C34 1.38(5) . ?
C34 C35 1.25(5) . ?
C35 H35 0.9500 . ?
C35 C36 1.41(5) . ?
C36 H36 0.9500 . ?
C3B1 H3BA 0.9900 . ?
C3B1 H3BB 0.9900 . ?
C3B1 C3B2 1.53(6) . ?
C3B2 H3BC 0.9900 . ?
C3B2 H3BD 0.9900 . ?
C3B2 C3B3 1.42(6) . ?
C3B3 H3BE 0.9900 . ?
C3B3 H3BF 0.9900 . ?
C3B3 C3B4 1.59(6) . ?
C3B4 H3BG 0.9800 . ?
C3B4 H3BH 0.9800 . ?
C3B4 H3BI 0.9800 . ?
C4 C41 1.46(5) . ?
C41 C42 1.39(5) . ?
C41 C46 1.45(5) . ?
C42 H42 0.9500 . ?
C42 C43 1.36(5) . ?
C43 H43 0.9500 . ?
C43 C44 1.40(5) . ?
C44 C45 1.31(5) . ?
C45 H45 0.9500 . ?
C45 C46 1.39(5) . ?
C46 H46 0.9500 . ?
C4B1 H4BA 0.9900 . ?
C4B1 H4BB 0.9900 . ?
C4B1 C4B2 1.49(6) . ?
C4B2 H4BC 0.9900 . ?
C4B2 H4BD 0.9900 . ?
C4B2 C4B3 1.55(6) . ?
C4B3 H4BE 0.9900 . ?
C4B3 H4BF 0.9900 . ?
C4B3 C4B4 1.55(6) . ?
C4B4 H4BG 0.9800 . ?
C4B4 H4BH 0.9800 . ?
C4B4 H4BI 0.9800 . ?
C5 C51 1.44(5) . ?
C51 C52 1.37(5) . ?
C51 C56 1.41(5) . ?
C52 H52 0.9500 . ?
C52 C53 1.41(5) . ?
C53 H53 0.9500 . ?
C53 C54 1.34(5) . ?
C54 C55 1.38(5) . ?
C55 H55 0.9500 . ?
C55 C56 1.38(5) . ?
C56 H56 0.9500 . ?
C5B1 H5BA 0.9900 . ?
C5B1 H5BB 0.9900 . ?
C5B1 C5B2 1.48(6) . ?
C5B2 H5BC 0.9900 . ?
C5B2 H5BD 0.9900 . ?
C5B2 C5B3 1.43(5) . ?
C5B3 H5BE 0.9900 . ?
C5B3 H5BF 0.9900 . ?
C5B3 C5B4 1.55(6) . ?
C5B4 H5BG 0.9800 . ?
C5B4 H5BH 0.9800 . ?
C5B4 H5BI 0.9800 . ?
C6 C61 1.52(5) . ?
C61 C62 1.36(5) . ?
C61 C66 1.40(5) . ?
C62 H62 0.9500 . ?
C62 C63 1.39(5) . ?
C63 H63 0.9500 . ?
C63 C64 1.39(5) . ?
C64 C65 1.37(5) . ?
C65 H65 0.9500 . ?
C65 C66 1.41(5) . ?
C66 H66 0.9500 . ?
C6B1 H6BA 0.9900 . ?
C6B1 H6BB 0.9900 . ?
C6B1 C10 1.548(19) . ?
C6B5 H6BC 0.9900 . ?
C6B5 H6BD 0.9900 . ?
C6B5 C7 1.55(2) . ?
C7 H7A 0.9900 . ?
C7 H7B 0.9900 . ?
C7 C6B3 1.55(2) . ?
C6B3 H6BG 0.9900 . ?
C6B3 H6BH 0.9900 . ?
C6B3 H6BE 0.9900 . ?
C6B3 H6BF 0.9900 . ?
C6B3 C6B4 1.51(7) . ?
C6B3 C10 1.527(19) . ?
C6B4 H6BI 0.9800 . ?
C6B4 H6BJ 0.9800 . ?
C6B4 H6BK 0.9800 . ?
C8 C71 1.51(5) . ?
C71 C72 1.32(5) . ?
C71 C76 1.42(5) . ?
C72 H72 0.9500 . ?
C72 C73 1.41(5) . ?
C73 H73 0.9500 . ?
C73 C74 1.33(5) . ?
C74 C75 1.45(5) . ?
C75 H75 0.9500 . ?
C75 C76 1.34(5) . ?
C76 H76 0.9500 . ?
C7B1 H7BA 0.9900 . ?
C7B1 H7BB 0.9900 . ?
C7B1 C7B2 1.45(5) . ?
C7B2 H7BC 0.9900 . ?
C7B2 H7BD 0.9900 . ?
C7B2 C7B3 1.62(5) . ?
C7B3 H7BE 0.9900 . ?
C7B3 H7BF 0.9900 . ?
C7B3 C7B4 1.39(7) . ?
C7B4 H7BG 0.9800 . ?
C7B4 H7BH 0.9800 . ?
C7B4 H7BI 0.9800 . ?
C9 C81 1.46(6) . ?
C81 C82 1.43(6) . ?
C81 C86 1.38(6) . ?
C82 H82 0.9500 . ?
C82 C83 1.33(5) . ?
C83 H83 0.9500 . ?
C83 C84 1.39(5) . ?
C84 C85 1.40(5) . ?
C85 H85 0.9500 . ?
C85 C86 1.41(5) . ?
C86 H86 0.9500 . ?
C8B1 H8BA 0.9900 . ?
C8B1 H8BB 0.9900 . ?
C8B1 C8B2 1.53(6) . ?
C8B2 H8BC 0.9900 . ?
C8B2 H8BD 0.9900 . ?
C8B2 C8B3 1.40(5) . ?
C8B3 H8BE 0.9900 . ?
C8B3 H8BF 0.9900 . ?
C8B3 C8B4 1.51(6) . ?
C8B4 H8BG 0.9800 . ?
C8B4 H8BH 0.9800 . ?
C8B4 H8BI 0.9800 . ?
C10 H10A 0.9900 . ?
C10 H10B 0.9900 . ?
