#------------------------------------------------------------------------------
#$Date: 2019-11-05 14:13:30 +0200 (Tue, 05 Nov 2019) $
#$Revision: 223345 $
#$URL: file:///home/coder/svn-repositories/cod/cif/7/70/17/7701728.cif $
#------------------------------------------------------------------------------
#
# This file is available in the Crystallography Open Database (COD),
# http://www.crystallography.net/
#
# All data on this site have been placed in the public domain by the
# contributors.
#
data_7701728
loop_
_publ_author_name
'So, Shiu-Chun'
'Cheung, Wai-Man'
'Chiu, Wai-Hang'
'de Vere-Tucker, Matthew'
'Sung, Herman H.-Y.'
'Williams, Ian D.'
'Leung, Wa-Hung'
_publ_section_title
;
 Iridium porphyrin complexes with \m-nitrido, hydroxo, hydrosulfido and
 alkynyl ligands.
;
_journal_issue                   23
_journal_name_full
'Dalton transactions (Cambridge, England : 2003)'
_journal_page_first              8340
_journal_page_last               8349
_journal_paper_doi               10.1039/c9dt00244h
_journal_volume                  48
_journal_year                    2019
_chemical_absolute_configuration ad
_chemical_formula_moiety         '2(C62 H45 Ir N4 O P), C4 H8 O, H2 O'
_chemical_formula_sum            'C128 H100 Ir2 N8 O4 P2'
_chemical_formula_weight         2260.49
_space_group_crystal_system      orthorhombic
_space_group_IT_number           29
_space_group_name_Hall           'P 2c -2ac'
_space_group_name_H-M_alt        'P c a 21'
_atom_sites_solution_hydrogens   mixed
_audit_creation_date             2019-04-15
_audit_creation_method
;
Olex2 1.2
(compiled 2017.08.10 svn.r3458 for OlexSys, GUI svn.r5381)
;
_audit_update_record
;
2019-05-01 deposited with the CCDC.	2019-05-15 downloaded from the CCDC.
;
_cell_angle_alpha                90
_cell_angle_beta                 90
_cell_angle_gamma                90
_cell_formula_units_Z            4
_cell_length_a                   26.2427(2)
_cell_length_b                   10.41332(13)
_cell_length_c                   35.1224(3)
_cell_measurement_reflns_used    19315
_cell_measurement_temperature    100.10(10)
_cell_measurement_theta_max      75.4910
_cell_measurement_theta_min      4.7390
_cell_volume                     9598.03(16)
_computing_cell_refinement
;
CrysAlisPro, Agilent Technologies,
Version 1.171.37.35 (release 13-08-2014 CrysAlis171 .NET)
(compiled Aug 13 2014,18:06:01)
;
_computing_data_collection
;
CrysAlisPro, Agilent Technologies,
Version 1.171.37.35 (release 13-08-2014 CrysAlis171 .NET)
(compiled Aug 13 2014,18:06:01)
;
_computing_data_reduction
;
CrysAlisPro, Agilent Technologies,
Version 1.171.37.35 (release 13-08-2014 CrysAlis171 .NET)
(compiled Aug 13 2014,18:06:01)
;
_computing_molecular_graphics    'Olex2 (Dolomanov et al., 2009)'
_computing_publication_material  'Olex2 (Dolomanov et al., 2009)'
_computing_structure_refinement  'ShelXL (Sheldrick, 2015)'
_computing_structure_solution    'ShelXS (Sheldrick, 2008)'
_diffrn_ambient_temperature      100.10(10)
_diffrn_detector_area_resol_mean 10.3587
_diffrn_detector_type            Atlas
_diffrn_measured_fraction_theta_full 0.988
_diffrn_measured_fraction_theta_max 0.988
_diffrn_measurement_details
;
#__ type_ start__ end____ width___ exp.time_
  1 omega   33.00   89.00   1.0000    5.0000
omega____ theta____ kappa____ phi______ frames
    -      110.5703  -30.0000   60.0000 56

#__ type_ start__ end____ width___ exp.time_
  2 omega   37.00  102.00   1.0000    5.0000
omega____ theta____ kappa____ phi______ frames
    -      110.5703 -111.0000  120.0000 65

#__ type_ start__ end____ width___ exp.time_
  3 omega   80.00  172.00   1.0000    5.0000
omega____ theta____ kappa____ phi______ frames
    -      110.5703   30.0000 -120.0000 92

#__ type_ start__ end____ width___ exp.time_
  4 omega   57.00  139.00   1.0000    5.0000
omega____ theta____ kappa____ phi______ frames
    -      110.5703  178.0000  -90.0000 82

#__ type_ start__ end____ width___ exp.time_
  5 omega   58.00  141.00   1.0000    5.0000
omega____ theta____ kappa____ phi______ frames
    -      110.5703  178.0000  120.0000 83

#__ type_ start__ end____ width___ exp.time_
  6 omega   33.00   71.00   1.0000    5.0000
omega____ theta____ kappa____ phi______ frames
    -      110.5703  -30.0000 -150.0000 38

#__ type_ start__ end____ width___ exp.time_
  7 omega  -49.00   34.00   1.0000    2.0000
omega____ theta____ kappa____ phi______ frames
    -      -41.0703   37.0000 -150.0000 83

#__ type_ start__ end____ width___ exp.time_
  8 omega -114.00  -11.00   1.0000    2.0000
omega____ theta____ kappa____ phi______ frames
    -      -41.0703  -57.0000   60.0000 103
;
_diffrn_measurement_device       'kappa diffractometer'
_diffrn_measurement_device_type  'Xcalibur, Sapphire3, Gemini ultra'
_diffrn_measurement_method       '\w scans'
_diffrn_radiation_monochromator  mirror
_diffrn_radiation_probe          x-ray
_diffrn_radiation_type           CuK\a
_diffrn_radiation_wavelength     1.54184
_diffrn_reflns_av_R_equivalents  0.0284
_diffrn_reflns_av_unetI/netI     0.0363
_diffrn_reflns_Laue_measured_fraction_full 0.988
_diffrn_reflns_Laue_measured_fraction_max 0.988
_diffrn_reflns_limit_h_max       31
_diffrn_reflns_limit_h_min       -26
_diffrn_reflns_limit_k_max       12
_diffrn_reflns_limit_k_min       -12
_diffrn_reflns_limit_l_max       41
_diffrn_reflns_limit_l_min       -41
_diffrn_reflns_number            30575
_diffrn_reflns_point_group_measured_fraction_full 0.821
_diffrn_reflns_point_group_measured_fraction_max 0.821
_diffrn_reflns_theta_full        66.500
_diffrn_reflns_theta_max         66.986
_diffrn_reflns_theta_min         4.206
_diffrn_source                   'sealed X-ray tube'
_diffrn_source_current           35
_diffrn_source_power             1.75
_diffrn_source_target            Cu
_diffrn_source_voltage           50
_exptl_absorpt_coefficient_mu    6.115
_exptl_absorpt_correction_T_max  1.00000
_exptl_absorpt_correction_T_min  0.62828
_exptl_absorpt_correction_type   multi-scan
_exptl_absorpt_process_details
;
CrysAlisPro, Agilent Technologies,
Version 1.171.37.35 (release 13-08-2014 CrysAlis171 .NET)
(compiled Aug 13 2014,18:06:01)
Empirical absorption correction using spherical harmonics,
 implemented in SCALE3 ABSPACK scaling algorithm.
;
_exptl_crystal_colour            violet
_exptl_crystal_colour_primary    violet
_exptl_crystal_density_diffrn    1.564
_exptl_crystal_description       block
_exptl_crystal_F_000             4560
_exptl_crystal_size_max          0.28
_exptl_crystal_size_mid          0.12
_exptl_crystal_size_min          0.1
_refine_diff_density_max         1.398
_refine_diff_density_min         -0.828
_refine_diff_density_rms         0.073
_refine_ls_abs_structure_details
;
 Flack x determined using 4941 quotients [(I+)-(I-)]/[(I+)+(I-)]
 (Parsons, Flack and Wagner, Acta Cryst. B69 (2013) 249-259).
;
_refine_ls_abs_structure_Flack   -0.024(4)
_refine_ls_extinction_method     none
_refine_ls_goodness_of_fit_ref   1.046
_refine_ls_hydrogen_treatment    constr
_refine_ls_matrix_type           full
_refine_ls_number_parameters     1405
_refine_ls_number_reflns         14064
_refine_ls_number_restraints     247
_refine_ls_restrained_S_all      1.042
_refine_ls_R_factor_all          0.0279
_refine_ls_R_factor_gt           0.0264
_refine_ls_shift/su_max          0.004
_refine_ls_shift/su_mean         0.000
_refine_ls_structure_factor_coef Fsqd
_refine_ls_weighting_details
'w=1/[\s^2^(Fo^2^)+(0.0316P)^2^+5.2018P] where P=(Fo^2^+2Fc^2^)/3'
_refine_ls_weighting_scheme      calc
_refine_ls_wR_factor_gt          0.0641
_refine_ls_wR_factor_ref         0.0651
_reflns_Friedel_coverage         0.633
_reflns_Friedel_fraction_full    0.647
_reflns_Friedel_fraction_max     0.648
_reflns_number_gt                13582
_reflns_number_total             14064
_reflns_threshold_expression     'I > 2\s(I)'
_cod_data_source_file            c9dt00244h2.cif
_cod_data_source_block           benson47cult
_cod_original_cell_volume        9598.03(17)
_cod_database_code               7701728
_shelx_shelxl_version_number     2014/7
_shelx_space_group_comment
;
The symmetry employed for this shelxl refinement is uniquely defined
by the following loop, which should always be used as a source of
symmetry information in preference to the above space-group names.
They are only intended as comments.
;
_olex2_refinement_description
;
1. Fixed Uiso
 At 1.2 times of:
  All C(H) groups, {H1WA,H1WB} of O1W, {H1AA,H1AB} of O1A, All C(H,H) groups
 At 1.5 times of:
  {H1A,H1B} of O1
2. Restrained distances
 C82A-C81A \\sim C83A-C82A \\sim C83A-C84A \\sim C84A-C85A \\sim C85A-C86A
\\sim C81A-C86A
 with sigma of 0.02
 C82B-C81B \\sim C83B-C82B \\sim C83B-C84B \\sim C84B-C85B \\sim C85B-C86B
\\sim C81B-C86B
 with sigma of 0.02
 C21A-C26A \\sim C21A-C22A \\sim C22A-C23A \\sim C24A-C23A \\sim C25A-C24A
\\sim C25A-C26A
 with sigma of 0.02
 C21B-C22B \\sim C22B-C23B \\sim C24B-C23B \\sim C25B-C24B \\sim C25B-C26B
\\sim C21B-C26B
 with sigma of 0.02
3. Restrained planarity
 C81A, C82A, C83A, C84A, C85A, C86A
 with sigma of 0.1
 C81B, C82B, C83B, C84B, C85B, C86B
 with sigma of 0.1
4. Rigid body (RIGU) restrains
 P1A, C81B, C82B, C83B, C84B, C85B, C86B
 with sigma for 1-2 distances of 0.001 and sigma for 1-3 distances of 0.001
 C1A, C21B, C22B, C23B, C24B, C25B, C26B
 with sigma for 1-2 distances of 0.001 and sigma for 1-3 distances of 0.001
 P1A, C81A, C82A, C83A, C84A, C85A, C86A
 with sigma for 1-2 distances of 0.001 and sigma for 1-3 distances of 0.001
 C1A, C21A, C22A, C23A, C24A, C25A, C26A
 with sigma for 1-2 distances of 0.001 and sigma for 1-3 distances of 0.001
5. Others
 Fixed Sof: C21B(0.35) C21A(0.65) C22B(0.35) H22B(0.35) C22A(0.65) H22A(0.65)
 C23B(0.35) H23B(0.35) C23A(0.65) H23A(0.65) C24B(0.35) H24B(0.35) C24A(0.65)
 H24A(0.65) C25B(0.35) H25B(0.35) C25A(0.65) H25A(0.65) C26B(0.35) H26B(0.35)
 C26A(0.65) H26A(0.65) C81B(0.5) C81A(0.5) C82B(0.5) H82B(0.5) C82A(0.5)
 H82A(0.5) C83B(0.5) H83B(0.5) C83A(0.5) H83A(0.5) C84B(0.5) H84B(0.5)
 C84A(0.5) H84A(0.5) C85B(0.5) H85B(0.5) C85A(0.5) H85A(0.5) C86B(0.5)
 H86B(0.5) C86A(0.5) H86A(0.5)
6.a Riding coordinates:
 O1(H1A,H1B), O1A(H1AA,H1AB), O1W(H1WA,H1WB)
6.b Secondary CH2 refined with riding coordinates:
 C2S(H2SA,H2SB), C3S(H3SA,H3SB), C4S(H4SA,H4SB), C5S(H5SA,H5SB)
6.c Aromatic/amide H refined with riding coordinates:
 C3(H3), C4(H4), C8(H8), C9(H9), C13(H13), C14(H14), C18(H18), C19(H19),
 C22(H22), C23(H23), C24(H24), C25(H25), C26(H26), C32(H32), C33(H33), C34(H34),
  C35(H35), C36(H36), C42(H42), C43(H43), C44(H44), C45(H45), C46(H46),
 C52(H52), C53(H53), C54(H54), C55(H55), C56(H56), C62(H62), C63(H63), C64(H64),
  C65(H65), C66(H66), C72(H72), C73(H73), C74(H74), C75(H75), C76(H76),
 C82(H82), C83(H83), C84(H84), C85(H85), C86(H86), C3A(H3A), C4A(H4A), C8A(H8A),
  C9A(H9A), C13A(H13A), C14A(H14A), C18A(H18A), C19A(H19A), C22B(H22B),
 C22A(H22A), C23B(H23B), C23A(H23A), C24B(H24B), C24A(H24A), C25B(H25B),
 C25A(H25A), C26B(H26B), C26A(H26A), C32A(H32A), C33A(H33A), C34A(H34A),
 C35A(H35A), C36A(H36A), C42A(H42A), C43A(H43A), C44A(H44A), C45A(H45A),
 C46A(H46A), C52A(H52A), C53A(H53A), C54A(H54A), C55A(H55A), C56A(H56A),
 C62A(H62A), C63A(H63A), C64A(H64A), C65A(H65A), C66A(H66A), C72A(H72A),
 C73A(H73A), C74A(H74A), C75A(H75A), C76A(H76A), C82B(H82B), C82A(H82A),
 C83B(H83B), C83A(H83A), C84B(H84B), C84A(H84A), C85B(H85B), C85A(H85A),
 C86B(H86B), C86A(H86A)
;
_shelx_res_file
;
    benson47cult.res created by SHELXL-2014/7

TITL benson47CuLT in Pca21 #29
REM reset to Pca21 #29
CELL 1.54184 26.242699 10.413318 35.122403 90 90 90
ZERR 4 0.00024 0.000125 0.000308 0 0 0
LATT -1
SYMM -X,-Y,0.5+Z
SYMM 0.5-X,+Y,0.5+Z
SYMM 0.5+X,-Y,+Z
SFAC C H Ir N O P
UNIT 512 400 8 32 16 8
SADI C82A C81A C83A C82A C83A C84A C84A C85A C85A C86A C81A C86A
SADI C82B C81B C83B C82B C83B C84B C84B C85B C85B C86B C81B C86B
SADI C21A C26A C21A C22A C22A C23A C24A C23A C25A C24A C25A C26A
SADI C21B C22B C22B C23B C24B C23B C25B C24B C25B C26B C21B C26B
FLAT C81A C82A C83A C84A C85A C86A
FLAT C81B C82B C83B C84B C85B C86B
RIGU 0.001 0.001 P1A C81B C82B C83B C84B C85B C86B
RIGU 0.001 0.001 C1A C21B C22B C23B C24B C25B C26B
RIGU 0.001 0.001 P1A C81A C82A C83A C84A C85A C86A
RIGU 0.001 0.001 C1A C21A C22A C23A C24A C25A C26A

L.S. 6
PLAN  60
TEMP -173.05(10)
HTAB O1W O1A
BOND
fmap 2
acta 133
OMIT 0 134
OMIT 2 3 -6
OMIT 4 0 3
OMIT 5 1 4
OMIT 10 1 0
OMIT 6 3 7
OMIT 9 3 -1
OMIT 0 0 8
OMIT 0 3 2
OMIT 4 2 3
OMIT 0 2 0
OMIT 9 1 0
OMIT 2 0 4
OMIT 5 3 0
OMIT 1 1 0
OMIT 6 0 8
OMIT 4 0 0
OMIT 6 0 16
OMIT 0 3 -2
OMIT 1 3 0
OMIT 0 2 2
OMIT 5 2 12
OMIT 0 1 2
OMIT 12 2 4
OMIT 2 1 13
OMIT 12 2 0
OMIT 12 1 2
OMIT 4 1 10
OMIT 8 1 0
OMIT 2 1 4
OMIT 2 1 0
OMIT 20 9 -8
OMIT 0 2 4
OMIT 14 1 0
OMIT 2 3 -4
OMIT 1 3 4
OMIT 8 0 1
OMIT 12 1 -2
OMIT 4 3 9
OMIT 1 3 -4
OMIT 10 6 -34
OMIT 2 3 -3
OMIT 1 1 8
OMIT 6 0 4
OMIT 1 8 32
OMIT 8 1 10
OMIT 2 3 3
OMIT 2 4 5
OMIT 5 3 4
OMIT 28 5 -6
OMIT 25 7 -9
OMIT 3 2 10
OMIT 10 0 4
OMIT 6 1 5
OMIT 0 0 -40
REM <olex2.extras>
REM <HklSrc "%.\\benson47CuLT.hkl">
REM </olex2.extras>

WGHT    0.031600    5.201800
FVAR       1.18779
IR1   3    0.760154    0.645063    0.508640    11.00000    0.01735    0.02561 =
         0.01996   -0.00220    0.00161   -0.00169
P1    6    0.702675    0.813083    0.501717    11.00000    0.01772    0.02878 =
         0.02266   -0.00191    0.00141    0.00026
O1    5    0.811724    0.497226    0.515883    11.00000    0.02682    0.03419 =
         0.02823   -0.00411    0.00329    0.00504
AFIX   3
H1A   2    0.814924    0.448826    0.492073    11.00000   -1.50000
H1B   2    0.844954    0.533046    0.522863    11.00000   -1.50000
AFIX   0
N1    4    0.789855    0.714665    0.558579    11.00000    0.02247    0.02791 =
         0.02229   -0.00142    0.00360   -0.00305
N2    4    0.815108    0.738185    0.478891    11.00000    0.02151    0.02619 =
         0.02245   -0.00684    0.00122   -0.00208
N3    4    0.736764    0.558332    0.459284    11.00000    0.02261    0.02835 =
         0.02069    0.00027    0.00364   -0.00044
N4    4    0.710239    0.535381    0.539162    11.00000    0.02420    0.02709 =
         0.01971   -0.00353    0.00063   -0.00372
C0AA  1    0.739191    0.586917    0.604234    11.00000    0.02235    0.03967 =
         0.02235    0.00041   -0.00025    0.00033
C2    1    0.775390    0.679332    0.594430    11.00000    0.02238    0.03759 =
         0.02305   -0.00587    0.00240   -0.00592
C3    1    0.806396    0.750177    0.621307    11.00000    0.02823    0.05055 =
         0.02445   -0.01022    0.00553   -0.00616
AFIX  43
H3    2    0.803788    0.746775    0.648266    11.00000   -1.20000
AFIX   0
C4    1    0.839451    0.821439    0.601275    11.00000    0.02832    0.04787 =
         0.02998   -0.01006   -0.00247   -0.00981
AFIX  43
H4    2    0.864374    0.877991    0.611459    11.00000   -1.20000
AFIX   0
C5    1    0.830355    0.796803    0.561736    11.00000    0.02404    0.03264 =
         0.02685   -0.00699   -0.00320   -0.00050
C6    1    0.861161    0.840901    0.532378    11.00000    0.01791    0.02874 =
         0.03215   -0.01004    0.00256   -0.00156
C7    1    0.854450    0.813148    0.493746    11.00000    0.01719    0.03098 =
         0.02934   -0.00446    0.00597   -0.00911
C8    1    0.885312    0.860714    0.463234    11.00000    0.02158    0.03277 =
         0.03498   -0.00397    0.00394   -0.00907
AFIX  43
H8    2    0.914403    0.914335    0.465769    11.00000   -1.20000
AFIX   0
C9    1    0.865903    0.816187    0.430372    11.00000    0.02320    0.03676 =
         0.03101    0.00501    0.00560   -0.00417
AFIX  43
H9    2    0.878807    0.832470    0.405566    11.00000   -1.20000
AFIX   0
C10   1    0.821851    0.739064    0.439630    11.00000    0.02122    0.03000 =
         0.02319   -0.00118    0.00608    0.00145
C11   1    0.793283    0.667802    0.413585    11.00000    0.02086    0.02848 =
         0.02544   -0.00419    0.00394    0.00105
C12   1    0.755131    0.579960    0.423360    11.00000    0.02505    0.03096 =
         0.02412   -0.00716    0.00000    0.00401
C13   1    0.727271    0.500946    0.397098    11.00000    0.02775    0.03642 =
         0.02461   -0.00752    0.00009   -0.00418
AFIX  43
H13   2    0.732880    0.495699    0.370422    11.00000   -1.20000
AFIX   0
C14   1    0.691901    0.435774    0.416848    11.00000    0.03551    0.03681 =
         0.02354   -0.00272    0.00011   -0.00800
AFIX  43
H14   2    0.667846    0.376797    0.406708    11.00000   -1.20000
AFIX   0
C15   1    0.697160    0.471733    0.456166    11.00000    0.02487    0.02534 =
         0.02797   -0.00575   -0.00215   -0.00344
C16   1    0.666131    0.429491    0.485920    11.00000    0.02217    0.02498 =
         0.02913   -0.00064    0.00023   -0.00508
C17   1    0.673106    0.457491    0.524270    11.00000    0.02698    0.02426 =
         0.02573    0.00126    0.00177   -0.00183
C18   1    0.646320    0.396252    0.554645    11.00000    0.03231    0.03400 =
         0.03214    0.00081    0.00025   -0.01114
AFIX  43
H18   2    0.617957    0.340180    0.552173    11.00000   -1.20000
AFIX   0
C19   1    0.668774    0.432785    0.587612    11.00000    0.03020    0.04472 =
         0.02710    0.00374   -0.00185   -0.00710
AFIX  43
H19   2    0.659625    0.404760    0.612428    11.00000   -1.20000
AFIX   0
C20   1    0.708611    0.520824    0.578498    11.00000    0.02946    0.02908 =
         0.02242    0.00359    0.00427   -0.00316
C21   1    0.733401    0.555648    0.645664    11.00000    0.03428    0.03171 =
         0.02179   -0.00428   -0.00013   -0.00247
C22   1    0.687369    0.570967    0.665108    11.00000    0.03550    0.03419 =
         0.02660    0.00315    0.00059   -0.00118
AFIX  43
H22   2    0.658563    0.603777    0.651926    11.00000   -1.20000
AFIX   0
C23   1    0.682928    0.538936    0.703561    11.00000    0.04259    0.04173 =
         0.02592   -0.00300    0.00913   -0.00410
AFIX  43
H23   2    0.651177    0.548291    0.716254    11.00000   -1.20000
AFIX   0
C24   1    0.724639    0.493903    0.722909    11.00000    0.05959    0.07001 =
         0.02329    0.00531    0.00388    0.01469
AFIX  43
H24   2    0.721754    0.472617    0.749122    11.00000   -1.20000
AFIX   0
C25   1    0.771012    0.479207    0.704480    11.00000    0.05486    0.08576 =
         0.03269    0.00525   -0.00452    0.02780
AFIX  43
H25   2    0.799891    0.449014    0.718113    11.00000   -1.20000
AFIX   0
C26   1    0.775136    0.508844    0.665913    11.00000    0.03598    0.06704 =
         0.02762   -0.00369    0.00012    0.01143
AFIX  43
H26   2    0.806787    0.497003    0.653264    11.00000   -1.20000
AFIX   0
C31   1    0.906552    0.924227    0.542009    11.00000    0.02460    0.04324 =
         0.02248   -0.00325   -0.00071   -0.00649
C32   1    0.900035    1.050346    0.552436    11.00000    0.02845    0.04294 =
         0.05298   -0.00769   -0.00434   -0.01186
AFIX  43
H32   2    0.866651    1.085427    0.553544    11.00000   -1.20000
AFIX   0
C33   1    0.941731    1.127484    0.561407    11.00000    0.04971    0.03998 =
         0.05376    0.00068   -0.00773   -0.01749
AFIX  43
H33   2    0.936927    1.214781    0.568395    11.00000   -1.20000
AFIX   0
C34   1    0.990384    1.075276    0.560013    11.00000    0.03075    0.06340 =
         0.03469   -0.00566    0.00325   -0.02202
AFIX  43
H34   2    1.019100    1.127198    0.565868    11.00000   -1.20000
AFIX   0
C35   1    0.997014    0.949995    0.550287    11.00000    0.02473    0.07581 =
         0.04404   -0.00801    0.00097   -0.01336
AFIX  43
H35   2    1.030378    0.914650    0.549714    11.00000   -1.20000
AFIX   0
C36   1    0.954985    0.872234    0.541070    11.00000    0.02627    0.05295 =
         0.04076   -0.01331    0.00327   -0.00873
AFIX  43
H36   2    0.959836    0.784793    0.534262    11.00000   -1.20000
AFIX   0
C41   1    0.805805    0.686349    0.372255    11.00000    0.02031    0.03209 =
         0.02363   -0.00145    0.00134   -0.00202
C42   1    0.799997    0.808054    0.355596    11.00000    0.03125    0.02630 =
         0.02937   -0.00218    0.00218   -0.00104
AFIX  43
H42   2    0.787219    0.877364    0.370367    11.00000   -1.20000
AFIX   0
C43   1    0.812835    0.827865    0.317583    11.00000    0.03362    0.03472 =
         0.03939    0.00291    0.00021   -0.00705
AFIX  43
H43   2    0.808415    0.910027    0.306301    11.00000   -1.20000
AFIX   0
C44   1    0.832342    0.725584    0.296079    11.00000    0.02866    0.05491 =
         0.02386    0.00341    0.00308   -0.00416
AFIX  43
H44   2    0.841798    0.738658    0.270259    11.00000   -1.20000
AFIX   0
C45   1    0.837752    0.606660    0.312370    11.00000    0.02622    0.04244 =
         0.02558   -0.00642   -0.00141    0.00718
AFIX  43
H45   2    0.850565    0.537278    0.297646    11.00000   -1.20000
AFIX   0
C46   1    0.824620    0.586880    0.350280    11.00000    0.02348    0.03631 =
         0.02816    0.00017    0.00019    0.00047
AFIX  43
H46   2    0.828622    0.504044    0.361212    11.00000   -1.20000
AFIX   0
C51   1    0.621705    0.344845    0.475979    11.00000    0.02638    0.02923 =
         0.02250    0.00070   -0.00170   -0.00800
C52   1    0.571967    0.392880    0.476502    11.00000    0.02763    0.03043 =
         0.03529   -0.00003    0.00570    0.00007
AFIX  43
H52   2    0.565903    0.480173    0.482924    11.00000   -1.20000
AFIX   0
C53   1    0.531569    0.312733    0.467621    11.00000    0.02259    0.05033 =
         0.03496   -0.00311   -0.00021   -0.00644
AFIX  43
H53   2    0.497804    0.345547    0.468295    11.00000   -1.20000
AFIX   0
C54   1    0.539486    0.186913    0.457880    11.00000    0.03401    0.04191 =
         0.03443   -0.00259   -0.00319   -0.01659
AFIX  43
H54   2    0.511514    0.133255    0.451421    11.00000   -1.20000
AFIX   0
C55   1    0.588197    0.139184    0.457547    11.00000    0.04765    0.02935 =
         0.05257   -0.00613   -0.00169   -0.00420
AFIX  43
H55   2    0.593737    0.051500    0.451332    11.00000   -1.20000
AFIX   0
C56   1    0.629702    0.217528    0.466199    11.00000    0.02885    0.03038 =
         0.04819   -0.00333    0.00494   -0.00230
AFIX  43
H56   2    0.663314    0.183760    0.465393    11.00000   -1.20000
AFIX   0
C61   1    0.676265    0.880529    0.546135    11.00000    0.02376    0.03822 =
         0.02190   -0.00399   -0.00157   -0.00285
C62   1    0.654322    0.796667    0.571891    11.00000    0.03312    0.02956 =
         0.03894   -0.00026    0.00710    0.00066
AFIX  43
H62   2    0.658199    0.706846    0.568146    11.00000   -1.20000
AFIX   0
C63   1    0.626958    0.839926    0.602872    11.00000    0.03779    0.03711 =
         0.03358    0.00170    0.00543    0.00253
AFIX  43
H63   2    0.611687    0.780400    0.619900    11.00000   -1.20000
AFIX   0
C64   1    0.621992    0.967940    0.608871    11.00000    0.05071    0.04634 =
         0.03065   -0.00111    0.00920   -0.00008
AFIX  43
H64   2    0.603329    0.997999    0.630266    11.00000   -1.20000
AFIX   0
C65   1    0.644247    1.056448    0.583676    11.00000    0.07309    0.03873 =
         0.04397   -0.00994    0.01841    0.00352
AFIX  43
H65   2    0.641244    1.146032    0.588271    11.00000   -1.20000
AFIX   0
C66   1    0.671078    1.011572    0.551514    11.00000    0.05111    0.03594 =
         0.03540   -0.00063    0.00711   -0.00324
AFIX  43
H66   2    0.685372    1.070399    0.533813    11.00000   -1.20000
AFIX   0
C71   1    0.730267    0.951147    0.476457    11.00000    0.02233    0.03666 =
         0.03657    0.00691    0.00864    0.00369
C72   1    0.765913    1.025481    0.496253    11.00000    0.02335    0.05215 =
         0.05152    0.01471   -0.00414   -0.00721
AFIX  43
H72   2    0.774890    1.002967    0.521593    11.00000   -1.20000
AFIX   0
C73   1    0.787894    1.129864    0.479561    11.00000    0.02797    0.06533 =
         0.06932    0.02035   -0.00412   -0.00582
AFIX  43
H73   2    0.811647    1.180003    0.493548    11.00000   -1.20000
AFIX   0
C74   1    0.775831    1.164397    0.441792    11.00000    0.04461    0.04709 =
         0.06594    0.01676    0.01858    0.00765
AFIX  43
H74   2    0.790445    1.238559    0.430440    11.00000   -1.20000
AFIX   0
C75   1    0.742890    1.089314    0.422051    11.00000    0.06615    0.04807 =
         0.04048    0.00388    0.01815    0.00774
AFIX  43
H75   2    0.735796    1.108496    0.396144    11.00000   -1.20000
AFIX   0
C76   1    0.718858    0.982386    0.439595    11.00000    0.05033    0.03410 =
         0.03286    0.00225    0.00591    0.00659
AFIX  43
H76   2    0.694866    0.932567    0.425736    11.00000   -1.20000
AFIX   0
C81   1    0.643139    0.780075    0.475989    11.00000    0.02302    0.03441 =
         0.02966   -0.00180    0.00138    0.00200
C82   1    0.644455    0.729060    0.439620    11.00000    0.02873    0.04511 =
         0.03331   -0.00227   -0.00091    0.00867
AFIX  43
H82   2    0.676350    0.710587    0.428059    11.00000   -1.20000
AFIX   0
C83   1    0.599442    0.704428    0.419722    11.00000    0.03793    0.06358 =
         0.03023   -0.01460   -0.01067    0.00799
AFIX  43
H83   2    0.600949    0.669806    0.394723    11.00000   -1.20000
AFIX   0
C84   1    0.552881    0.730028    0.436124    11.00000    0.02933    0.04968 =
         0.05085   -0.00914   -0.01342   -0.00016
AFIX  43
H84   2    0.522296    0.712426    0.422629    11.00000   -1.20000
AFIX   0
C85   1    0.550978    0.781219    0.472153    11.00000    0.02041    0.04329 =
         0.04836   -0.00116    0.00165    0.00203
AFIX  43
H85   2    0.518926    0.799273    0.483529    11.00000   -1.20000
AFIX   0
C86   1    0.595284    0.806600    0.491935    11.00000    0.02874    0.03825 =
         0.02924   -0.00184    0.00469    0.00079
AFIX  43
H86   2    0.593338    0.842606    0.516744    11.00000   -1.20000
AFIX   0

IR1A  3    0.476265    0.594131    0.259561    11.00000    0.02016    0.03362 =
         0.02015   -0.00059   -0.00095   -0.00479
P1A   6    0.525453    0.776457    0.267908    11.00000    0.02493    0.03941 =
         0.02672   -0.00343   -0.00202   -0.00926
O1A   5    0.432389    0.431130    0.251346    11.00000    0.02398    0.03289 =
         0.03315    0.00376   -0.00030   -0.00640
AFIX   3
H1AA  2    0.402079    0.452620    0.257056    11.00000   -1.20000
H1AB  2    0.441879    0.378250    0.268366    11.00000   -1.20000
AFIX   0
N1A   4    0.417283    0.675582    0.288362    11.00000    0.02584    0.02960 =
         0.02302    0.00231   -0.00527   -0.00092
N2A   4    0.501379    0.514625    0.309452    11.00000    0.02466    0.04680 =
         0.01906   -0.00207   -0.00131   -0.00107
N3A   4    0.531576    0.497080    0.230098    11.00000    0.02633    0.04295 =
         0.02542   -0.00452    0.00204   -0.00593
N4A   4    0.445970    0.654377    0.209195    11.00000    0.02759    0.03258 =
         0.02118    0.00107   -0.00108   -0.00634
C1A   1    0.374599    0.784972    0.234706    11.00000    0.03166    0.03312 =
         0.02590    0.00139   -0.00468   -0.00233
C2A   1    0.378746    0.751437    0.272885    11.00000    0.02420    0.03368 =
         0.02749    0.00502    0.00136   -0.00279
C3A   1    0.345945    0.793602    0.302682    11.00000    0.02890    0.03796 =
         0.03535   -0.00004   -0.00233    0.00456
AFIX  43
H3A   2    0.316626    0.846199    0.299767    11.00000   -1.20000
AFIX   0
C4A   1    0.363797    0.745826    0.335683    11.00000    0.02681    0.04088 =
         0.02842   -0.00386    0.00268   -0.00002
AFIX  43
H4A   2    0.349227    0.757479    0.360202    11.00000   -1.20000
AFIX   0
C5A   1    0.408794    0.674243    0.326948    11.00000    0.02409    0.03487 =
         0.02217   -0.00056   -0.00065   -0.00733
C6A   1    0.439742    0.611602    0.354042    11.00000    0.02418    0.03539 =
         0.02566    0.00238    0.00177   -0.00608
C7A   1    0.482111    0.535512    0.345480    11.00000    0.02562    0.04095 =
         0.02285    0.00295   -0.00184   -0.00466
C8A   1    0.512283    0.467866    0.372509    11.00000    0.03012    0.04996 =
         0.02901    0.00134   -0.00427    0.00508
AFIX  43
H8A   2    0.507702    0.468269    0.399340    11.00000   -1.20000
AFIX   0
C9A   1    0.549137    0.402014    0.352927    11.00000    0.02677    0.05681 =
         0.03106   -0.00543   -0.00564    0.00535
AFIX  43
H9A   2    0.574438    0.347314    0.363473    11.00000   -1.20000
AFIX   0
C10A  1    0.542025    0.431918    0.313248    11.00000    0.02604    0.04776 =
         0.02932    0.00122   -0.00367    0.00579
C11A  1    0.573807    0.388498    0.283663    11.00000    0.03210    0.03551 =
         0.03270   -0.00831   -0.00034   -0.00394
C12A  1    0.568306    0.418678    0.245452    11.00000    0.02164    0.04277 =
         0.03637   -0.00024    0.00118    0.00456
C13A  1    0.597497    0.363010    0.215220    11.00000    0.03288    0.04725 =
         0.03819   -0.00656   -0.00049    0.00130
AFIX  43
H13A  2    0.625935    0.307403    0.218104    11.00000   -1.20000
AFIX   0
C14A  1    0.577773    0.402889    0.182360    11.00000    0.03494    0.05249 =
         0.03079   -0.00244    0.00180   -0.00394
AFIX  43
H14A  2    0.589162    0.379399    0.157648    11.00000   -1.20000
AFIX   0
C15A  1    0.536232    0.487705    0.190944    11.00000    0.02706    0.04648 =
         0.02630   -0.00729    0.00361   -0.00649
C16A  1    0.503285    0.542064    0.164739    11.00000    0.03393    0.03965 =
         0.02690   -0.00093   -0.00177   -0.01233
C17A  1    0.461618    0.622617    0.173400    11.00000    0.03117    0.03506 =
         0.02427   -0.00223   -0.00181   -0.00871
C18A  1    0.430236    0.685522    0.145946    11.00000    0.04765    0.03862 =
         0.02070    0.00116   -0.00389   -0.00431
AFIX  43
H18A  2    0.433156    0.679543    0.119044    11.00000   -1.20000
AFIX   0
C19A  1    0.395094    0.756178    0.165787    11.00000    0.04486    0.03632 =
         0.03021    0.00653   -0.00882    0.00037
AFIX  43
H19A  2    0.369323    0.809463    0.155239    11.00000   -1.20000
AFIX   0
C20A  1    0.404562    0.734503    0.205469    11.00000    0.03928    0.03544 =
         0.02296    0.00102   -0.00058   -0.00999
PART 1
C21B  1    0.327913    0.866850    0.221486    10.35000    0.03602    0.04296 =
         0.05208    0.01329   -0.00725    0.00070
PART 0
PART 2
C21A  1    0.339572    0.887071    0.224689    10.65000    0.03565    0.03694 =
         0.01152   -0.00052   -0.00169    0.00290
PART 0
PART 1
C22B  1    0.337798    0.998437    0.214399    10.35000    0.03805    0.04210 =
         0.06580    0.01433   -0.00052    0.00210
AFIX  43
H22B  2    0.372235    1.025633    0.216535    10.35000   -1.20000
AFIX   0
PART 0
PART 2
C22A  1    0.358926    1.004284    0.211799    10.65000    0.03912    0.03710 =
         0.02214    0.00167    0.00136    0.00345
AFIX  43
H22A  2    0.394805    1.014434    0.209831    10.65000   -1.20000
AFIX   0
PART 0
PART 1
C23B  1    0.301921    1.092805    0.204540    10.35000    0.03891    0.04555 =
         0.04887    0.01468    0.00540    0.00515
AFIX  43
H23B  2    0.310780    1.178802    0.198401    10.35000   -1.20000
AFIX   0
PART 0
PART 2
C23A  1    0.327764    1.106302    0.201775    10.65000    0.04493    0.04395 =
         0.03271    0.00670    0.00431    0.01015
AFIX  43
H23A  2    0.341798    1.185166    0.193119    10.65000   -1.20000
AFIX   0
PART 0
PART 1
C24B  1    0.251227    1.046615    0.204694    10.35000    0.03972    0.05193 =
         0.09158    0.02911    0.00005    0.00306
AFIX  43
H24B  2    0.225437    1.097711    0.193258    10.35000   -1.20000
AFIX   0
PART 0
PART 2
C24A  1    0.274809    1.089552    0.204803    10.65000    0.04386    0.05321 =
         0.04016    0.01382    0.00336    0.00968
AFIX  43
H24A  2    0.252626    1.158156    0.198231    10.65000   -1.20000
AFIX   0
PART 0
PART 1
C25B  1    0.237388    0.928939    0.220953    10.35000    0.03900    0.06091 =
         0.13497    0.04819    0.00160    0.00394
AFIX  43
H25B  2    0.202575    0.908866    0.225380    10.35000   -1.20000
AFIX   0
PART 0
PART 2
C25A  1    0.254548    0.973968    0.217280    10.65000    0.04194    0.05646 =
         0.05869    0.02143    0.00107    0.00920
AFIX  43
H25A  2    0.218730    0.963563    0.219706    10.65000   -1.20000
AFIX   0
PART 0
PART 1
C26B  1    0.276100    0.840583    0.230659    10.35000    0.03668    0.04615 =
         0.07234    0.01865   -0.00361    0.00053
AFIX  43
H26B  2    0.267508    0.763075    0.243399    10.35000   -1.20000
AFIX   0
PART 0
PART 2
C26A  1    0.287415    0.873332    0.226209    10.65000    0.03607    0.05020 =
         0.04421    0.01487   -0.00225    0.00292
AFIX  43
H26A  2    0.273449    0.792900    0.233559    10.65000   -1.20000
AFIX   0
PART 0
C31A  1    0.425294    0.626798    0.394798    11.00000    0.01598    0.04401 =
         0.02716    0.00104   -0.00133   -0.00081
C32A  1    0.424274    0.747941    0.411727    11.00000    0.02310    0.04069 =
         0.03019    0.00023   -0.00043   -0.00143
AFIX  43
H32A  2    0.431983    0.821377    0.396748    11.00000   -1.20000
AFIX   0
C33A  1    0.412338    0.763710    0.449707    11.00000    0.02756    0.04824 =
         0.03292   -0.01171    0.00013    0.00592
AFIX  43
H33A  2    0.412717    0.846614    0.460992    11.00000   -1.20000
AFIX   0
C34A  1    0.399732    0.655928    0.471184    11.00000    0.02634    0.04731 =
         0.03162   -0.00068    0.00277    0.00263
AFIX  43
H34A  2    0.391006    0.665466    0.497282    11.00000   -1.20000
AFIX   0
C35A  1    0.399804    0.536968    0.455100    11.00000    0.02654    0.04850 =
         0.02566    0.00334    0.00284   -0.00322
AFIX  43
H35A  2    0.390945    0.464109    0.469972    11.00000   -1.20000
AFIX   0
C36A  1    0.412810    0.521716    0.416952    11.00000    0.02728    0.03555 =
         0.02714    0.00002    0.00024   -0.00200
AFIX  43
H36A  2    0.413109    0.438255    0.406032    11.00000   -1.20000
AFIX   0
C41A  1    0.616368    0.299948    0.295043    11.00000    0.02879    0.04806 =
         0.02606   -0.00644   -0.00387    0.00686
C42A  1    0.665901    0.341693    0.294930    11.00000    0.03901    0.04938 =
         0.06435    0.00626    0.00657    0.00435
AFIX  43
H42A  2    0.672779    0.426904    0.286749    11.00000   -1.20000
AFIX   0
C43A  1    0.706101    0.265816    0.306123    11.00000    0.03139    0.06141 =
         0.07866    0.00421   -0.00338    0.00003
AFIX  43
H43A  2    0.739460    0.300765    0.307846    11.00000   -1.20000
AFIX   0
C44A  1    0.697461    0.137872    0.314863    11.00000    0.03930    0.06209 =
         0.05833    0.00162   -0.00092    0.01765
AFIX  43
H44A  2    0.725304    0.082341    0.320128    11.00000   -1.20000
AFIX   0
C45A  1    0.647738    0.091087    0.315891    11.00000    0.05450    0.05170 =
         0.09409    0.00862   -0.00352    0.00325
AFIX  43
H45A  2    0.641204    0.004639    0.323021    11.00000   -1.20000
AFIX   0
C46A  1    0.606974    0.174478    0.306128    11.00000    0.03865    0.04908 =
         0.07929    0.00443   -0.00777    0.00158
AFIX  43
H46A  2    0.572896    0.143913    0.307208    11.00000   -1.20000
AFIX   0
C51A  1    0.511725    0.515676    0.123168    11.00000    0.04226    0.04462 =
         0.02190   -0.00334    0.00443   -0.00003
C52A  1    0.556514    0.550142    0.104474    11.00000    0.04650    0.05525 =
         0.03912    0.00052    0.00917   -0.01081
AFIX  43
H52A  2    0.583185    0.590693    0.118256    11.00000   -1.20000
AFIX   0
C53A  1    0.562524    0.525568    0.065641    11.00000    0.06841    0.04734 =
         0.03781    0.00277    0.01620   -0.00146
AFIX  43
H53A  2    0.593132    0.549088    0.052994    11.00000   -1.20000
AFIX   0
C54A  1    0.523203    0.466237    0.045634    11.00000    0.07104    0.04825 =
         0.02798   -0.00105    0.00560    0.01109
AFIX  43
H54A  2    0.526631    0.450822    0.019098    11.00000   -1.20000
AFIX   0
C55A  1    0.480019    0.430458    0.064020    11.00000    0.05223    0.04373 =
         0.03487   -0.00980   -0.00927    0.00887
AFIX  43
H55A  2    0.453562    0.389641    0.050079    11.00000   -1.20000
AFIX   0
C56A  1    0.473608    0.451935    0.102482    11.00000    0.04327    0.04316 =
         0.02962   -0.00697   -0.00189    0.00072
AFIX  43
H56A  2    0.443485    0.423662    0.114922    11.00000   -1.20000
AFIX   0
C61A  1    0.505005    0.887049    0.306615    11.00000    0.02716    0.04110 =
         0.05868   -0.00826    0.00399   -0.00940
C62A  1    0.460105    0.949122    0.304796    11.00000    0.04315    0.05438 =
         0.06396   -0.00727   -0.00965   -0.00649
AFIX  43
H62A  2    0.437134    0.930242    0.284654    11.00000   -1.20000
AFIX   0
C63A  1    0.446666    1.041120    0.332104    11.00000    0.03866    0.05153 =
         0.08544   -0.00793    0.00293    0.00500
AFIX  43
H63A  2    0.415504    1.086557    0.329275    11.00000   -1.20000
AFIX   0
C64A  1    0.475986    1.066410    0.361575    11.00000    0.04837    0.07002 =
         0.06056   -0.01797    0.01003   -0.00267
AFIX  43
H64A  2    0.466943    1.131785    0.379189    11.00000   -1.20000
AFIX   0
C65A  1    0.520384    0.995722    0.366432    11.00000    0.07345    0.06281 =
         0.05374   -0.01695   -0.00430    0.01655
AFIX  43
H65A  2    0.541321    1.009094    0.388138    11.00000   -1.20000
AFIX   0
C66A  1    0.533533    0.907058    0.339716    11.00000    0.06451    0.07630 =
         0.03218   -0.01499   -0.00175    0.01523
AFIX  43
H66A  2    0.563262    0.856779    0.343710    11.00000   -1.20000
AFIX   0
C71A  1    0.592227    0.740565    0.280200    11.00000    0.02289    0.04359 =
         0.04217   -0.00756    0.00482   -0.00716
C72A  1    0.603057    0.679670    0.313267    11.00000    0.03356    0.07148 =
         0.04306   -0.00739   -0.00539   -0.00065
AFIX  43
H72A  2    0.575977    0.654342    0.329571    11.00000   -1.20000
AFIX   0
C73A  1    0.653632    0.653149    0.323967    11.00000    0.03479    0.08525 =
         0.07381   -0.02482   -0.00743    0.00203
AFIX  43
H73A  2    0.660522    0.610843    0.347371    11.00000   -1.20000
AFIX   0
C74A  1    0.692475    0.688151    0.300776    11.00000    0.03300    0.05586 =
         0.07946   -0.01132   -0.00280    0.00181
AFIX  43
H74A  2    0.726809    0.671739    0.307833    11.00000   -1.20000
AFIX   0
C75A  1    0.681868    0.745158    0.268372    11.00000    0.03378    0.10062 =
         0.10167   -0.00253    0.02411    0.00359
AFIX  43
H75A  2    0.709540    0.766557    0.252128    11.00000   -1.20000
AFIX   0
C76A  1    0.632032    0.777048    0.255902    11.00000    0.04544    0.07919 =
         0.06111    0.00022    0.01737   -0.00879
AFIX  43
H76A  2    0.626018    0.820433    0.232536    11.00000   -1.20000
AFIX   0
PART 1
C81B  1    0.526500    0.890065    0.228266    10.50000    0.05787    0.04615 =
         0.02874    0.00192   -0.00855   -0.02393
PART 0
PART 2
C81A  1    0.533535    0.877868    0.225706    10.50000    0.05290    0.04828 =
         0.03049    0.00347   -0.00828   -0.02530
PART 0
PART 1
C82B  1    0.533474    0.860575    0.191038    10.50000    0.11412    0.04945 =
         0.03005    0.00021    0.00152   -0.02989
AFIX  43
H82B  2    0.536600    0.771706    0.185387    10.50000   -1.20000
AFIX   0
PART 0
PART 2
C82A  1    0.543332    0.817752    0.193001    10.50000    0.04778    0.04648 =
         0.03188    0.00214   -0.00346   -0.03309
AFIX  43
H82A  2    0.547858    0.727273    0.192255    10.50000   -1.20000
AFIX   0
PART 0
PART 1
C83B  1    0.536628    0.942447    0.160303    10.50000    0.12427    0.04986 =
         0.02903    0.00019   -0.00022   -0.03220
AFIX  43
H83B  2    0.542087    0.911609    0.135175    10.50000   -1.20000
AFIX   0
PART 0
PART 2
C83A  1    0.546681    0.889667    0.160643    10.50000    0.08414    0.04768 =
         0.03253    0.00288   -0.00723   -0.04188
AFIX  43
H83A  2    0.551996    0.847013    0.137066    10.50000   -1.20000
AFIX   0
PART 0
PART 1
C84B  1    0.531652    1.065918    0.167696    10.50000    0.12409    0.05006 =
         0.02940    0.00004   -0.00431   -0.03132
AFIX  43
H84B  2    0.534867    1.126646    0.147654    10.50000   -1.20000
AFIX   0
PART 0
PART 2
C84A  1    0.542721    1.020212    0.160719    10.50000    0.18278    0.04765 =
         0.03602    0.00274   -0.00331   -0.03231
AFIX  43
H84A  2    0.550285    1.067812    0.138347    10.50000   -1.20000
AFIX   0
PART 0
PART 1
C85B  1    0.521831    1.107903    0.204205    10.50000    0.11677    0.04821 =
         0.02780    0.00246   -0.00855   -0.02371
AFIX  43
H85B  2    0.516506    1.196622    0.209090    10.50000   -1.20000
AFIX   0
PART 0
PART 2
C85A  1    0.527931    1.081736    0.192896    10.50000    0.14194    0.05013 =
         0.03262    0.00223   -0.01866   -0.02698
AFIX  43
H85A  2    0.520327    1.170919    0.193310    10.50000   -1.20000
AFIX   0
PART 0
PART 1
C86B  1    0.519812    1.020674    0.233388    10.50000    0.04360    0.04593 =
         0.02702    0.00105   -0.01424   -0.02543
AFIX  43
H86B  2    0.513497    1.051490    0.258405    10.50000   -1.20000
AFIX   0
PART 0
PART 2
C86A  1    0.524723    1.006539    0.224687    10.50000    0.23453    0.05370 =
         0.03952    0.00761    0.01112    0.00472
AFIX  43
H86A  2    0.515621    1.047335    0.247904    10.50000   -1.20000
AFIX   0

PART 0
O1S   5    0.849780    0.256491    0.619580    11.00000    0.08054    0.12028 =
         0.07156   -0.00813   -0.01044   -0.00977
C2S   1    0.817114    0.177119    0.642890    11.00000    0.08440    0.15320 =
         0.06469   -0.00682   -0.00338   -0.03106
AFIX  23
H2SA  2    0.815561    0.210878    0.669215    11.00000   -1.20000
H2SB  2    0.830035    0.087842    0.643712    11.00000   -1.20000
AFIX   0
C3S   1    0.763610    0.181627    0.624027    11.00000    0.09393    0.19889 =
         0.07555   -0.02703   -0.00136   -0.00654
AFIX  23
H3SA  2    0.740724    0.242099    0.637468    11.00000   -1.20000
H3SB  2    0.747643    0.095516    0.623433    11.00000   -1.20000
AFIX   0
C4S   1    0.776530    0.230602    0.582620    11.00000    0.06780    0.13238 =
         0.08181   -0.03220   -0.00843    0.01266
AFIX  23
H4SA  2    0.781963    0.156506    0.565432    11.00000   -1.20000
H4SB  2    0.747844    0.282172    0.572554    11.00000   -1.20000
AFIX   0
C5S   1    0.824220    0.311713    0.584360    11.00000    0.06388    0.06685 =
         0.09457   -0.02980   -0.00558    0.01387
AFIX  23
H5SA  2    0.816099    0.403910    0.587596    11.00000   -1.20000
H5SB  2    0.845570    0.300263    0.561370    11.00000   -1.20000
AFIX   0

O1W   5    0.424977    0.293195    0.186569    11.00000    0.07101    0.08804 =
         0.08078   -0.03587    0.00867   -0.00847
AFIX   3
H1WA  2    0.426587    0.344545    0.205339    11.00000   -1.20000
H1WB  2    0.435577    0.220345    0.194059    11.00000   -1.20000
AFIX   0
HKLF 4

REM  benson47CuLT in Pca21 #29
REM R1 =  0.0264 for   13582 Fo > 4sig(Fo)  and  0.0279 for all   14064 data
REM   1405 parameters refined using    247 restraints

END

WGHT      0.0315      5.2229

REM Highest difference peak  1.398,  deepest hole -0.828,  1-sigma level  0.073
Q1    1   0.4724  0.6771  0.2588  11.00000  0.05    1.40
Q2    1   0.7596  0.5538  0.5084  11.00000  0.05    0.66
Q3    1   0.7615  0.7291  0.5100  11.00000  0.05    0.62
Q4    1   0.5420  0.3551  0.2599  11.00000  0.05    0.56
Q5    1   0.4885  0.4795  0.2609  11.00000  0.05    0.53
Q6    1   0.6257  0.6730  0.2548  11.00000  0.05    0.51
Q7    1   0.6124  0.7751  0.3133  11.00000  0.05    0.50
Q8    1   0.6730  0.6515  0.2591  11.00000  0.05    0.49
Q9    1   0.5903  0.9440  0.2188  11.00000  0.05    0.46
Q10   1   0.4817  1.0289  0.2807  11.00000  0.05    0.43
Q11   1   0.4642  1.1161  0.3046  11.00000  0.05    0.43
Q12   1   0.4981  0.9121  0.3330  11.00000  0.05    0.43
Q13   1   0.6613  0.0955  0.2892  11.00000  0.05    0.42
Q14   1   0.8511  0.3777  0.5715  11.00000  0.05    0.42
Q15   1   0.5066  0.9039  0.1891  11.00000  0.05    0.41
Q16   1   0.6631  0.7500  0.3182  11.00000  0.05    0.38
Q17   1   0.2916  0.8199  0.1960  11.00000  0.05    0.38
Q18   1   0.4885  0.3856  0.2596  11.00000  0.05    0.37
Q19   1   0.2478  0.8881  0.1853  11.00000  0.05    0.37
Q20   1   0.6097  0.7799  0.2026  11.00000  0.05    0.37
Q21   1   0.8038  0.3073  0.5625  11.00000  0.05    0.36
Q22   1   0.5428  0.5978  0.2865  11.00000  0.05    0.35
Q23   1   0.4092  0.5875  0.2929  11.00000  0.05    0.35
Q24   1   0.4609  1.1326  0.3344  11.00000  0.05    0.34
Q25   1   0.7611  0.7369  0.4872  11.00000  0.05    0.34
Q26   1   0.6041  1.0217  0.1872  11.00000  0.05    0.33
Q27   1   0.6943  0.6182  0.5356  11.00000  0.05    0.33
Q28   1   0.6215  0.1846  0.2805  11.00000  0.05    0.32
Q29   1   0.4426  0.3116  0.2519  11.00000  0.05    0.31
Q30   1   0.7491  0.1132  0.3318  11.00000  0.05    0.31
Q31   1   0.4759  1.1126  0.2598  11.00000  0.05    0.31
Q32   1   0.5427  0.5853  0.2291  11.00000  0.05    0.30
Q33   1   0.5012  0.9373  0.2889  11.00000  0.05    0.29
Q34   1   0.4438  0.4960  0.2579  11.00000  0.05    0.29
Q35   1   0.6602  0.3595  0.3191  11.00000  0.05    0.28
Q36   1   0.4873  0.9947  0.3552  11.00000  0.05    0.28
Q37   1   0.5399  0.8620  0.2154  11.00000  0.05    0.28
Q38   1   0.4117  0.5841  0.2253  11.00000  0.05    0.28
Q39   1   0.8016  0.4118  0.5147  11.00000  0.05    0.28
Q40   1   0.6900  0.6249  0.4865  11.00000  0.05    0.27
Q41   1   0.7210  0.7022  0.5065  11.00000  0.05    0.26
Q42   1   0.8328  0.6371  0.4817  11.00000  0.05    0.26
Q43   1   0.7145  0.5215  0.4635  11.00000  0.05    0.26
Q44   1   0.5185  0.2629  0.2698  11.00000  0.05    0.26
Q45   1   0.4898  0.6020  0.2298  11.00000  0.05    0.25
Q46   1   0.5430  0.4390  0.2425  11.00000  0.05    0.25
Q47   1   0.7549  0.4255  0.5076  11.00000  0.05    0.25
Q48   1   0.4644  0.5956  0.2874  11.00000  0.05    0.25
Q49   1   0.6900  0.9172  0.2576  11.00000  0.05    0.25
Q50   1   0.5700  1.0590  0.1576  11.00000  0.05    0.25
Q51   1   0.5457  0.5227  0.3131  11.00000  0.05    0.25
Q52   1   0.5165  0.5286  0.2390  11.00000  0.05    0.25
Q53   1   0.7626  0.3950  0.6950  11.00000  0.05    0.24
Q54   1   0.6822  0.7204  0.4926  11.00000  0.05    0.24
Q55   1   0.6483  0.8049  0.4526  11.00000  0.05    0.24
Q56   1   0.6569  0.4934  0.5072  11.00000  0.05    0.24
Q57   1   0.7499  1.0772  0.5064  11.00000  0.05    0.24
Q58   1   0.7487  0.4855  0.4642  11.00000  0.05    0.24
Q59   1   0.7940  0.4511  0.5323  11.00000  0.05    0.23
Q60   1   0.4591  0.8984  0.1811  11.00000  0.05    0.23
;
_shelx_res_checksum              49030
_olex2_submission_special_instructions 'No special instructions were received'
loop_
_space_group_symop_operation_xyz
'x, y, z'
'-x, -y, z+1/2'
'-x+1/2, y, z+1/2'
'x+1/2, -y, z'
loop_
_atom_site_label
_atom_site_type_symbol
_atom_site_fract_x
_atom_site_fract_y
_atom_site_fract_z
_atom_site_U_iso_or_equiv
_atom_site_adp_type
_atom_site_occupancy
_atom_site_site_symmetry_order
_atom_site_calc_flag
_atom_site_refinement_flags_posn
_atom_site_refinement_flags_adp
_atom_site_refinement_flags_occupancy
_atom_site_disorder_assembly
_atom_site_disorder_group
Ir1 Ir 0.76015(2) 0.64506(2) 0.50864(2) 0.02097(6) Uani 1 1 d . . . . .
P1 P 0.70267(5) 0.81308(14) 0.50172(4) 0.0231(3) Uani 1 1 d . . . . .
O1 O 0.81172(15) 0.4972(4) 0.51588(12) 0.0297(9) Uani 1 1 d . . . . .
H1A H 0.8149 0.4488 0.4921 0.045 Uiso 1 1 d R . . . .
H1B H 0.8450 0.5330 0.5229 0.045 Uiso 1 1 d R . . . .
N1 N 0.78986(18) 0.7147(5) 0.55858(14) 0.0242(10) Uani 1 1 d . . . . .
N2 N 0.81511(18) 0.7382(5) 0.47889(14) 0.0234(10) Uani 1 1 d . . . . .
N3 N 0.73676(18) 0.5583(5) 0.45928(14) 0.0239(10) Uani 1 1 d . . . . .
N4 N 0.71024(19) 0.5354(5) 0.53916(14) 0.0237(10) Uani 1 1 d . . . . .
C0AA C 0.7392(3) 0.5869(8) 0.6042(2) 0.0281(15) Uani 1 1 d . . . . .
C2 C 0.7754(2) 0.6793(7) 0.59443(19) 0.0277(13) Uani 1 1 d . . . . .
C3 C 0.8064(2) 0.7502(7) 0.62131(19) 0.0344(15) Uani 1 1 d . . . . .
H3 H 0.8038 0.7468 0.6483 0.041 Uiso 1 1 calc R . . . .
C4 C 0.8395(3) 0.8214(8) 0.6013(2) 0.0354(15) Uani 1 1 d . . . . .
H4 H 0.8644 0.8780 0.6115 0.042 Uiso 1 1 calc R . . . .
C5 C 0.8304(2) 0.7968(7) 0.56174(19) 0.0278(13) Uani 1 1 d . . . . .
C6 C 0.8612(2) 0.8409(6) 0.5324(2) 0.0263(14) Uani 1 1 d . . . . .
C7 C 0.8545(2) 0.8131(6) 0.49375(18) 0.0258(13) Uani 1 1 d . . . . .
C8 C 0.8853(2) 0.8607(6) 0.4632(2) 0.0298(14) Uani 1 1 d . . . . .
H8 H 0.9144 0.9143 0.4658 0.036 Uiso 1 1 calc R . . . .
C9 C 0.8659(2) 0.8162(7) 0.4304(2) 0.0303(14) Uani 1 1 d . . . . .
H9 H 0.8788 0.8325 0.4056 0.036 Uiso 1 1 calc R . . . .
C10 C 0.8219(2) 0.7391(6) 0.43963(17) 0.0248(12) Uani 1 1 d . . . . .
C11 C 0.7933(2) 0.6678(6) 0.41358(18) 0.0249(12) Uani 1 1 d . . . . .
C12 C 0.7551(3) 0.5800(7) 0.4234(2) 0.0267(15) Uani 1 1 d . . . . .
C13 C 0.7273(2) 0.5009(7) 0.39710(19) 0.0296(13) Uani 1 1 d . . . . .
H13 H 0.7329 0.4957 0.3704 0.036 Uiso 1 1 calc R . . . .
C14 C 0.6919(3) 0.4358(7) 0.41685(19) 0.0320(14) Uani 1 1 d . . . . .
H14 H 0.6678 0.3768 0.4067 0.038 Uiso 1 1 calc R . . . .
C15 C 0.6972(2) 0.4717(6) 0.45617(18) 0.0261(12) Uani 1 1 d . . . . .
C16 C 0.6661(2) 0.4295(6) 0.48592(19) 0.0254(13) Uani 1 1 d . . . . .
C17 C 0.6731(2) 0.4575(6) 0.52427(18) 0.0257(13) Uani 1 1 d . . . . .
C18 C 0.6463(3) 0.3963(7) 0.5546(2) 0.0328(15) Uani 1 1 d . . . . .
H18 H 0.6180 0.3402 0.5522 0.039 Uiso 1 1 calc R . . . .
C19 C 0.6688(3) 0.4328(7) 0.5876(2) 0.0340(15) Uani 1 1 d . . . . .
H19 H 0.6596 0.4048 0.6124 0.041 Uiso 1 1 calc R . . . .
C20 C 0.7086(2) 0.5208(6) 0.57850(18) 0.0270(13) Uani 1 1 d . . . . .
C21 C 0.7334(2) 0.5556(6) 0.64566(18) 0.0293(13) Uani 1 1 d . . . . .
C22 C 0.6874(3) 0.5710(7) 0.6651(2) 0.0321(14) Uani 1 1 d . . . . .
H22 H 0.6586 0.6038 0.6519 0.039 Uiso 1 1 calc R . . . .
C23 C 0.6829(3) 0.5389(7) 0.7036(2) 0.0367(15) Uani 1 1 d . . . . .
H23 H 0.6512 0.5483 0.7163 0.044 Uiso 1 1 calc R . . . .
C24 C 0.7246(3) 0.4939(9) 0.7229(2) 0.051(2) Uani 1 1 d . . . . .
H24 H 0.7218 0.4726 0.7491 0.061 Uiso 1 1 calc R . . . .
C25 C 0.7710(3) 0.4792(11) 0.7045(2) 0.058(2) Uani 1 1 d . . . . .
H25 H 0.7999 0.4490 0.7181 0.069 Uiso 1 1 calc R . . . .
C26 C 0.7751(3) 0.5088(9) 0.6659(2) 0.0435(18) Uani 1 1 d . . . . .
H26 H 0.8068 0.4970 0.6533 0.052 Uiso 1 1 calc R . . . .
C31 C 0.9066(2) 0.9242(7) 0.54201(18) 0.0301(14) Uani 1 1 d . . . . .
C32 C 0.9000(3) 1.0503(8) 0.5524(2) 0.0415(17) Uani 1 1 d . . . . .
H32 H 0.8667 1.0854 0.5535 0.050 Uiso 1 1 calc R . . . .
C33 C 0.9417(3) 1.1275(8) 0.5614(3) 0.048(2) Uani 1 1 d . . . . .
H33 H 0.9369 1.2148 0.5684 0.057 Uiso 1 1 calc R . . . .
C34 C 0.9904(3) 1.0753(8) 0.5600(2) 0.0429(18) Uani 1 1 d . . . . .
H34 H 1.0191 1.1272 0.5659 0.052 Uiso 1 1 calc R . . . .
C35 C 0.9970(3) 0.9500(9) 0.5503(2) 0.048(2) Uani 1 1 d . . . . .
H35 H 1.0304 0.9146 0.5497 0.058 Uiso 1 1 calc R . . . .
C36 C 0.9550(3) 0.8722(8) 0.5411(2) 0.0400(17) Uani 1 1 d . . . . .
H36 H 0.9598 0.7848 0.5343 0.048 Uiso 1 1 calc R . . . .
C41 C 0.8058(2) 0.6863(6) 0.37226(17) 0.0253(12) Uani 1 1 d . . . . .
C42 C 0.8000(2) 0.8081(6) 0.35560(18) 0.0290(13) Uani 1 1 d . . . . .
H42 H 0.7872 0.8774 0.3704 0.035 Uiso 1 1 calc R . . . .
C43 C 0.8128(3) 0.8279(7) 0.3176(2) 0.0359(15) Uani 1 1 d . . . . .
H43 H 0.8084 0.9100 0.3063 0.043 Uiso 1 1 calc R . . . .
C44 C 0.8323(2) 0.7256(8) 0.29608(19) 0.0358(15) Uani 1 1 d . . . . .
H44 H 0.8418 0.7387 0.2703 0.043 Uiso 1 1 calc R . . . .
C45 C 0.8378(2) 0.6067(7) 0.31237(19) 0.0314(14) Uani 1 1 d . . . . .
H45 H 0.8506 0.5373 0.2976 0.038 Uiso 1 1 calc R . . . .
C46 C 0.8246(2) 0.5869(7) 0.3503(2) 0.0293(14) Uani 1 1 d . . . . .
H46 H 0.8286 0.5040 0.3612 0.035 Uiso 1 1 calc R . . . .
C51 C 0.6217(2) 0.3448(6) 0.47598(18) 0.0260(12) Uani 1 1 d . . . . .
C52 C 0.5720(2) 0.3929(7) 0.4765(2) 0.0311(14) Uani 1 1 d . . . . .
H52 H 0.5659 0.4802 0.4829 0.037 Uiso 1 1 calc R . . . .
C53 C 0.5316(2) 0.3127(7) 0.4676(2) 0.0360(15) Uani 1 1 d . . . . .
H53 H 0.4978 0.3455 0.4683 0.043 Uiso 1 1 calc R . . . .
C54 C 0.5395(3) 0.1869(7) 0.4579(2) 0.0368(16) Uani 1 1 d . . . . .
H54 H 0.5115 0.1333 0.4514 0.044 Uiso 1 1 calc R . . . .
C55 C 0.5882(3) 0.1392(7) 0.4575(3) 0.0432(18) Uani 1 1 d . . . . .
H55 H 0.5937 0.0515 0.4513 0.052 Uiso 1 1 calc R . . . .
C56 C 0.6297(3) 0.2175(7) 0.4662(2) 0.0358(15) Uani 1 1 d . . . . .
H56 H 0.6633 0.1838 0.4654 0.043 Uiso 1 1 calc R . . . .
C61 C 0.6763(2) 0.8805(7) 0.54613(18) 0.0280(13) Uani 1 1 d . . . . .
C62 C 0.6543(3) 0.7967(7) 0.5719(2) 0.0339(14) Uani 1 1 d . . . . .
H62 H 0.6582 0.7068 0.5681 0.041 Uiso 1 1 calc R . . . .
C63 C 0.6270(3) 0.8399(7) 0.6029(2) 0.0362(15) Uani 1 1 d . . . . .
H63 H 0.6117 0.7804 0.6199 0.043 Uiso 1 1 calc R . . . .
C64 C 0.6220(3) 0.9679(8) 0.6089(2) 0.0426(17) Uani 1 1 d . . . . .
H64 H 0.6033 0.9980 0.6303 0.051 Uiso 1 1 calc R . . . .
C65 C 0.6442(4) 1.0564(8) 0.5837(2) 0.052(2) Uani 1 1 d . . . . .
H65 H 0.6412 1.1460 0.5883 0.062 Uiso 1 1 calc R . . . .
C66 C 0.6711(3) 1.0116(7) 0.5515(2) 0.0408(16) Uani 1 1 d . . . . .
H66 H 0.6854 1.0704 0.5338 0.049 Uiso 1 1 calc R . . . .
C71 C 0.7303(2) 0.9511(7) 0.4765(2) 0.0319(14) Uani 1 1 d . . . . .
C72 C 0.7659(2) 1.0255(8) 0.4963(2) 0.0423(18) Uani 1 1 d . . . . .
H72 H 0.7749 1.0030 0.5216 0.051 Uiso 1 1 calc R . . . .
C73 C 0.7879(3) 1.1299(10) 0.4796(3) 0.054(2) Uani 1 1 d . . . . .
H73 H 0.8116 1.1800 0.4935 0.065 Uiso 1 1 calc R . . . .
C74 C 0.7758(3) 1.1644(9) 0.4418(3) 0.053(2) Uani 1 1 d . . . . .
H74 H 0.7904 1.2386 0.4304 0.063 Uiso 1 1 calc R . . . .
C75 C 0.7429(4) 1.0893(9) 0.4221(3) 0.052(2) Uani 1 1 d . . . . .
H75 H 0.7358 1.1085 0.3961 0.062 Uiso 1 1 calc R . . . .
C76 C 0.7189(3) 0.9824(7) 0.4396(2) 0.0391(16) Uani 1 1 d . . . . .
H76 H 0.6949 0.9326 0.4257 0.047 Uiso 1 1 calc R . . . .
C81 C 0.6431(2) 0.7801(7) 0.47599(19) 0.0290(13) Uani 1 1 d . . . . .
C82 C 0.6445(3) 0.7291(7) 0.4396(2) 0.0357(15) Uani 1 1 d . . . . .
H82 H 0.6764 0.7106 0.4281 0.043 Uiso 1 1 calc R . . . .
C83 C 0.5994(3) 0.7044(9) 0.4197(2) 0.0439(18) Uani 1 1 d . . . . .
H83 H 0.6009 0.6698 0.3947 0.053 Uiso 1 1 calc R . . . .
C84 C 0.5529(3) 0.7300(8) 0.4361(2) 0.0433(17) Uani 1 1 d . . . . .
H84 H 0.5223 0.7124 0.4226 0.052 Uiso 1 1 calc R . . . .
C85 C 0.5510(2) 0.7812(7) 0.4722(2) 0.0374(15) Uani 1 1 d . . . . .
H85 H 0.5189 0.7993 0.4835 0.045 Uiso 1 1 calc R . . . .
C86 C 0.5953(2) 0.8066(7) 0.4919(2) 0.0321(14) Uani 1 1 d . . . . .
H86 H 0.5933 0.8426 0.5167 0.038 Uiso 1 1 calc R . . . .
Ir1A Ir 0.47626(2) 0.59413(2) 0.25956(2) 0.02464(7) Uani 1 1 d . . . . .
P1A P 0.52545(6) 0.77646(17) 0.26791(4) 0.0304(4) Uani 1 1 d . U . . .
O1A O 0.43239(16) 0.4311(4) 0.25135(12) 0.0300(10) Uani 1 1 d . . . . .
H1AA H 0.4021 0.4526 0.2571 0.036 Uiso 1 1 d R . . . .
H1AB H 0.4419 0.3783 0.2684 0.036 Uiso 1 1 d R . . . .
N1A N 0.4173(2) 0.6756(5) 0.28836(15) 0.0262(11) Uani 1 1 d . . . . .
N2A N 0.5014(2) 0.5146(6) 0.30945(15) 0.0302(12) Uani 1 1 d . . . . .
N3A N 0.53158(19) 0.4971(6) 0.23010(16) 0.0316(12) Uani 1 1 d . . . . .
N4A N 0.4460(2) 0.6544(5) 0.20920(15) 0.0271(11) Uani 1 1 d . . . . .
C1A C 0.3746(2) 0.7850(7) 0.2347(2) 0.0302(13) Uani 1 1 d . U . . .
C2A C 0.3787(2) 0.7514(7) 0.27289(18) 0.0285(13) Uani 1 1 d . . . . .
C3A C 0.3459(3) 0.7936(7) 0.3027(2) 0.0341(14) Uani 1 1 d . . . . .
H3A H 0.3166 0.8462 0.2998 0.041 Uiso 1 1 calc R . . . .
C4A C 0.3638(2) 0.7458(7) 0.33568(19) 0.0320(14) Uani 1 1 d . . . . .
H4A H 0.3492 0.7575 0.3602 0.038 Uiso 1 1 calc R . . . .
C5A C 0.4088(2) 0.6742(7) 0.32695(18) 0.0270(13) Uani 1 1 d . . . . .
C6A C 0.4397(2) 0.6116(7) 0.35404(19) 0.0284(13) Uani 1 1 d . . . . .
C7A C 0.4821(2) 0.5355(8) 0.34548(19) 0.0298(14) Uani 1 1 d . . . . .
C8A C 0.5123(3) 0.4679(8) 0.3725(2) 0.0364(15) Uani 1 1 d . . . . .
H8A H 0.5077 0.4683 0.3993 0.044 Uiso 1 1 calc R . . . .
C9A C 0.5491(3) 0.4020(8) 0.3529(2) 0.0382(17) Uani 1 1 d . . . . .
H9A H 0.5744 0.3473 0.3635 0.046 Uiso 1 1 calc R . . . .
C10A C 0.5420(2) 0.4319(8) 0.3132(2) 0.0344(15) Uani 1 1 d . . . . .
C11A C 0.5738(3) 0.3885(7) 0.2837(2) 0.0334(15) Uani 1 1 d . . . . .
C12A C 0.5683(2) 0.4187(7) 0.2455(2) 0.0336(16) Uani 1 1 d . . . . .
C13A C 0.5975(3) 0.3630(8) 0.2152(2) 0.0394(17) Uani 1 1 d . . . . .
H13A H 0.6259 0.3074 0.2181 0.047 Uiso 1 1 calc R . . . .
C14A C 0.5778(3) 0.4029(8) 0.1824(2) 0.0394(16) Uani 1 1 d . . . . .
H14A H 0.5892 0.3794 0.1576 0.047 Uiso 1 1 calc R . . . .
C15A C 0.5362(2) 0.4877(8) 0.1909(2) 0.0333(15) Uani 1 1 d . . . . .
C16A C 0.5033(3) 0.5421(8) 0.1647(2) 0.0335(15) Uani 1 1 d . . . . .
C17A C 0.4616(3) 0.6226(7) 0.1734(2) 0.0302(14) Uani 1 1 d . . . . .
C18A C 0.4302(3) 0.6855(7) 0.14595(19) 0.0357(15) Uani 1 1 d . . . . .
H18A H 0.4332 0.6795 0.1190 0.043 Uiso 1 1 calc R . . . .
C19A C 0.3951(3) 0.7562(7) 0.1658(2) 0.0371(15) Uani 1 1 d . . . . .
H19A H 0.3693 0.8095 0.1552 0.045 Uiso 1 1 calc R . . . .
C20A C 0.4046(3) 0.7345(7) 0.20547(19) 0.0326(14) Uani 1 1 d . . . . .
C21B C 0.3279(10) 0.867(3) 0.2215(11) 0.044(5) Uani 0.35 1 d D U P A 1
C21A C 0.3396(4) 0.8871(12) 0.2247(4) 0.028(2) Uani 0.65 1 d D U P A 2
C22B C 0.3378(10) 0.998(2) 0.2144(9) 0.049(6) Uani 0.35 1 d D U P A 1
H22B H 0.3722 1.0256 0.2165 0.058 Uiso 0.35 1 calc R . P A 1
C22A C 0.3589(5) 1.0043(10) 0.2118(3) 0.033(2) Uani 0.65 1 d D U P A 2
H22A H 0.3948 1.0144 0.2098 0.039 Uiso 0.65 1 calc R . P A 2
C23B C 0.3019(10) 1.093(2) 0.2045(8) 0.044(5) Uani 0.35 1 d D U P A 1
H23B H 0.3108 1.1788 0.1984 0.053 Uiso 0.35 1 calc R . P A 1
C23A C 0.3278(5) 1.1063(12) 0.2018(4) 0.041(2) Uani 0.65 1 d D U P A 2
H23A H 0.3418 1.1852 0.1931 0.049 Uiso 0.65 1 calc R . P A 2
C24B C 0.2512(9) 1.047(3) 0.2047(10) 0.061(7) Uani 0.35 1 d D U P A 1
H24B H 0.2254 1.0977 0.1933 0.073 Uiso 0.35 1 calc R . P A 1
C24A C 0.2748(6) 1.0896(13) 0.2048(4) 0.046(3) Uani 0.65 1 d D U P A 2
H24A H 0.2526 1.1582 0.1982 0.055 Uiso 0.65 1 calc R . P A 2
C25B C 0.2374(10) 0.929(3) 0.2210(13) 0.078(10) Uani 0.35 1 d D U P A 1
H25B H 0.2026 0.9089 0.2254 0.094 Uiso 0.35 1 calc R . P A 1
C25A C 0.2545(5) 0.9740(14) 0.2173(4) 0.052(3) Uani 0.65 1 d D U P A 2
H25A H 0.2187 0.9636 0.2197 0.063 Uiso 0.65 1 calc R . P A 2
C26B C 0.2761(8) 0.841(3) 0.2307(11) 0.052(7) Uani 0.35 1 d D U P A 1
H26B H 0.2675 0.7631 0.2434 0.062 Uiso 0.35 1 calc R . P A 1
C26A C 0.2874(5) 0.8733(14) 0.2262(5) 0.043(3) Uani 0.65 1 d D U P A 2
H26A H 0.2734 0.7929 0.2336 0.052 Uiso 0.65 1 calc R . P A 2
C31A C 0.4253(2) 0.6268(7) 0.39480(18) 0.0290(13) Uani 1 1 d . . . . .
C32A C 0.4243(2) 0.7479(7) 0.41173(19) 0.0313(14) Uani 1 1 d . . . . .
H32A H 0.4320 0.8214 0.3967 0.038 Uiso 1 1 calc R . . . .
C33A C 0.4123(2) 0.7637(8) 0.4497(2) 0.0362(15) Uani 1 1 d . . . . .
H33A H 0.4127 0.8466 0.4610 0.043 Uiso 1 1 calc R . . . .
C34A C 0.3997(2) 0.6559(7) 0.4712(2) 0.0351(15) Uani 1 1 d . . . . .
H34A H 0.3910 0.6655 0.4973 0.042 Uiso 1 1 calc R . . . .
C35A C 0.3998(2) 0.5370(7) 0.45510(19) 0.0336(15) Uani 1 1 d . . . . .
H35A H 0.3909 0.4641 0.4700 0.040 Uiso 1 1 calc R . . . .
C36A C 0.4128(2) 0.5217(7) 0.41695(18) 0.0300(13) Uani 1 1 d . . . . .
H36A H 0.4131 0.4383 0.4060 0.036 Uiso 1 1 calc R . . . .
C41A C 0.6164(3) 0.2999(8) 0.29504(19) 0.0343(15) Uani 1 1 d . . . . .
C42A C 0.6659(3) 0.3417(9) 0.2949(3) 0.051(2) Uani 1 1 d . . . . .
H42A H 0.6728 0.4269 0.2867 0.061 Uiso 1 1 calc R . . . .
C43A C 0.7061(3) 0.2658(10) 0.3061(3) 0.057(2) Uani 1 1 d . . . . .
H43A H 0.7395 0.3008 0.3078 0.069 Uiso 1 1 calc R . . . .
C44A C 0.6975(3) 0.1379(9) 0.3149(3) 0.053(2) Uani 1 1 d . . . . .
H44A H 0.7253 0.0823 0.3201 0.064 Uiso 1 1 calc R . . . .
C45A C 0.6477(4) 0.0911(10) 0.3159(4) 0.067(3) Uani 1 1 d . . . . .
H45A H 0.6412 0.0046 0.3230 0.080 Uiso 1 1 calc R . . . .
C46A C 0.6070(3) 0.1745(9) 0.3061(3) 0.056(2) Uani 1 1 d . . . . .
H46A H 0.5729 0.1439 0.3072 0.067 Uiso 1 1 calc R . . . .
C51A C 0.5117(3) 0.5157(8) 0.1232(2) 0.0363(15) Uani 1 1 d . . . . .
C52A C 0.5565(3) 0.5501(9) 0.1045(2) 0.0470(18) Uani 1 1 d . . . . .
H52A H 0.5832 0.5907 0.1183 0.056 Uiso 1 1 calc R . . . .
C53A C 0.5625(4) 0.5256(8) 0.0656(2) 0.051(2) Uani 1 1 d . . . . .
H53A H 0.5931 0.5491 0.0530 0.061 Uiso 1 1 calc R . . . .
C54A C 0.5232(3) 0.4662(9) 0.0456(2) 0.049(2) Uani 1 1 d . . . . .
H54A H 0.5266 0.4508 0.0191 0.059 Uiso 1 1 calc R . . . .
C55A C 0.4800(3) 0.4305(8) 0.0640(2) 0.0436(18) Uani 1 1 d . . . . .
H55A H 0.4536 0.3896 0.0501 0.052 Uiso 1 1 calc R . . . .
C56A C 0.4736(3) 0.4519(8) 0.1025(2) 0.0387(16) Uani 1 1 d . . . . .
H56A H 0.4435 0.4237 0.1149 0.046 Uiso 1 1 calc R . . . .
C61A C 0.5050(3) 0.8870(8) 0.3066(3) 0.0423(18) Uani 1 1 d . . . . .
C62A C 0.4601(3) 0.9491(9) 0.3048(3) 0.054(2) Uani 1 1 d . . . . .
H62A H 0.4371 0.9302 0.2847 0.065 Uiso 1 1 calc R . . . .
C63A C 0.4467(3) 1.0411(9) 0.3321(3) 0.059(2) Uani 1 1 d . . . . .
H63A H 0.4155 1.0866 0.3293 0.070 Uiso 1 1 calc R . . . .
C64A C 0.4760(4) 1.0664(11) 0.3616(3) 0.060(2) Uani 1 1 d . . . . .
H64A H 0.4669 1.1318 0.3792 0.072 Uiso 1 1 calc R . . . .
C65A C 0.5204(4) 0.9957(11) 0.3664(3) 0.063(3) Uani 1 1 d . . . . .
H65A H 0.5413 1.0091 0.3881 0.076 Uiso 1 1 calc R . . . .
C66A C 0.5335(4) 0.9071(10) 0.3397(3) 0.058(2) Uani 1 1 d . . . . .
H66A H 0.5633 0.8568 0.3437 0.069 Uiso 1 1 calc R . . . .
C71A C 0.5922(2) 0.7406(7) 0.2802(2) 0.0362(15) Uani 1 1 d . . . . .
C72A C 0.6031(3) 0.6797(9) 0.3133(2) 0.049(2) Uani 1 1 d . . . . .
H72A H 0.5760 0.6543 0.3296 0.059 Uiso 1 1 calc R . . . .
C73A C 0.6536(3) 0.6531(11) 0.3240(3) 0.065(3) Uani 1 1 d . . . . .
H73A H 0.6605 0.6108 0.3474 0.078 Uiso 1 1 calc R . . . .
C74A C 0.6925(3) 0.6882(9) 0.3008(3) 0.056(2) Uani 1 1 d . . . . .
H74A H 0.7268 0.6717 0.3078 0.067 Uiso 1 1 calc R . . . .
C75A C 0.6819(3) 0.7452(12) 0.2684(4) 0.079(4) Uani 1 1 d . . . . .
H75A H 0.7095 0.7666 0.2521 0.094 Uiso 1 1 calc R . . . .
C76A C 0.6320(3) 0.7770(10) 0.2559(3) 0.062(2) Uani 1 1 d . . . . .
H76A H 0.6260 0.8204 0.2325 0.074 Uiso 1 1 calc R . . . .
C81B C 0.5265(13) 0.890(2) 0.2283(7) 0.044(5) Uani 0.5 1 d D U P B 1
C81A C 0.5335(13) 0.878(2) 0.2257(7) 0.044(5) Uani 0.5 1 d D U P B 2
C82B C 0.5335(11) 0.861(2) 0.1910(5) 0.065(7) Uani 0.5 1 d D U P B 1
H82B H 0.5366 0.7717 0.1854 0.077 Uiso 0.5 1 calc R . P B 1
C82A C 0.5433(8) 0.8178(18) 0.1930(4) 0.042(3) Uani 0.5 1 d D U P B 2
H82A H 0.5479 0.7273 0.1923 0.050 Uiso 0.5 1 calc R . P B 2
C83B C 0.5366(12) 0.942(2) 0.1603(6) 0.068(7) Uani 0.5 1 d D U P B 1
H83B H 0.5421 0.9116 0.1352 0.081 Uiso 0.5 1 calc R . P B 1
C83A C 0.5467(9) 0.8897(18) 0.1606(5) 0.055(4) Uani 0.5 1 d D U P B 2
H83A H 0.5520 0.8470 0.1371 0.066 Uiso 0.5 1 calc R . P B 2
C84B C 0.5317(11) 1.0659(19) 0.1677(6) 0.068(6) Uani 0.5 1 d D U P B 1
H84B H 0.5349 1.1266 0.1477 0.081 Uiso 0.5 1 calc R . P B 1
C84A C 0.5427(14) 1.020(2) 0.1607(6) 0.089(9) Uani 0.5 1 d D U P B 2
H84A H 0.5503 1.0678 0.1383 0.107 Uiso 0.5 1 calc R . P B 2
C85B C 0.5218(12) 1.108(2) 0.2042(5) 0.064(6) Uani 0.5 1 d D U P B 1
H85B H 0.5165 1.1966 0.2091 0.077 Uiso 0.5 1 calc R . P B 1
C85A C 0.5279(13) 1.082(2) 0.1929(6) 0.075(7) Uani 0.5 1 d D U P B 2
H85A H 0.5203 1.1709 0.1933 0.090 Uiso 0.5 1 calc R . P B 2
C86B C 0.5198(6) 1.0207(16) 0.2334(5) 0.039(3) Uani 0.5 1 d D U P B 1
H86B H 0.5135 1.0515 0.2584 0.047 Uiso 0.5 1 calc R . P B 1
C86A C 0.5247(17) 1.007(2) 0.2247(7) 0.109(15) Uani 0.5 1 d D U P B 2
H86A H 0.5156 1.0473 0.2479 0.131 Uiso 0.5 1 calc R . P B 2
O1S O 0.8498(3) 0.2565(10) 0.6196(2) 0.091(3) Uani 1 1 d . . . . .
C2S C 0.8171(5) 0.1771(18) 0.6429(4) 0.101(5) Uani 1 1 d . . . . .
H2SA H 0.8156 0.2109 0.6692 0.121 Uiso 1 1 calc R . . . .
H2SB H 0.8300 0.0878 0.6437 0.121 Uiso 1 1 calc R . . . .
C3S C 0.7636(6) 0.182(2) 0.6240(4) 0.123(7) Uani 1 1 d . . . . .
H3SA H 0.7407 0.2421 0.6375 0.147 Uiso 1 1 calc R . . . .
H3SB H 0.7476 0.0955 0.6234 0.147 Uiso 1 1 calc R . . . .
C4S C 0.7765(5) 0.2306(17) 0.5826(4) 0.094(4) Uani 1 1 d . . . . .
H4SA H 0.7820 0.1565 0.5654 0.113 Uiso 1 1 calc R . . . .
H4SB H 0.7478 0.2822 0.5726 0.113 Uiso 1 1 calc R . . . .
C5S C 0.8242(4) 0.3117(11) 0.5844(4) 0.075(3) Uani 1 1 d . . . . .
H5SA H 0.8161 0.4039 0.5876 0.090 Uiso 1 1 calc R . . . .
H5SB H 0.8456 0.3003 0.5614 0.090 Uiso 1 1 calc R . . . .
O1W O 0.4250(3) 0.2932(8) 0.1866(2) 0.080(2) Uani 1 1 d . . . . .
H1WA H 0.4266 0.3445 0.2053 0.096 Uiso 1 1 d R . . . .
H1WB H 0.4356 0.2203 0.1941 0.096 Uiso 1 1 d R . . . .
loop_
_atom_site_aniso_label
_atom_site_aniso_U_11
_atom_site_aniso_U_22
_atom_site_aniso_U_33
_atom_site_aniso_U_23
_atom_site_aniso_U_13
_atom_site_aniso_U_12
Ir1 0.01735(10) 0.02561(11) 0.01996(11) -0.00220(12) 0.00161(12) -0.00169(7)
P1 0.0177(6) 0.0288(7) 0.0227(8) -0.0019(6) 0.0014(5) 0.0003(5)
O1 0.0268(18) 0.034(2) 0.028(2) -0.0041(18) 0.0033(16) 0.0050(17)
N1 0.022(2) 0.028(3) 0.022(3) -0.001(2) 0.0036(19) -0.003(2)
N2 0.022(2) 0.026(3) 0.022(2) -0.007(2) 0.0012(18) -0.002(2)
N3 0.023(2) 0.028(3) 0.021(3) 0.000(2) 0.0036(19) 0.000(2)
N4 0.024(2) 0.027(3) 0.020(2) -0.004(2) 0.0006(19) -0.004(2)
C0AA 0.022(3) 0.040(4) 0.022(3) 0.000(3) 0.000(2) 0.000(3)
C2 0.022(3) 0.038(4) 0.023(3) -0.006(3) 0.002(2) -0.006(3)
C3 0.028(3) 0.051(4) 0.024(3) -0.010(3) 0.006(2) -0.006(3)
C4 0.028(3) 0.048(4) 0.030(3) -0.010(3) -0.002(3) -0.010(3)
C5 0.024(3) 0.033(3) 0.027(3) -0.007(3) -0.003(2) -0.001(3)
C6 0.018(3) 0.029(3) 0.032(3) -0.010(3) 0.003(2) -0.002(2)
C7 0.017(3) 0.031(3) 0.029(3) -0.004(3) 0.006(2) -0.009(2)
C8 0.022(3) 0.033(3) 0.035(4) -0.004(3) 0.004(3) -0.009(2)
C9 0.023(3) 0.037(4) 0.031(3) 0.005(3) 0.006(2) -0.004(3)
C10 0.021(3) 0.030(3) 0.023(3) -0.001(3) 0.006(2) 0.001(2)
C11 0.021(3) 0.028(3) 0.025(3) -0.004(2) 0.004(2) 0.001(2)
C12 0.025(3) 0.031(4) 0.024(3) -0.007(3) 0.000(2) 0.004(3)
C13 0.028(3) 0.036(4) 0.025(3) -0.008(3) 0.000(2) -0.004(3)
C14 0.036(3) 0.037(4) 0.024(3) -0.003(3) 0.000(3) -0.008(3)
C15 0.025(3) 0.025(3) 0.028(3) -0.006(3) -0.002(2) -0.003(2)
C16 0.022(3) 0.025(3) 0.029(3) -0.001(3) 0.000(2) -0.005(2)
C17 0.027(3) 0.024(3) 0.026(3) 0.001(2) 0.002(2) -0.002(2)
C18 0.032(3) 0.034(4) 0.032(4) 0.001(3) 0.000(3) -0.011(3)
C19 0.030(3) 0.045(4) 0.027(3) 0.004(3) -0.002(3) -0.007(3)
C20 0.029(3) 0.029(3) 0.022(3) 0.004(2) 0.004(2) -0.003(3)
C21 0.034(3) 0.032(3) 0.022(3) -0.004(3) 0.000(2) -0.002(3)
C22 0.036(3) 0.034(4) 0.027(3) 0.003(3) 0.001(3) -0.001(3)
C23 0.043(4) 0.042(4) 0.026(3) -0.003(3) 0.009(3) -0.004(3)
C24 0.060(5) 0.070(6) 0.023(4) 0.005(4) 0.004(3) 0.015(4)
C25 0.055(5) 0.086(7) 0.033(4) 0.005(4) -0.005(3) 0.028(5)
C26 0.036(4) 0.067(5) 0.028(4) -0.004(3) 0.000(3) 0.011(4)
C31 0.025(3) 0.043(4) 0.022(3) -0.003(3) -0.001(2) -0.006(3)
C32 0.028(3) 0.043(4) 0.053(5) -0.008(4) -0.004(3) -0.012(3)
C33 0.050(5) 0.040(4) 0.054(5) 0.001(4) -0.008(4) -0.017(4)
C34 0.031(3) 0.063(5) 0.035(4) -0.006(4) 0.003(3) -0.022(3)
C35 0.025(3) 0.076(6) 0.044(4) -0.008(4) 0.001(3) -0.013(4)
C36 0.026(3) 0.053(5) 0.041(4) -0.013(3) 0.003(3) -0.009(3)
C41 0.020(3) 0.032(3) 0.024(3) -0.001(3) 0.001(2) -0.002(2)
C42 0.031(3) 0.026(3) 0.029(3) -0.002(3) 0.002(2) -0.001(2)
C43 0.034(3) 0.035(4) 0.039(4) 0.003(3) 0.000(3) -0.007(3)
C44 0.029(3) 0.055(5) 0.024(3) 0.003(3) 0.003(2) -0.004(3)
C45 0.026(3) 0.042(4) 0.026(3) -0.006(3) -0.001(2) 0.007(3)
C46 0.023(3) 0.036(4) 0.028(3) 0.000(3) 0.000(2) 0.000(3)
C51 0.026(3) 0.029(3) 0.023(3) 0.001(2) -0.002(2) -0.008(3)
C52 0.028(3) 0.030(3) 0.035(4) 0.000(3) 0.006(3) 0.000(3)
C53 0.023(3) 0.050(4) 0.035(4) -0.003(3) 0.000(3) -0.006(3)
C54 0.034(3) 0.042(4) 0.034(4) -0.003(3) -0.003(3) -0.017(3)
C55 0.048(4) 0.029(4) 0.053(5) -0.006(3) -0.002(4) -0.004(3)
C56 0.029(3) 0.030(3) 0.048(4) -0.003(3) 0.005(3) -0.002(3)
C61 0.024(3) 0.038(3) 0.022(3) -0.004(3) -0.002(2) -0.003(3)
C62 0.033(3) 0.030(3) 0.039(4) 0.000(3) 0.007(3) 0.001(3)
C63 0.038(3) 0.037(4) 0.034(4) 0.002(3) 0.005(3) 0.003(3)
C64 0.051(4) 0.046(4) 0.031(4) -0.001(3) 0.009(3) 0.000(3)
C65 0.073(6) 0.039(4) 0.044(5) -0.010(4) 0.018(4) 0.004(4)
C66 0.051(4) 0.036(4) 0.035(4) -0.001(3) 0.007(3) -0.003(3)
C71 0.022(3) 0.037(4) 0.037(4) 0.007(3) 0.009(2) 0.004(3)
C72 0.023(3) 0.052(4) 0.052(5) 0.015(3) -0.004(3) -0.007(3)
C73 0.028(3) 0.065(6) 0.069(6) 0.020(5) -0.004(4) -0.006(4)
C74 0.045(4) 0.047(5) 0.066(6) 0.017(4) 0.019(4) 0.008(4)
C75 0.066(6) 0.048(5) 0.040(5) 0.004(4) 0.018(4) 0.008(4)
C76 0.050(4) 0.034(4) 0.033(4) 0.002(3) 0.006(3) 0.007(3)
C81 0.023(3) 0.034(4) 0.030(3) -0.002(3) 0.001(2) 0.002(3)
C82 0.029(3) 0.045(4) 0.033(4) -0.002(3) -0.001(3) 0.009(3)
C83 0.038(4) 0.064(5) 0.030(4) -0.015(3) -0.011(3) 0.008(3)
C84 0.029(3) 0.050(4) 0.051(4) -0.009(4) -0.013(3) 0.000(3)
C85 0.020(3) 0.043(4) 0.048(4) -0.001(3) 0.002(3) 0.002(3)
C86 0.029(3) 0.038(4) 0.029(3) -0.002(3) 0.005(2) 0.001(3)
Ir1A 0.02016(10) 0.03362(13) 0.02015(11) -0.00059(13) -0.00095(10) -0.00479(10)
P1A 0.0249(7) 0.0394(8) 0.0267(9) -0.0034(6) -0.0020(5) -0.0093(6)
O1A 0.0240(19) 0.033(2) 0.033(3) 0.0038(18) -0.0003(17) -0.0064(16)
N1A 0.026(3) 0.030(3) 0.023(3) 0.002(2) -0.005(2) -0.001(2)
N2A 0.025(2) 0.047(3) 0.019(3) -0.002(2) -0.001(2) -0.001(2)
N3A 0.026(3) 0.043(3) 0.025(3) -0.005(2) 0.002(2) -0.006(2)
N4A 0.028(3) 0.033(3) 0.021(3) 0.001(2) -0.001(2) -0.006(2)
C1A 0.032(3) 0.033(3) 0.026(3) 0.001(2) -0.005(2) -0.002(2)
C2A 0.024(3) 0.034(3) 0.027(3) 0.005(3) 0.001(2) -0.003(2)
C3A 0.029(3) 0.038(4) 0.035(4) 0.000(3) -0.002(3) 0.005(3)
C4A 0.027(3) 0.041(4) 0.028(3) -0.004(3) 0.003(2) 0.000(3)
C5A 0.024(3) 0.035(3) 0.022(3) -0.001(3) -0.001(2) -0.007(3)
C6A 0.024(3) 0.035(3) 0.026(3) 0.002(3) 0.002(2) -0.006(3)
C7A 0.026(3) 0.041(4) 0.023(3) 0.003(3) -0.002(2) -0.005(3)
C8A 0.030(3) 0.050(4) 0.029(4) 0.001(3) -0.004(3) 0.005(3)
C9A 0.027(3) 0.057(5) 0.031(4) -0.005(3) -0.006(3) 0.005(3)
C10A 0.026(3) 0.048(4) 0.029(3) 0.001(3) -0.004(3) 0.006(3)
C11A 0.032(3) 0.036(4) 0.033(4) -0.008(3) 0.000(3) -0.004(3)
C12A 0.022(3) 0.043(4) 0.036(4) 0.000(3) 0.001(2) 0.005(3)
C13A 0.033(4) 0.047(5) 0.038(4) -0.007(3) 0.000(3) 0.001(3)
C14A 0.035(4) 0.052(5) 0.031(4) -0.002(3) 0.002(3) -0.004(3)
C15A 0.027(3) 0.046(4) 0.026(3) -0.007(3) 0.004(3) -0.006(3)
C16A 0.034(3) 0.040(4) 0.027(4) -0.001(3) -0.002(3) -0.012(3)
C17A 0.031(3) 0.035(4) 0.024(3) -0.002(3) -0.002(3) -0.009(3)
C18A 0.048(4) 0.039(4) 0.021(3) 0.001(3) -0.004(3) -0.004(3)
C19A 0.045(4) 0.036(4) 0.030(4) 0.007(3) -0.009(3) 0.000(3)
C20A 0.039(3) 0.035(4) 0.023(3) 0.001(3) -0.001(3) -0.010(3)
C21B 0.036(4) 0.043(5) 0.052(12) 0.013(6) -0.007(4) 0.001(4)
C21A 0.036(3) 0.037(3) 0.012(5) -0.001(3) -0.002(3) 0.003(2)
C22B 0.038(5) 0.042(5) 0.066(16) 0.014(6) -0.001(6) 0.002(4)
C22A 0.039(4) 0.037(3) 0.022(5) 0.002(3) 0.001(3) 0.003(3)
C23B 0.039(6) 0.046(5) 0.049(13) 0.015(6) 0.005(8) 0.005(5)
C23A 0.045(4) 0.044(3) 0.033(5) 0.007(3) 0.004(4) 0.010(3)
C24B 0.040(6) 0.052(7) 0.092(18) 0.029(10) 0.000(7) 0.003(5)
C24A 0.044(4) 0.053(4) 0.040(6) 0.014(4) 0.003(4) 0.010(3)
C25B 0.039(5) 0.061(8) 0.13(3) 0.048(12) 0.002(5) 0.004(4)
C25A 0.042(4) 0.056(4) 0.059(8) 0.021(4) 0.001(3) 0.009(3)
C26B 0.037(4) 0.046(7) 0.072(17) 0.019(9) -0.004(4) 0.001(4)
C26A 0.036(3) 0.050(4) 0.044(8) 0.015(4) -0.002(3) 0.003(3)
C31A 0.016(3) 0.044(4) 0.027(3) 0.001(3) -0.001(2) -0.001(2)
C32A 0.023(3) 0.041(4) 0.030(3) 0.000(3) 0.000(2) -0.001(3)
C33A 0.028(3) 0.048(4) 0.033(3) -0.012(3) 0.000(3) 0.006(3)
C34A 0.026(3) 0.047(4) 0.032(4) -0.001(3) 0.003(3) 0.003(3)
C35A 0.027(3) 0.048(4) 0.026(3) 0.003(3) 0.003(2) -0.003(3)
C36A 0.027(3) 0.036(3) 0.027(3) 0.000(3) 0.000(2) -0.002(3)
C41A 0.029(3) 0.048(4) 0.026(3) -0.006(3) -0.004(3) 0.007(3)
C42A 0.039(4) 0.049(5) 0.064(6) 0.006(4) 0.007(4) 0.004(3)
C43A 0.031(4) 0.061(6) 0.079(6) 0.004(5) -0.003(4) 0.000(4)
C44A 0.039(4) 0.062(6) 0.058(5) 0.002(4) -0.001(4) 0.018(4)
C45A 0.054(5) 0.052(6) 0.094(8) 0.009(5) -0.004(5) 0.003(4)
C46A 0.039(4) 0.049(5) 0.079(7) 0.004(5) -0.008(4) 0.002(4)
C51A 0.042(4) 0.045(4) 0.022(3) -0.003(3) 0.004(3) 0.000(3)
C52A 0.047(4) 0.055(5) 0.039(4) 0.001(4) 0.009(3) -0.011(4)
C53A 0.068(5) 0.047(5) 0.038(4) 0.003(4) 0.016(4) -0.001(4)
C54A 0.071(5) 0.048(5) 0.028(4) -0.001(3) 0.006(4) 0.011(4)
C55A 0.052(4) 0.044(4) 0.035(4) -0.010(3) -0.009(3) 0.009(3)
C56A 0.043(4) 0.043(4) 0.030(4) -0.007(3) -0.002(3) 0.001(3)
C61A 0.027(3) 0.041(4) 0.059(5) -0.008(4) 0.004(3) -0.009(3)
C62A 0.043(4) 0.054(5) 0.064(6) -0.007(4) -0.010(4) -0.006(4)
C63A 0.039(4) 0.052(5) 0.085(7) -0.008(5) 0.003(4) 0.005(4)
C64A 0.048(5) 0.070(6) 0.061(6) -0.018(5) 0.010(4) -0.003(4)
C65A 0.073(6) 0.063(6) 0.054(6) -0.017(5) -0.004(5) 0.017(5)
C66A 0.065(5) 0.076(7) 0.032(4) -0.015(4) -0.002(4) 0.015(5)
C71A 0.023(3) 0.044(4) 0.042(4) -0.008(3) 0.005(3) -0.007(3)
C72A 0.034(4) 0.071(6) 0.043(4) -0.007(4) -0.005(3) -0.001(4)
C73A 0.035(4) 0.085(7) 0.074(7) -0.025(6) -0.007(4) 0.002(4)
C74A 0.033(4) 0.056(5) 0.079(7) -0.011(5) -0.003(4) 0.002(4)
C75A 0.034(4) 0.101(8) 0.102(10) -0.003(7) 0.024(5) 0.004(5)
C76A 0.045(4) 0.079(6) 0.061(5) 0.000(6) 0.017(4) -0.009(4)
C81B 0.058(15) 0.046(4) 0.029(3) 0.002(3) -0.009(4) -0.024(4)
C81A 0.053(14) 0.048(4) 0.030(3) 0.003(3) -0.008(4) -0.025(4)
C82B 0.11(2) 0.049(5) 0.030(3) 0.000(3) 0.002(4) -0.030(5)
C82A 0.048(8) 0.046(5) 0.032(3) 0.002(3) -0.003(3) -0.033(5)
C83B 0.124(19) 0.050(5) 0.029(4) 0.000(3) 0.000(4) -0.032(7)
C83A 0.084(13) 0.048(5) 0.033(3) 0.003(3) -0.007(4) -0.042(7)
C84B 0.124(18) 0.050(5) 0.029(5) 0.000(3) -0.004(5) -0.031(6)
C84A 0.18(3) 0.048(6) 0.036(5) 0.003(4) -0.003(7) -0.032(7)
C85B 0.117(17) 0.048(4) 0.028(5) 0.002(3) -0.009(6) -0.024(5)
C85A 0.14(2) 0.050(5) 0.033(5) 0.002(4) -0.019(7) -0.027(6)
C86B 0.044(7) 0.046(4) 0.027(4) 0.001(3) -0.014(4) -0.025(4)
C86A 0.23(4) 0.054(4) 0.040(5) 0.008(3) 0.011(9) 0.005(7)
O1S 0.081(5) 0.120(8) 0.072(5) -0.008(5) -0.010(4) -0.010(5)
C2S 0.084(8) 0.153(14) 0.065(7) -0.007(8) -0.003(6) -0.031(9)
C3S 0.094(10) 0.20(2) 0.076(10) -0.027(11) -0.001(7) -0.007(12)
C4S 0.068(7) 0.132(13) 0.082(9) -0.032(9) -0.008(6) 0.013(8)
C5S 0.064(6) 0.067(7) 0.095(9) -0.030(6) -0.006(6) 0.014(5)
O1W 0.071(4) 0.088(5) 0.081(5) -0.036(5) 0.009(4) -0.008(4)
loop_
_atom_type_symbol
_atom_type_description
_atom_type_scat_dispersion_real
_atom_type_scat_dispersion_imag
_atom_type_scat_source
C C 0.0181 0.0091 'International Tables Vol C Tables 4.2.6.8 and 6.1.1.4'
H H 0.0000 0.0000 'International Tables Vol C Tables 4.2.6.8 and 6.1.1.4'
Ir Ir -4.7710 6.5667 'International Tables Vol C Tables 4.2.6.8 and 6.1.1.4'
N N 0.0311 0.0180 'International Tables Vol C Tables 4.2.6.8 and 6.1.1.4'
O O 0.0492 0.0322 'International Tables Vol C Tables 4.2.6.8 and 6.1.1.4'
P P 0.2955 0.4335 'International Tables Vol C Tables 4.2.6.8 and 6.1.1.4'
loop_
_geom_angle_atom_site_label_1
_geom_angle_atom_site_label_2
_geom_angle_atom_site_label_3
_geom_angle
O1 Ir1 P1 178.80(13)
N1 Ir1 P1 94.02(15)
N1 Ir1 O1 84.78(19)
N2 Ir1 P1 92.73(15)
N2 Ir1 O1 87.36(19)
N2 Ir1 N1 90.08(19)
N2 Ir1 N3 89.31(19)
N2 Ir1 N4 173.8(2)
N3 Ir1 P1 92.80(14)
N3 Ir1 O1 88.39(19)
N3 Ir1 N1 173.2(2)
N4 Ir1 P1 93.42(15)
N4 Ir1 O1 86.49(19)
N4 Ir1 N1 89.6(2)
N4 Ir1 N3 90.3(2)
C61 P1 Ir1 116.2(2)
C71 P1 Ir1 112.6(2)
C71 P1 C61 105.0(3)
C81 P1 Ir1 117.6(2)
C81 P1 C61 99.6(3)
C81 P1 C71 104.1(3)
C2 N1 Ir1 126.0(4)
C2 N1 C5 108.0(5)
C5 N1 Ir1 125.8(4)
C7 N2 Ir1 126.9(4)
C10 N2 Ir1 127.2(4)
C10 N2 C7 105.8(5)
C12 N3 Ir1 127.0(4)
C12 N3 C15 107.4(5)
C15 N3 Ir1 125.5(4)
C17 N4 Ir1 125.9(4)
C17 N4 C20 107.0(5)
C20 N4 Ir1 127.0(4)
C2 C0AA C21 117.3(6)
C20 C0AA C2 125.0(6)
C20 C0AA C21 117.7(6)
N1 C2 C0AA 127.1(6)
N1 C2 C3 107.9(6)
C0AA C2 C3 125.0(6)
C4 C3 C2 107.7(6)
C3 C4 C5 107.6(6)
N1 C5 C4 108.7(6)
N1 C5 C6 126.8(6)
C6 C5 C4 124.3(6)
C5 C6 C7 125.4(6)
C5 C6 C31 118.8(6)
C7 C6 C31 115.8(6)
N2 C7 C6 124.9(5)
N2 C7 C8 109.4(5)
C6 C7 C8 125.7(6)
C9 C8 C7 108.0(6)
C8 C9 C10 107.6(6)
N2 C10 C9 109.2(6)
N2 C10 C11 125.3(6)
C11 C10 C9 125.3(6)
C10 C11 C12 124.8(6)
C10 C11 C41 116.6(6)
C12 C11 C41 118.6(6)
N3 C12 C11 125.8(6)
N3 C12 C13 108.6(6)
C11 C12 C13 125.5(6)
C14 C13 C12 108.0(6)
C13 C14 C15 107.4(6)
N3 C15 C14 108.6(6)
N3 C15 C16 125.9(6)
C16 C15 C14 125.5(6)
C15 C16 C51 117.6(6)
C17 C16 C15 125.6(6)
C17 C16 C51 116.8(6)
N4 C17 C16 125.9(6)
N4 C17 C18 109.2(6)
C16 C17 C18 124.4(6)
C19 C18 C17 107.4(6)
C18 C19 C20 107.9(6)
N4 C20 C0AA 125.0(6)
N4 C20 C19 108.4(6)
C0AA C20 C19 126.5(6)
C22 C21 C0AA 122.5(6)
C26 C21 C0AA 119.4(6)
C26 C21 C22 118.0(6)
C23 C22 C21 121.2(7)
C24 C23 C22 119.6(7)
C23 C24 C25 120.5(7)
C24 C25 C26 119.8(7)
C25 C26 C21 120.8(7)
C32 C31 C6 120.7(6)
C32 C31 C36 119.7(6)
C36 C31 C6 119.6(6)
C31 C32 C33 120.9(7)
C34 C33 C32 119.2(8)
C35 C34 C33 120.1(7)
C34 C35 C36 120.7(8)
C31 C36 C35 119.4(8)
C42 C41 C11 119.7(6)
C46 C41 C11 121.4(6)
C46 C41 C42 118.8(6)
C43 C42 C41 120.5(6)
C42 C43 C44 119.5(7)
C45 C44 C43 119.9(6)
C44 C45 C46 120.5(7)
C41 C46 C45 120.8(7)
C52 C51 C16 120.8(6)
C56 C51 C16 120.1(6)
C56 C51 C52 119.1(6)
C53 C52 C51 119.7(6)
C54 C53 C52 121.1(6)
C53 C54 C55 119.3(6)
C54 C55 C56 120.9(7)
C51 C56 C55 119.7(6)
C62 C61 P1 118.0(5)
C62 C61 C66 119.5(6)
C66 C61 P1 121.8(5)
C63 C62 C61 121.8(7)
C64 C63 C62 119.6(7)
C63 C64 C65 120.5(7)
C64 C65 C66 119.6(8)
C61 C66 C65 119.0(7)
C72 C71 P1 117.1(5)
C76 C71 P1 123.8(6)
C76 C71 C72 119.0(7)
C73 C72 C71 120.7(7)
C72 C73 C74 120.9(9)
C75 C74 C73 118.5(8)
C74 C75 C76 120.9(8)
C71 C76 C75 120.0(8)
C82 C81 P1 120.3(5)
C82 C81 C86 117.8(6)
C86 C81 P1 121.9(5)
C81 C82 C83 120.8(6)
C84 C83 C82 120.4(7)
C85 C84 C83 119.5(6)
C84 C85 C86 120.5(6)
C85 C86 C81 121.0(6)
O1A Ir1A P1A 179.27(13)
N1A Ir1A P1A 91.11(16)
N1A Ir1A O1A 89.3(2)
N1A Ir1A N2A 89.3(2)
N1A Ir1A N3A 174.7(2)
N1A Ir1A N4A 90.4(2)
N2A Ir1A P1A 92.51(17)
N2A Ir1A O1A 88.1(2)
N2A Ir1A N3A 90.3(2)
N3A Ir1A P1A 94.21(16)
N3A Ir1A O1A 85.4(2)
N4A Ir1A P1A 94.30(15)
N4A Ir1A O1A 85.10(19)
N4A Ir1A N2A 173.2(2)
N4A Ir1A N3A 89.4(2)
C61A P1A Ir1A 116.1(2)
C71A P1A Ir1A 113.2(2)
C71A P1A C61A 103.2(3)
C81B P1A Ir1A 116.3(9)
C81B P1A C61A 99.2(7)
C81B P1A C71A 107.2(11)
C81A P1A Ir1A 115.8(9)
C81A P1A C61A 105.5(7)
C81A P1A C71A 101.3(11)
C2A N1A Ir1A 126.5(4)
C5A N1A Ir1A 127.6(4)
C5A N1A C2A 105.8(5)
C7A N2A Ir1A 127.1(5)
C10A N2A Ir1A 125.8(5)
C10A N2A C7A 107.1(6)
C12A N3A Ir1A 126.3(5)
C12A N3A C15A 106.6(6)
C15A N3A Ir1A 126.8(5)
C17A N4A Ir1A 127.5(5)
C17A N4A C20A 107.3(6)
C20A N4A Ir1A 125.2(4)
C2A C1A C20A 124.8(6)
C2A C1A C21B 119.0(16)
C2A C1A C21A 117.9(8)
C20A C1A C21B 115.4(16)
C20A C1A C21A 117.1(8)
N1A C2A C3A 109.1(6)
C1A C2A N1A 125.1(6)
C1A C2A C3A 125.7(6)
C4A C3A C2A 108.0(6)
C3A C4A C5A 107.2(6)
N1A C5A C4A 109.9(6)
N1A C5A C6A 125.2(6)
C6A C5A C4A 124.9(6)
C5A C6A C31A 116.9(6)
C7A C6A C5A 125.1(6)
C7A C6A C31A 118.0(6)
N2A C7A C6A 125.3(6)
N2A C7A C8A 109.3(6)
C6A C7A C8A 125.4(7)
C9A C8A C7A 107.8(7)
C8A C9A C10A 106.6(7)
N2A C10A C9A 109.2(6)
N2A C10A C11A 126.1(7)
C11A C10A C9A 124.6(7)
C10A C11A C41A 116.2(7)
C12A C11A C10A 125.5(7)
C12A C11A C41A 118.3(7)
N3A C12A C11A 126.0(6)
N3A C12A C13A 109.0(6)
C11A C12A C13A 124.8(7)
C14A C13A C12A 108.0(7)
C13A C14A C15A 107.8(7)
N3A C15A C14A 108.6(6)
C16A C15A N3A 125.2(7)
C16A C15A C14A 125.9(7)
C15A C16A C17A 125.7(7)
C15A C16A C51A 118.7(7)
C17A C16A C51A 115.6(6)
N4A C17A C16A 125.2(7)
N4A C17A C18A 109.7(7)
C16A C17A C18A 125.0(7)
C19A C18A C17A 106.9(6)
C18A C19A C20A 107.1(6)
N4A C20A C1A 127.1(6)
N4A C20A C19A 109.0(6)
C1A C20A C19A 123.9(7)
C22B C21B C1A 115.9(18)
C22B C21B C26B 114(2)
C26B C21B C1A 125(2)
C22A C21A C1A 119.3(9)
C26A C21A C1A 123.0(10)
C26A C21A C22A 117.7(11)
C23B C22B C21B 127(2)
C23A C22A C21A 122.5(12)
C22B C23B C24B 113(2)
C22A C23A C24A 118.0(11)
C25B C24B C23B 123(2)
C25A C24A C23A 120.7(12)
C24B C25B C26B 119(2)
C24A C25A C26A 119.1(12)
C25B C26B C21B 120(2)
C21A C26A C25A 121.9(13)
C32A C31A C6A 120.7(6)
C36A C31A C6A 121.2(6)
C36A C31A C32A 118.1(6)
C33A C32A C31A 121.6(7)
C32A C33A C34A 118.8(7)
C35A C34A C33A 120.6(7)
C34A C35A C36A 120.2(7)
C31A C36A C35A 120.6(7)
C42A C41A C11A 120.6(7)
C42A C41A C46A 117.9(7)
C46A C41A C11A 121.4(7)
C41A C42A C43A 123.0(9)
C42A C43A C44A 119.3(8)
C43A C44A C45A 119.7(8)
C44A C45A C46A 119.0(9)
C41A C46A C45A 120.7(8)
C52A C51A C16A 122.4(7)
C52A C51A C56A 118.6(7)
C56A C51A C16A 119.0(6)
C51A C52A C53A 120.5(8)
C54A C53A C52A 119.4(8)
C55A C54A C53A 120.0(7)
C54A C55A C56A 121.6(8)
C55A C56A C51A 119.8(7)
C62A C61A P1A 121.0(7)
C62A C61A C66A 115.9(8)
C66A C61A P1A 123.0(6)
C61A C62A C63A 121.1(9)
C64A C63A C62A 121.9(9)
C63A C64A C65A 118.7(9)
C66A C65A C64A 119.2(10)
C65A C66A C61A 122.6(9)
C72A C71A P1A 119.7(5)
C72A C71A C76A 119.5(8)
C76A C71A P1A 120.7(7)
C71A C72A C73A 121.3(9)
C74A C73A C72A 119.8(11)
C75A C74A C73A 118.9(9)
C74A C75A C76A 124.7(9)
C71A C76A C75A 115.8(10)
C82B C81B P1A 126.2(17)
C82B C81B C86B 111(2)
C86B C81B P1A 122.4(15)
C82A C81A P1A 116.7(17)
C82A C81A C86A 118(2)
C86A C81A P1A 124.7(16)
C81B C82B C83B 129(2)
C81A C82A C83A 118.2(19)
C84B C83B C82B 116.3(18)
C84A C83A C82A 122.7(18)
C83B C84B C85B 120.7(18)
C85A C84A C83A 120(2)
C86B C85B C84B 119.5(18)
C84A C85A C86A 115(2)
C85B C86B C81B 123.3(19)
C81A C86A C85A 125(2)
C2S O1S C5S 114.6(9)
O1S C2S C3S 106.1(13)
C2S C3S C4S 102.0(12)
C5S C4S C3S 108.7(12)
C4S C5S O1S 100.8(11)
loop_
_geom_bond_atom_site_label_1
_geom_bond_atom_site_label_2
_geom_bond_distance
Ir1 P1 2.3229(14)
Ir1 O1 2.065(4)
Ir1 N1 2.052(5)
Ir1 N2 2.028(5)
Ir1 N3 2.049(5)
Ir1 N4 2.042(5)
P1 C61 1.846(6)
P1 C71 1.838(7)
P1 C81 1.837(6)
N1 C2 1.366(8)
N1 C5 1.369(8)
N2 C7 1.396(8)
N2 C10 1.390(8)
N3 C12 1.369(9)
N3 C15 1.380(8)
N4 C17 1.371(8)
N4 C20 1.391(8)
C0AA C2 1.395(11)
C0AA C20 1.391(10)
C0AA C21 1.499(10)
C2 C3 1.448(9)
C3 C4 1.341(10)
C4 C5 1.432(9)
C5 C6 1.388(10)
C6 C7 1.398(9)
C6 C31 1.512(9)
C7 C8 1.432(9)
C8 C9 1.344(10)
C9 C10 1.445(9)
C10 C11 1.396(9)
C11 C12 1.399(10)
C11 C41 1.501(8)
C12 C13 1.436(9)
C13 C14 1.343(10)
C14 C15 1.437(9)
C15 C16 1.396(9)
C16 C17 1.390(9)
C16 C51 1.503(8)
C17 C18 1.428(9)
C18 C19 1.354(10)
C19 C20 1.427(10)
C21 C22 1.397(10)
C21 C26 1.394(10)
C22 C23 1.396(10)
C23 C24 1.371(11)
C24 C25 1.387(12)
C25 C26 1.393(11)
C31 C32 1.374(11)
C31 C36 1.382(10)
C32 C33 1.394(10)
C33 C34 1.389(12)
C34 C35 1.360(13)
C35 C36 1.406(11)
C41 C42 1.404(9)
C41 C46 1.383(9)
C42 C43 1.392(10)
C43 C44 1.402(11)
C44 C45 1.372(11)
C45 C46 1.391(10)
C51 C52 1.398(9)
C51 C56 1.386(10)
C52 C53 1.385(10)
C53 C54 1.370(11)
C54 C55 1.372(12)
C55 C56 1.394(10)
C61 C62 1.383(10)
C61 C66 1.384(10)
C62 C63 1.379(10)
C63 C64 1.356(11)
C64 C65 1.405(12)
C65 C66 1.411(11)
C71 C72 1.399(11)
C71 C76 1.368(10)
C72 C73 1.363(11)
C73 C74 1.410(14)
C74 C75 1.356(14)
C75 C76 1.420(11)
C81 C82 1.384(10)
C81 C86 1.403(9)
C82 C83 1.396(10)
C83 C84 1.377(11)
C84 C85 1.374(11)
C85 C86 1.380(10)
Ir1A P1A 2.3145(16)
Ir1A O1A 2.071(4)
Ir1A N1A 2.034(5)
Ir1A N2A 2.047(5)
Ir1A N3A 2.049(6)
Ir1A N4A 2.038(5)
P1A C61A 1.861(8)
P1A C71A 1.843(7)
P1A C81B 1.83(3)
P1A C81A 1.83(3)
N1A C2A 1.394(8)
N1A C5A 1.373(8)
N2A C7A 1.380(9)
N2A C10A 1.377(9)
N3A C12A 1.373(9)
N3A C15A 1.384(9)
N4A C17A 1.363(9)
N4A C20A 1.376(10)
C1A C2A 1.390(9)
C1A C20A 1.396(10)
C1A C21B 1.56(3)
C1A C21A 1.449(15)
C2A C3A 1.424(9)
C3A C4A 1.346(10)
C4A C5A 1.430(9)
C5A C6A 1.411(10)
C6A C7A 1.398(11)
C6A C31A 1.489(9)
C7A C8A 1.423(10)
C8A C9A 1.371(11)
C9A C10A 1.440(10)
C10A C11A 1.407(10)
C11A C12A 1.386(10)
C11A C41A 1.503(10)
C12A C13A 1.432(10)
C13A C14A 1.331(11)
C14A C15A 1.435(11)
C15A C16A 1.384(11)
C16A C17A 1.411(12)
C16A C51A 1.502(10)
C17A C18A 1.427(10)
C18A C19A 1.370(11)
C19A C20A 1.434(9)
C21B C22B 1.42(2)
C21B C26B 1.42(2)
C21A C22A 1.397(13)
C21A C26A 1.377(14)
C22B C23B 1.404(19)
C22A C23A 1.386(13)
C23B C24B 1.41(2)
C23A C24A 1.405(14)
C24B C25B 1.40(2)
C24A C25A 1.387(15)
C25B C26B 1.41(2)
C25A C26A 1.393(14)
C31A C32A 1.395(10)
C31A C36A 1.382(10)
C32A C33A 1.380(9)
C33A C34A 1.392(11)
C34A C35A 1.361(11)
C35A C36A 1.392(9)
C41A C42A 1.371(11)
C41A C46A 1.385(12)
C42A C43A 1.375(13)
C43A C44A 1.386(14)
C44A C45A 1.393(14)
C45A C46A 1.420(13)
C51A C52A 1.393(11)
C51A C56A 1.403(10)
C52A C53A 1.397(12)
C53A C54A 1.393(13)
C54A C55A 1.357(12)
C55A C56A 1.380(11)
C61A C62A 1.345(12)
C61A C66A 1.398(13)
C62A C63A 1.401(13)
C63A C64A 1.316(14)
C64A C65A 1.389(14)
C65A C66A 1.361(13)
C71A C72A 1.353(12)
C71A C76A 1.401(11)
C72A C73A 1.407(12)
C73A C74A 1.355(15)
C74A C75A 1.313(16)
C75A C76A 1.419(14)
C81B C82B 1.356(18)
C81B C86B 1.383(18)
C81A C82A 1.333(18)
C81A C86A 1.360(19)
C82B C83B 1.378(18)
C82A C83A 1.364(17)
C83B C84B 1.318(18)
C83A C84A 1.363(18)
C84B C85B 1.379(18)
C84A C85A 1.356(19)
C85B C86B 1.371(17)
C85A C86A 1.366(18)
O1S C2S 1.445(16)
O1S C5S 1.520(15)
C2S C3S 1.553(19)
C3S C4S 1.58(2)
C4S C5S 1.511(18)
loop_
_geom_hbond_atom_site_label_D
_geom_hbond_atom_site_label_H
_geom_hbond_atom_site_label_A
_geom_hbond_distance_DH
_geom_hbond_distance_HA
_geom_hbond_distance_DA
_geom_hbond_angle_DHA
O1W H1WA O1A 0.85 1.86 2.698(9) 170.0
