#------------------------------------------------------------------------------
#$Date: 2019-11-05 14:13:30 +0200 (Tue, 05 Nov 2019) $
#$Revision: 223345 $
#$URL: file:///home/coder/svn-repositories/cod/cif/7/70/17/7701726.cif $
#------------------------------------------------------------------------------
#
# This file is available in the Crystallography Open Database (COD),
# http://www.crystallography.net/
#
# All data on this site have been placed in the public domain by the
# contributors.
#
data_7701726
loop_
_publ_author_name
'So, Shiu-Chun'
'Cheung, Wai-Man'
'Chiu, Wai-Hang'
'de Vere-Tucker, Matthew'
'Sung, Herman H.-Y.'
'Williams, Ian D.'
'Leung, Wa-Hung'
_publ_section_title
;
 Iridium porphyrin complexes with \m-nitrido, hydroxo, hydrosulfido and
 alkynyl ligands.
;
_journal_issue                   23
_journal_name_full
'Dalton transactions (Cambridge, England : 2003)'
_journal_page_first              8340
_journal_page_last               8349
_journal_paper_doi               10.1039/c9dt00244h
_journal_volume                  48
_journal_year                    2019
_chemical_formula_moiety         'C70 H48 Ir N4 P, C3 H6 O0.75'
_chemical_formula_sum            'C73 H54 Ir N4 O0.75 P'
_chemical_formula_weight         1222.37
_space_group_crystal_system      orthorhombic
_space_group_IT_number           61
_space_group_name_Hall           '-P 2ac 2ab'
_space_group_name_H-M_alt        'P b c a'
_atom_sites_solution_hydrogens   geom
_atom_sites_solution_primary     direct
_audit_creation_date             2018-05-29
_audit_creation_method
;
Olex2 1.2
(compiled 2017.08.10 svn.r3458 for OlexSys, GUI svn.r5381)
;
_audit_update_record
;
2019-05-01 deposited with the CCDC.	2019-05-15 downloaded from the CCDC.
;
_cell_angle_alpha                90
_cell_angle_beta                 90
_cell_angle_gamma                90
_cell_formula_units_Z            8
_cell_length_a                   19.8221(4)
_cell_length_b                   21.8692(4)
_cell_length_c                   25.5085(5)
_cell_measurement_reflns_used    11013
_cell_measurement_temperature    100.01(10)
_cell_measurement_theta_max      27.7090
_cell_measurement_theta_min      3.4690
_cell_volume                     11057.8(4)
_computing_cell_refinement
;
CrysAlisPro, Agilent Technologies,
Version 1.171.37.35 (release 13-08-2014 CrysAlis171 .NET)
(compiled Aug 13 2014,18:06:01)
;
_computing_data_collection
;
CrysAlisPro, Agilent Technologies,
Version 1.171.37.35 (release 13-08-2014 CrysAlis171 .NET)
(compiled Aug 13 2014,18:06:01)
;
_computing_data_reduction
;
CrysAlisPro, Agilent Technologies,
Version 1.171.37.35 (release 13-08-2014 CrysAlis171 .NET)
(compiled Aug 13 2014,18:06:01)
;
_computing_molecular_graphics    'Olex2 (Dolomanov et al., 2009)'
_computing_publication_material  'Olex2 (Dolomanov et al., 2009)'
_computing_structure_refinement  'ShelXL (Sheldrick, 2015)'
_computing_structure_solution    'ShelXS (Sheldrick, 2008)'
_diffrn_ambient_environment      N~2~
_diffrn_ambient_temperature      100.01(10)
_diffrn_detector                 'CCD plate'
_diffrn_detector_area_resol_mean 10.3587
_diffrn_detector_type            Atlas
_diffrn_measured_fraction_theta_full 0.994
_diffrn_measured_fraction_theta_max 0.994
_diffrn_measurement_details
;
#__ type_ start__ end____ width___ exp.time_
  1 omega   -4.00   91.00   1.0000   30.0000
omega____ theta____ kappa____ phi______ frames
    -       15.8574   77.0000 -180.0000 95

#__ type_ start__ end____ width___ exp.time_
  2 omega  -17.00   83.00   1.0000   30.0000
omega____ theta____ kappa____ phi______ frames
    -       15.8574   77.0000   60.0000 100

#__ type_ start__ end____ width___ exp.time_
  3 omega  -41.00   48.00   1.0000   30.0000
omega____ theta____ kappa____ phi______ frames
    -       15.8574  -57.0000  -90.0000 89
;
_diffrn_measurement_device       'kappa diffractometer'
_diffrn_measurement_device_type  'SuperNova, Dual, Cu at zero, Atlas'
_diffrn_measurement_method       '\w scans'
_diffrn_orient_matrix_UB_11      -0.0172284000
_diffrn_orient_matrix_UB_12      -0.0281648000
_diffrn_orient_matrix_UB_13      -0.0032912000
_diffrn_orient_matrix_UB_21      0.0283093000
_diffrn_orient_matrix_UB_22      -0.0120954000
_diffrn_orient_matrix_UB_23      -0.0134982000
_diffrn_orient_matrix_UB_31      0.0135104000
_diffrn_orient_matrix_UB_32      -0.0106568000
_diffrn_orient_matrix_UB_33      0.0240647000
_diffrn_radiation_monochromator  mirror
_diffrn_radiation_probe          x-ray
_diffrn_radiation_type           MoK\a
_diffrn_radiation_wavelength     0.71073
_diffrn_reflns_av_R_equivalents  0.1519
_diffrn_reflns_av_unetI/netI     0.0959
_diffrn_reflns_Laue_measured_fraction_full 0.994
_diffrn_reflns_Laue_measured_fraction_max 0.994
_diffrn_reflns_limit_h_max       17
_diffrn_reflns_limit_h_min       -24
_diffrn_reflns_limit_k_max       26
_diffrn_reflns_limit_k_min       -26
_diffrn_reflns_limit_l_max       31
_diffrn_reflns_limit_l_min       -31
_diffrn_reflns_number            62021
_diffrn_reflns_point_group_measured_fraction_full 0.994
_diffrn_reflns_point_group_measured_fraction_max 0.994
_diffrn_reflns_theta_full        25.000
_diffrn_reflns_theta_max         26.000
_diffrn_reflns_theta_min         3.318
_diffrn_source                   'SuperNova (Mo) X-ray Source'
_diffrn_source_current           0.80
_diffrn_source_power             0.040
_diffrn_source_target            Cu
_diffrn_source_voltage           50
_exptl_absorpt_coefficient_mu    2.495
_exptl_absorpt_correction_T_max  1.00000
_exptl_absorpt_correction_T_min  0.59898
_exptl_absorpt_correction_type   multi-scan
_exptl_absorpt_process_details
;
CrysAlisPro, Agilent Technologies,
Version 1.171.37.35 (release 13-08-2014 CrysAlis171 .NET)
(compiled Aug 13 2014,18:06:01)
Empirical absorption correction using spherical harmonics,
 implemented in SCALE3 ABSPACK scaling algorithm.
;
_exptl_crystal_colour            violet
_exptl_crystal_colour_primary    violet
_exptl_crystal_density_diffrn    1.469
_exptl_crystal_density_method    'not measured'
_exptl_crystal_description       plate
_exptl_crystal_F_000             4944
_exptl_crystal_size_max          0.25
_exptl_crystal_size_mid          0.22
_exptl_crystal_size_min          0.08
_refine_diff_density_max         2.250
_refine_diff_density_min         -1.201
_refine_diff_density_rms         0.128
_refine_ls_extinction_method     none
_refine_ls_goodness_of_fit_ref   1.001
_refine_ls_hydrogen_treatment    constr
_refine_ls_matrix_type           full
_refine_ls_number_parameters     766
_refine_ls_number_reflns         10817
_refine_ls_number_restraints     83
_refine_ls_restrained_S_all      1.000
_refine_ls_R_factor_all          0.0931
_refine_ls_R_factor_gt           0.0514
_refine_ls_shift/su_max          0.001
_refine_ls_shift/su_mean         0.000
_refine_ls_structure_factor_coef Fsqd
_refine_ls_weighting_details
'w=1/[\s^2^(Fo^2^)+(0.0350P)^2^] where P=(Fo^2^+2Fc^2^)/3'
_refine_ls_weighting_scheme      calc
_refine_ls_wR_factor_gt          0.1033
_refine_ls_wR_factor_ref         0.1186
_reflns_Friedel_coverage         0.000
_reflns_number_gt                6864
_reflns_number_total             10817
_reflns_threshold_expression     'I > 2\s(I)'
_cod_data_source_file            c9dt00244h2.cif
_cod_data_source_block           benson57molt
_cod_original_cell_volume        11057.7(4)
_cod_database_code               7701726
_shelx_shelxl_version_number     2014/7
_shelx_space_group_comment
;
The symmetry employed for this shelxl refinement is uniquely defined
by the following loop, which should always be used as a source of
symmetry information in preference to the above space-group names.
They are only intended as comments.
;
_reflns_odcompleteness_completeness 99.63
_reflns_odcompleteness_iscentric 1
_reflns_odcompleteness_theta     27.04
_olex2_refinement_description
;
1. Fixed Uiso
 At 1.2 times of:
  All C(H) groups, All C(H,H) groups, All C(H,H,H,H) groups
2. Rigid bond restraints
 Ir1, C1, C2, C3
 with sigma for 1-2 distances of 0.01 and sigma for 1-3 distances of 0.01
3. Uiso/Uaniso restraints and constraints
Ir1 \\sim C1 \\sim C2 \\sim C3: within 1.2A with sigma of 0.01 and sigma for
terminal atoms of 0.02
Uanis(C1) \\sim Ueq, Uanis(C2) \\sim Ueq: with sigma of 0.005 and sigma for
terminal atoms of 0.002
4. Rigid body (RIGU) restrains
 O1A, C2A, C3S, C4A, C5A
 with sigma for 1-2 distances of 0.001 and sigma for 1-3 distances of 0.001
 O1S, C2S, C3S, C4S, C5S
 with sigma for 1-2 distances of 0.001 and sigma for 1-3 distances of 0.001
5. Others
 Fixed Sof: O1A(0.25) O1S(0.5) C2A(0.25) H2AA(0.25) H2AB(0.25) C2S(0.5)
 H2SA(0.5) H2SB(0.5) C3S(0.75) H3SA(0.5) H3SB(0.5) H3SC(0.25) H3SD(0.25)
 C4A(0.25) H4AA(0.25) H4AB(0.25) C4S(0.5) H4SA(0.5) H4SB(0.5) C5A(0.25)
 H5AA(0.25) H5AB(0.25) C5S(0.5) H5SA(0.5) H5SB(0.5)
6.a Secondary CH2 refined with riding coordinates:
 C2A(H2AA,H2AB), C2S(H2SA,H2SB), C3S(H3SA,H3SB), C3S(H3SC,H3SD), C4A(H4AA,
 H4AB), C4S(H4SA,H4SB), C5A(H5AA,H5AB), C5S(H5SA,H5SB)
6.b Aromatic/amide H refined with riding coordinates:
 C4(H4), C5(H5), C6(H6), C7(H7), C8(H8), C12(H12), C13(H13), C17(H17),
 C18(H18), C22(H22), C23(H23), C27(H27), C28(H28), C32(H32), C33(H33), C34(H34),
  C35(H35), C36(H36), C42(H42), C43(H43), C44(H44), C45(H45), C46(H46),
 C52(H52), C53(H53), C54(H54), C55(H55), C56(H56), C62(H62), C63(H63), C64(H64),
  C65(H65), C66(H66), C72(H72), C73(H73), C74(H74), C75(H75), C76(H76),
 C82(H82), C83(H83), C84(H84), C85(H85), C86(H86), C92(H92), C93(H93), C94(H94),
  C95(H95), C96(H96)
;
_shelx_res_file
;
    benson57molt.res created by SHELXL-2014/7

TITL benson57MoLT in Pbca #61
REM reset to Pbca #61
CELL 0.71073 19.822121 21.869172 25.508452 90 90 90
ZERR 8 0.000438 0.000434 0.000494 0 0 0
LATT 1
SYMM 0.5-X,-Y,0.5+Z
SYMM 0.5+X,0.5-Y,-Z
SYMM -X,0.5+Y,0.5-Z
SFAC C H Ir N O P
UNIT 584 432 8 32 6 8
DELU Ir1 C1 > C3
SIMU 0.01 0.02 1.2 Ir1 C1 > C3
RIGU 0.001 0.001 O1A C2A C3S C4A C5A
RIGU 0.001 0.001 O1S C2S C3S C4S C5S
ISOR 0.005 0.002 C1 C2

L.S. 8
PLAN  20
TEMP -173
BOND
CONF
fmap 2
acta 50
OMIT 0 52
OMIT 1 29 8
OMIT 2 2 4
OMIT 13 26 3
OMIT 0 2 4
OMIT 3 4 1
OMIT 8 14 8
OMIT 1 4 4
OMIT 4 0 8
OMIT 2 5 4
OMIT 11 7 17
OMIT 1 4 9
OMIT 2 6 9
OMIT 4 8 3
OMIT 3 21 19
OMIT 4 4 3
OMIT 3 10 3
OMIT 4 9 27
OMIT 1 4 1
OMIT 4 2 13
OMIT 0 4 2
OMIT 4 6 0
OMIT 14 3 25
OMIT 1 2 5
OMIT 6 6 8
OMIT 5 10 21
OMIT 10 7 26
OMIT 20 2 4
OMIT 2 0 4
OMIT 4 2 9
OMIT 6 8 26
OMIT 0 0 6
OMIT 4 1 9
OMIT 0 4 11
OMIT 13 1 19
OMIT 0 6 10
OMIT 4 3 1
OMIT 6 16 5
OMIT 6 9 6
REM <olex2.extras>
REM <HklSrc "%.\\benson57MoLT.hkl">
REM </olex2.extras>

WGHT    0.035000
FVAR       0.27159
IR1   3    0.443887    0.393176    0.224066    11.00000    0.02998    0.02585 =
         0.03009   -0.00043   -0.00377    0.00164
P1    6    0.515115    0.471196    0.182079    11.00000    0.03753    0.03373 =
         0.03478    0.00140   -0.00287    0.00135
N1    4    0.378657    0.457523    0.252498    11.00000    0.03361    0.02752 =
         0.03572    0.00036   -0.00094    0.00186
N2    4    0.497496    0.395568    0.293226    11.00000    0.02943    0.03238 =
         0.02823    0.00368   -0.00507   -0.00594
N3    4    0.505581    0.324319    0.196578    11.00000    0.03318    0.01893 =
         0.03882   -0.00041   -0.00025    0.00191
N4    4    0.386292    0.386186    0.158260    11.00000    0.02842    0.03191 =
         0.03416   -0.00295   -0.01140    0.00394
C1    1    0.385251    0.326925    0.261228    11.00000    0.03193    0.01867 =
         0.02080    0.00063   -0.00046    0.00946
C2    1    0.366201    0.292080    0.288742    11.00000    0.03863    0.03700 =
         0.05023   -0.00954   -0.00429    0.00158
C3    1    0.339682    0.242750    0.322368    11.00000    0.05169    0.03711 =
         0.05779    0.00256   -0.00095    0.00040
C4    1    0.382960    0.213065    0.357320    11.00000    0.06931    0.05932 =
         0.05847    0.00689   -0.00996   -0.00650
AFIX  43
H4    2    0.428536    0.226032    0.360341    11.00000   -1.20000
AFIX   0
C5    1    0.359440    0.164055    0.388090    11.00000    0.09250    0.05664 =
         0.07915    0.01799   -0.00011   -0.00421
AFIX  43
H5    2    0.389185    0.143960    0.411668    11.00000   -1.20000
AFIX   0
C6    1    0.293170    0.145169    0.384026    11.00000    0.08339    0.05492 =
         0.10872    0.03136    0.01757   -0.00556
AFIX  43
H6    2    0.277875    0.111667    0.404539    11.00000   -1.20000
AFIX   0
C7    1    0.249331    0.173952    0.350955    11.00000    0.06689    0.03972 =
         0.12395    0.02335   -0.00272   -0.01124
AFIX  43
H7    2    0.203605    0.161226    0.348633    11.00000   -1.20000
AFIX   0
C8    1    0.273039    0.222281    0.320755    11.00000    0.06804    0.04382 =
         0.08025    0.01461   -0.00400   -0.00669
AFIX  43
H8    2    0.242374    0.242364    0.297892    11.00000   -1.20000
AFIX   0
C11   1    0.326436    0.483670    0.225588    11.00000    0.02643    0.02255 =
         0.02869   -0.00172    0.00447   -0.00023
C12   1    0.295249    0.528631    0.258483    11.00000    0.02628    0.03015 =
         0.04670    0.00905   -0.00167    0.00400
AFIX  43
H12   2    0.258459    0.554191    0.249023    11.00000   -1.20000
AFIX   0
C13   1    0.327088    0.528406    0.305127    11.00000    0.04303    0.03902 =
         0.02993    0.00074    0.00812    0.00607
AFIX  43
H13   2    0.317035    0.553459    0.334532    11.00000   -1.20000
AFIX   0
C14   1    0.379202    0.482921    0.301776    11.00000    0.03496    0.03732 =
         0.02428    0.00066    0.00087   -0.00461
C15   1    0.425706    0.470724    0.341354    11.00000    0.03940    0.03367 =
         0.03275    0.00011   -0.00041   -0.00351
C16   1    0.479101    0.428914    0.336732    11.00000    0.04335    0.03095 =
         0.02769    0.00422   -0.00036   -0.00714
C17   1    0.523472    0.411080    0.379511    11.00000    0.04765    0.04177 =
         0.02976    0.00721   -0.00535    0.00014
AFIX  43
H17   2    0.523492    0.427321    0.414053    11.00000   -1.20000
AFIX   0
C18   1    0.564185    0.367490    0.360920    11.00000    0.04425    0.03770 =
         0.04034    0.01269   -0.00698    0.00522
AFIX  43
H18   2    0.598311    0.347168    0.380420    11.00000   -1.20000
AFIX   0
C19   1    0.548427    0.356234    0.307258    11.00000    0.02523    0.02750 =
         0.04167   -0.00044   -0.00645   -0.00009
C20   1    0.575726    0.311952    0.275453    11.00000    0.03750    0.02077 =
         0.03332    0.00433    0.00219   -0.01102
C21   1    0.558401    0.298655    0.224255    11.00000    0.02448    0.01900 =
         0.04520    0.00248   -0.00162   -0.00111
C22   1    0.589304    0.254237    0.190406    11.00000    0.03611    0.03022 =
         0.05411    0.00216    0.00298    0.00226
AFIX  43
H22   2    0.627615    0.230048    0.198810    11.00000   -1.20000
AFIX   0
C23   1    0.555150    0.252496    0.144901    11.00000    0.03802    0.03209 =
         0.03892   -0.00446    0.00388    0.00369
AFIX  43
H23   2    0.564783    0.227120    0.115615    11.00000   -1.20000
AFIX   0
C24   1    0.500678    0.296780    0.148961    11.00000    0.03936    0.02867 =
         0.03643   -0.00180    0.00205   -0.00190
C25   1    0.450420    0.304693    0.112138    11.00000    0.02948    0.03340 =
         0.03415   -0.00394    0.00173   -0.00048
C26   1    0.396089    0.344858    0.117712    11.00000    0.03965    0.03182 =
         0.03320   -0.00220   -0.00262    0.00886
C27   1    0.343718    0.353596    0.078829    11.00000    0.04662    0.03957 =
         0.03756   -0.00540   -0.00882    0.00114
AFIX  43
H27   2    0.338220    0.331261    0.047173    11.00000   -1.20000
AFIX   0
C28   1    0.303996    0.399869    0.096351    11.00000    0.03747    0.03125 =
         0.03856   -0.00181   -0.00814    0.00442
AFIX  43
H28   2    0.265195    0.415919    0.079365    11.00000   -1.20000
AFIX   0
C29   1    0.331512    0.419782    0.145007    11.00000    0.03055    0.03216 =
         0.03412    0.00206   -0.00244   -0.00111
C30   1    0.304665    0.467767    0.174960    11.00000    0.02788    0.02641 =
         0.03904    0.00598    0.00229   -0.00354
C31   1    0.245940    0.503274    0.152184    11.00000    0.02382    0.02966 =
         0.03674   -0.00363   -0.00640    0.00213
C32   1    0.182057    0.496148    0.170659    11.00000    0.03883    0.03939 =
         0.04468    0.00396   -0.00193    0.00499
AFIX  43
H32   2    0.174130    0.469192    0.199207    11.00000   -1.20000
AFIX   0
C33   1    0.128509    0.527364    0.148692    11.00000    0.03049    0.04754 =
         0.04828   -0.01141   -0.00370   -0.00111
AFIX  43
H33   2    0.084240    0.522769    0.162407    11.00000   -1.20000
AFIX   0
C34   1    0.140428    0.565542    0.106270    11.00000    0.04368    0.03647 =
         0.05405   -0.00328   -0.01646    0.00589
AFIX  43
H34   2    0.104133    0.587081    0.090441    11.00000   -1.20000
AFIX   0
C35   1    0.204362    0.572094    0.087329    11.00000    0.06015    0.03746 =
         0.04626    0.01090   -0.00931   -0.00131
AFIX  43
H35   2    0.212201    0.598370    0.058305    11.00000   -1.20000
AFIX   0
C36   1    0.257555    0.541370    0.109494    11.00000    0.04261    0.04018 =
         0.04422    0.00018   -0.00745   -0.00152
AFIX  43
H36   2    0.301830    0.546077    0.095820    11.00000   -1.20000
AFIX   0
C41   1    0.417307    0.503018    0.392239    11.00000    0.05026    0.05309 =
         0.02788   -0.00216   -0.00341    0.01279
C42   1    0.378466    0.480923    0.430580    11.00000    0.18702    0.06353 =
         0.03497    0.00183    0.03127   -0.02211
AFIX  43
H42   2    0.356527    0.442684    0.425928    11.00000   -1.20000
AFIX   0
C43   1    0.369364    0.513550    0.478172    11.00000    0.18665    0.10637 =
         0.04691    0.00343    0.03740   -0.01106
AFIX  43
H43   2    0.342394    0.496405    0.505222    11.00000   -1.20000
AFIX   0
C44   1    0.398738    0.568928    0.485468    11.00000    0.10458    0.09325 =
         0.03077   -0.01416   -0.01336    0.03754
AFIX  43
H44   2    0.391958    0.591703    0.516741    11.00000   -1.20000
AFIX   0
C45   1    0.438046    0.590221    0.446276    11.00000    0.07348    0.09363 =
         0.07236   -0.04673   -0.00832    0.00467
AFIX  43
H45   2    0.459767    0.628600    0.450685    11.00000   -1.20000
AFIX   0
C46   1    0.447955    0.558829    0.400397    11.00000    0.05328    0.07342 =
         0.05615   -0.02690    0.00740   -0.00415
AFIX  43
H46   2    0.476184    0.575670    0.373989    11.00000   -1.20000
AFIX   0
C51   1    0.633518    0.274290    0.297741    11.00000    0.03243    0.03724 =
         0.03979    0.00345   -0.00551    0.00243
C52   1    0.624553    0.211107    0.306409    11.00000    0.04587    0.03668 =
         0.05635    0.00487   -0.00658   -0.00702
AFIX  43
H52   2    0.581438    0.193125    0.301232    11.00000   -1.20000
AFIX   0
C53   1    0.677991    0.175295    0.322348    11.00000    0.04576    0.03945 =
         0.06336    0.00844   -0.01105    0.00530
AFIX  43
H53   2    0.671500    0.132902    0.328724    11.00000   -1.20000
AFIX   0
C54   1    0.740149    0.200809    0.328943    11.00000    0.04818    0.05162 =
         0.05339    0.00910   -0.00404    0.02038
AFIX  43
H54   2    0.777070    0.175430    0.338453    11.00000   -1.20000
AFIX   0
C55   1    0.750564    0.262108    0.322181    11.00000    0.03580    0.06497 =
         0.04650    0.01377   -0.00978   -0.00015
AFIX  43
H55   2    0.793900    0.279394    0.327957    11.00000   -1.20000
AFIX   0
C56   1    0.696619    0.298927    0.306671    11.00000    0.04655    0.04497 =
         0.05172    0.00920   -0.01026    0.00049
AFIX  43
H56   2    0.703424    0.341608    0.302187    11.00000   -1.20000
AFIX   0
C61   1    0.451909    0.267019    0.062953    11.00000    0.03195    0.03955 =
         0.03400   -0.00151    0.00553    0.00443
C62   1    0.410455    0.217382    0.056462    11.00000    0.08083    0.04722 =
         0.04196   -0.00826    0.01990   -0.02118
AFIX  43
H62   2    0.381513    0.205380    0.084306    11.00000   -1.20000
AFIX   0
C63   1    0.409969    0.184637    0.010421    11.00000    0.11447    0.03792 =
         0.04549   -0.00725    0.02168   -0.01872
AFIX  43
H63   2    0.381118    0.150120    0.007482    11.00000   -1.20000
AFIX   0
C64   1    0.449025    0.200004   -0.030441    11.00000    0.06767    0.04378 =
         0.03847   -0.01185    0.00765   -0.00351
AFIX  43
H64   2    0.447367    0.177761   -0.062406    11.00000   -1.20000
AFIX   0
C65   1    0.491097    0.248631   -0.024400    11.00000    0.08885    0.09692 =
         0.04132   -0.01041    0.02974   -0.02493
AFIX  43
H65   2    0.519863    0.260213   -0.052484    11.00000   -1.20000
AFIX   0
C66   1    0.492761    0.281721    0.022181    11.00000    0.10386    0.06848 =
         0.05150   -0.01187    0.02346   -0.04283
AFIX  43
H66   2    0.523024    0.315183    0.025488    11.00000   -1.20000
AFIX   0
C71   1    0.479371    0.508418    0.123692    11.00000    0.03859    0.04592 =
         0.04072    0.01144    0.00182   -0.00316
C72   1    0.461420    0.472131    0.080736    11.00000    0.05496    0.04532 =
         0.03482    0.01155    0.00300   -0.00662
AFIX  43
H72   2    0.469424    0.429316    0.081703    11.00000   -1.20000
AFIX   0
C73   1    0.432078    0.498147    0.036829    11.00000    0.06099    0.05597 =
         0.03390    0.00906   -0.00068   -0.02083
AFIX  43
H73   2    0.420807    0.472999    0.007753    11.00000   -1.20000
AFIX   0
C74   1    0.419104    0.559373    0.034689    11.00000    0.04638    0.07437 =
         0.04160    0.02540   -0.00482   -0.00116
AFIX  43
H74   2    0.396904    0.576723    0.005225    11.00000   -1.20000
AFIX   0
C75   1    0.438796    0.595292    0.075970    11.00000    0.06639    0.05317 =
         0.05642    0.02660    0.00491   -0.00058
AFIX  43
H75   2    0.432612    0.638299    0.073869    11.00000   -1.20000
AFIX   0
C76   1    0.467583    0.570394    0.120829    11.00000    0.06005    0.04179 =
         0.04017    0.01440   -0.00615   -0.00647
AFIX  43
H76   2    0.479117    0.596093    0.149486    11.00000   -1.20000
AFIX   0
C81   1    0.539611    0.538690    0.220864    11.00000    0.04518    0.02822 =
         0.03660    0.00087   -0.00305    0.00001
C82   1    0.489921    0.569982    0.246940    11.00000    0.05451    0.03557 =
         0.05650    0.00301   -0.00757   -0.00543
AFIX  43
H82   2    0.445344    0.554042    0.247528    11.00000   -1.20000
AFIX   0
C83   1    0.503984    0.625358    0.272841    11.00000    0.06187    0.03439 =
         0.06306   -0.00307    0.00836    0.00511
AFIX  43
H83   2    0.469019    0.646665    0.290591    11.00000   -1.20000
AFIX   0
C84   1    0.567967    0.648364    0.272391    11.00000    0.06275    0.03025 =
         0.05715   -0.00099   -0.00935    0.00087
AFIX  43
H84   2    0.578183    0.685502    0.290005    11.00000   -1.20000
AFIX   0
C85   1    0.617835    0.616495    0.245724    11.00000    0.04897    0.03999 =
         0.06528    0.00511   -0.01070   -0.01492
AFIX  43
H85   2    0.662417    0.632410    0.244932    11.00000   -1.20000
AFIX   0
C86   1    0.604141    0.562418    0.220435    11.00000    0.04726    0.03594 =
         0.04778   -0.00216   -0.00329   -0.00301
AFIX  43
H86   2    0.639182    0.541303    0.202607    11.00000   -1.20000
AFIX   0
C91   1    0.598003    0.443351    0.159136    11.00000    0.03933    0.04795 =
         0.04249    0.00534   -0.00345    0.00022
C92   1    0.639166    0.415832    0.194811    11.00000    0.04502    0.02450 =
         0.04995    0.00197   -0.00090   -0.00054
AFIX  43
H92   2    0.622608    0.409529    0.229340    11.00000   -1.20000
AFIX   0
C93   1    0.704346    0.396515    0.183048    11.00000    0.03539    0.04342 =
         0.05828   -0.00872    0.00064   -0.00594
AFIX  43
H93   2    0.732638    0.379364    0.209267    11.00000   -1.20000
AFIX   0
C94   1    0.725790    0.402849    0.133831    11.00000    0.06214    0.16764 =
         0.06687   -0.01660   -0.00179    0.03488
AFIX  43
H94   2    0.769001    0.387647    0.124362    11.00000   -1.20000
AFIX   0
C95   1    0.686807    0.430783    0.096759    11.00000    0.08321    0.23358 =
         0.04573    0.00918    0.01460    0.06053
AFIX  43
H95   2    0.703817    0.436316    0.062266    11.00000   -1.20000
AFIX   0
C96   1    0.622223    0.451205    0.109269    11.00000    0.05473    0.17789 =
         0.03667    0.01422    0.00490    0.04394
AFIX  43
H96   2    0.595115    0.470472    0.083376    11.00000   -1.20000
AFIX   0

PART 2
O1A   5    0.694824    0.324402    0.002780    10.25000    0.07587    0.08072 =
         0.07732    0.00341    0.00002    0.00163
PART 0
PART 1
O1S   5    0.736400    0.316729    0.006845    10.50000    0.07800    0.08202 =
         0.06110    0.01177   -0.00252   -0.00376
PART 0
PART 2
C2A   1    0.723665    0.283727   -0.035645    10.25000    0.07267    0.08150 =
         0.07586    0.00313   -0.00317    0.00220
AFIX  23
H2AA  2    0.724368    0.303091   -0.070721    10.25000   -1.20000
H2AB  2    0.770284    0.272175   -0.025855    10.25000   -1.20000
AFIX   0
PART 0
PART 1
C2S   1    0.683434    0.300689   -0.027611    10.50000    0.09163    0.07892 =
         0.08021    0.00613   -0.02060    0.00499
AFIX  23
H2SA  2    0.689766    0.321512   -0.061719    10.50000   -1.20000
H2SB  2    0.639728    0.314029   -0.012711    10.50000   -1.20000
AFIX   0
PART 0
C3S   1    0.682966    0.234751   -0.035299    10.75000    0.06745    0.07993 =
         0.07504    0.00550   -0.00756    0.00561
PART 1
AFIX  23
H3SA  2    0.713057    0.222391   -0.064406    10.50000   -1.20000
H3SB  2    0.636845    0.219296   -0.042096    10.50000   -1.20000
AFIX  23
PART 0
PART 2
H3SC  2    0.706470    0.197504   -0.047667    10.25000   -1.20000
H3SD  2    0.641895    0.241504   -0.056610    10.25000   -1.20000
AFIX   0
C4A   1    0.667770    0.231746    0.020093    10.25000    0.07118    0.08104 =
         0.07499    0.00458   -0.00701    0.00067
AFIX  23
H4AA  2    0.695417    0.199255    0.036488    10.25000   -1.20000
H4AB  2    0.619690    0.220795    0.024802    10.25000   -1.20000
AFIX   0
PART 0
PART 1
C4S   1    0.709356    0.213068    0.016927    10.50000    0.03462    0.07941 =
         0.06945    0.00696    0.00653    0.00611
AFIX  23
H4SA  2    0.672441    0.196130    0.038664    10.50000   -1.20000
H4SB  2    0.744378    0.181272    0.012179    10.50000   -1.20000
AFIX   0
PART 0
PART 2
C5A   1    0.681327    0.290484    0.046623    10.25000    0.07554    0.08237 =
         0.07633    0.00287   -0.00221   -0.00286
AFIX  23
H5AA  2    0.641469    0.305869    0.065935    10.25000   -1.20000
H5AB  2    0.720595    0.288053    0.070513    10.25000   -1.20000
AFIX   0
PART 0
PART 1
C5S   1    0.738435    0.268908    0.041597    10.50000    0.05852    0.08130 =
         0.06551    0.01274   -0.00028   -0.00252
AFIX  23
H5SA  2    0.712405    0.279498    0.073451    10.50000   -1.20000
H5SB  2    0.785705    0.260963    0.052113    10.50000   -1.20000
AFIX   0
HKLF 4

REM  benson57MoLT in Pbca #61
REM R1 =  0.0514 for    6864 Fo > 4sig(Fo)  and  0.0931 for all   10817 data
REM    766 parameters refined using     83 restraints

END

WGHT      0.0379      0.0000

REM Highest difference peak  2.250,  deepest hole -1.201,  1-sigma level  0.128
Q1    1   0.4442  0.3940  0.3290  11.00000  0.05    2.25
Q2    1   0.6657  0.3934  0.2224  11.00000  0.05    1.67
Q3    1   0.2329  0.4157  0.0567  11.00000  0.05    1.21
Q4    1   0.4174  0.3542  0.2263  11.00000  0.05    0.99
Q5    1   0.4204  0.4318  0.2249  11.00000  0.05    0.91
Q6    1   0.4150  0.3789  0.2508  11.00000  0.05    0.84
Q7    1   0.4189  0.3924  0.1926  11.00000  0.05    0.78
Q8    1   0.4783  0.4362  0.2212  11.00000  0.05    0.78
Q9    1   0.4562  0.3529  0.1814  11.00000  0.05    0.75
Q10   1   0.4529  0.4276  0.1824  11.00000  0.05    0.72
Q11   1   0.4815  0.3901  0.1980  11.00000  0.05    0.72
Q12   1   0.3804  0.3894  0.2255  11.00000  0.05    0.71
Q13   1   0.4828  0.3921  0.2517  11.00000  0.05    0.71
Q14   1   0.6257  0.3362  0.3983  11.00000  0.05    0.71
Q15   1   0.4615  0.4298  0.2628  11.00000  0.05    0.69
Q16   1   0.4831  0.3059  0.2202  11.00000  0.05    0.64
Q17   1   0.3356  0.3285  0.0167  11.00000  0.05    0.63
Q18   1   0.5716  0.1985  0.0996  11.00000  0.05    0.62
Q19   1   0.4800  0.3478  0.2261  11.00000  0.05    0.59
Q20   1   0.5182  0.4661  0.2617  11.00000  0.05    0.56
;
_shelx_res_checksum              43885
_olex2_date_sample_data_collection 2015-12-09
_olex2_submission_special_instructions 'No special instructions were received'
loop_
_space_group_symop_operation_xyz
'x, y, z'
'-x+1/2, -y, z+1/2'
'x+1/2, -y+1/2, -z'
'-x, y+1/2, -z+1/2'
'-x, -y, -z'
'x-1/2, y, -z-1/2'
'-x-1/2, y-1/2, z'
'x, -y-1/2, z-1/2'
loop_
_atom_site_label
_atom_site_type_symbol
_atom_site_fract_x
_atom_site_fract_y
_atom_site_fract_z
_atom_site_U_iso_or_equiv
_atom_site_adp_type
_atom_site_occupancy
_atom_site_site_symmetry_order
_atom_site_calc_flag
_atom_site_refinement_flags_posn
_atom_site_refinement_flags_adp
_atom_site_refinement_flags_occupancy
_atom_site_disorder_assembly
_atom_site_disorder_group
Ir1 Ir 0.44389(2) 0.39318(2) 0.22407(2) 0.02864(9) Uani 1 1 d . U . . .
P1 P 0.51511(8) 0.47120(7) 0.18208(6) 0.0353(4) Uani 1 1 d . . . . .
N1 N 0.3787(2) 0.4575(2) 0.25250(18) 0.0323(11) Uani 1 1 d . . . . .
N2 N 0.4975(2) 0.3956(2) 0.29323(17) 0.0300(11) Uani 1 1 d . . . . .
N3 N 0.5056(2) 0.32432(19) 0.19658(18) 0.0303(11) Uani 1 1 d . . . . .
N4 N 0.3863(2) 0.3862(2) 0.15826(18) 0.0315(11) Uani 1 1 d . . . . .
C1 C 0.3853(3) 0.3269(2) 0.26123(19) 0.0238(12) Uani 1 1 d . U . . .
C2 C 0.3662(3) 0.2921(3) 0.2887(3) 0.0420(15) Uani 1 1 d . U . . .
C3 C 0.3397(4) 0.2428(3) 0.3224(3) 0.0489(17) Uani 1 1 d . U . . .
C4 C 0.3830(4) 0.2131(3) 0.3573(3) 0.062(2) Uani 1 1 d . . . . .
H4 H 0.4285 0.2260 0.3603 0.075 Uiso 1 1 calc R . . . .
C5 C 0.3594(5) 0.1641(3) 0.3881(3) 0.076(2) Uani 1 1 d . . . . .
H5 H 0.3892 0.1440 0.4117 0.091 Uiso 1 1 calc R . . . .
C6 C 0.2932(5) 0.1452(4) 0.3840(4) 0.082(3) Uani 1 1 d . . . . .
H6 H 0.2779 0.1117 0.4045 0.099 Uiso 1 1 calc R . . . .
C7 C 0.2493(4) 0.1740(3) 0.3510(4) 0.077(3) Uani 1 1 d . . . . .
H7 H 0.2036 0.1612 0.3486 0.092 Uiso 1 1 calc R . . . .
C8 C 0.2730(4) 0.2223(3) 0.3208(3) 0.064(2) Uani 1 1 d . . . . .
H8 H 0.2424 0.2424 0.2979 0.077 Uiso 1 1 calc R . . . .
C11 C 0.3264(3) 0.4837(2) 0.2256(2) 0.0259(12) Uani 1 1 d . . . . .
C12 C 0.2952(3) 0.5286(3) 0.2585(2) 0.0344(14) Uani 1 1 d . . . . .
H12 H 0.2585 0.5542 0.2490 0.041 Uiso 1 1 calc R . . . .
C13 C 0.3271(3) 0.5284(3) 0.3051(2) 0.0373(15) Uani 1 1 d . . . . .
H13 H 0.3170 0.5535 0.3345 0.045 Uiso 1 1 calc R . . . .
C14 C 0.3792(3) 0.4829(3) 0.3018(2) 0.0322(14) Uani 1 1 d . . . . .
C15 C 0.4257(3) 0.4707(3) 0.3414(2) 0.0353(15) Uani 1 1 d . . . . .
C16 C 0.4791(3) 0.4289(3) 0.3367(2) 0.0340(14) Uani 1 1 d . . . . .
C17 C 0.5235(3) 0.4111(3) 0.3795(2) 0.0397(15) Uani 1 1 d . . . . .
H17 H 0.5235 0.4273 0.4141 0.048 Uiso 1 1 calc R . . . .
C18 C 0.5642(3) 0.3675(3) 0.3609(2) 0.0408(16) Uani 1 1 d . . . . .
H18 H 0.5983 0.3472 0.3804 0.049 Uiso 1 1 calc R . . . .
C19 C 0.5484(3) 0.3562(3) 0.3073(2) 0.0315(14) Uani 1 1 d . . . . .
C20 C 0.5757(3) 0.3120(2) 0.2755(2) 0.0305(14) Uani 1 1 d . . . . .
C21 C 0.5584(3) 0.2987(2) 0.2243(2) 0.0296(14) Uani 1 1 d . . . . .
C22 C 0.5893(3) 0.2542(3) 0.1904(2) 0.0401(15) Uani 1 1 d . . . . .
H22 H 0.6276 0.2300 0.1988 0.048 Uiso 1 1 calc R . . . .
C23 C 0.5551(3) 0.2525(3) 0.1449(2) 0.0363(15) Uani 1 1 d . . . . .
H23 H 0.5648 0.2271 0.1156 0.044 Uiso 1 1 calc R . . . .
C24 C 0.5007(3) 0.2968(2) 0.1490(2) 0.0348(15) Uani 1 1 d . . . . .
C25 C 0.4504(3) 0.3047(3) 0.1121(2) 0.0323(14) Uani 1 1 d . . . . .
C26 C 0.3961(3) 0.3449(3) 0.1177(2) 0.0349(14) Uani 1 1 d . . . . .
C27 C 0.3437(3) 0.3536(3) 0.0788(2) 0.0413(16) Uani 1 1 d . . . . .
H27 H 0.3382 0.3313 0.0472 0.050 Uiso 1 1 calc R . . . .
C28 C 0.3040(3) 0.3999(2) 0.0964(2) 0.0358(15) Uani 1 1 d . . . . .
H28 H 0.2652 0.4159 0.0794 0.043 Uiso 1 1 calc R . . . .
C29 C 0.3315(3) 0.4198(3) 0.1450(2) 0.0323(14) Uani 1 1 d . . . . .
C30 C 0.3047(3) 0.4678(2) 0.1750(2) 0.0311(13) Uani 1 1 d . . . . .
C31 C 0.2459(3) 0.5033(2) 0.1522(2) 0.0301(13) Uani 1 1 d . . . . .
C32 C 0.1821(3) 0.4961(3) 0.1707(2) 0.0410(15) Uani 1 1 d . . . . .
H32 H 0.1741 0.4692 0.1992 0.049 Uiso 1 1 calc R . . . .
C33 C 0.1285(3) 0.5274(3) 0.1487(2) 0.0421(16) Uani 1 1 d . . . . .
H33 H 0.0842 0.5228 0.1624 0.051 Uiso 1 1 calc R . . . .
C34 C 0.1404(3) 0.5655(3) 0.1063(3) 0.0447(17) Uani 1 1 d . . . . .
H34 H 0.1041 0.5871 0.0904 0.054 Uiso 1 1 calc R . . . .
C35 C 0.2044(4) 0.5721(3) 0.0873(3) 0.0480(17) Uani 1 1 d . . . . .
H35 H 0.2122 0.5984 0.0583 0.058 Uiso 1 1 calc R . . . .
C36 C 0.2576(3) 0.5414(3) 0.1095(2) 0.0423(16) Uani 1 1 d . . . . .
H36 H 0.3018 0.5461 0.0958 0.051 Uiso 1 1 calc R . . . .
C41 C 0.4173(3) 0.5030(3) 0.3922(2) 0.0437(16) Uani 1 1 d . . . . .
C42 C 0.3785(5) 0.4809(4) 0.4306(3) 0.095(3) Uani 1 1 d . . . . .
H42 H 0.3565 0.4427 0.4259 0.114 Uiso 1 1 calc R . . . .
C43 C 0.3694(6) 0.5135(5) 0.4782(3) 0.113(4) Uani 1 1 d . . . . .
H43 H 0.3424 0.4964 0.5052 0.136 Uiso 1 1 calc R . . . .
C44 C 0.3987(5) 0.5689(4) 0.4855(3) 0.076(3) Uani 1 1 d . . . . .
H44 H 0.3920 0.5917 0.5167 0.091 Uiso 1 1 calc R . . . .
C45 C 0.4380(4) 0.5902(4) 0.4463(4) 0.080(3) Uani 1 1 d . . . . .
H45 H 0.4598 0.6286 0.4507 0.096 Uiso 1 1 calc R . . . .
C46 C 0.4480(4) 0.5588(4) 0.4004(3) 0.061(2) Uani 1 1 d . . . . .
H46 H 0.4762 0.5757 0.3740 0.073 Uiso 1 1 calc R . . . .
C51 C 0.6335(3) 0.2743(3) 0.2977(2) 0.0365(15) Uani 1 1 d . . . . .
C52 C 0.6246(3) 0.2111(3) 0.3064(3) 0.0463(17) Uani 1 1 d . . . . .
H52 H 0.5814 0.1931 0.3012 0.056 Uiso 1 1 calc R . . . .
C53 C 0.6780(3) 0.1753(3) 0.3223(3) 0.0495(17) Uani 1 1 d . . . . .
H53 H 0.6715 0.1329 0.3287 0.059 Uiso 1 1 calc R . . . .
C54 C 0.7401(4) 0.2008(3) 0.3289(3) 0.0511(18) Uani 1 1 d . . . . .
H54 H 0.7771 0.1754 0.3385 0.061 Uiso 1 1 calc R . . . .
C55 C 0.7506(3) 0.2621(3) 0.3222(2) 0.0491(18) Uani 1 1 d . . . . .
H55 H 0.7939 0.2794 0.3280 0.059 Uiso 1 1 calc R . . . .
C56 C 0.6966(3) 0.2989(3) 0.3067(2) 0.0477(17) Uani 1 1 d . . . . .
H56 H 0.7034 0.3416 0.3022 0.057 Uiso 1 1 calc R . . . .
C61 C 0.4519(3) 0.2670(3) 0.0630(2) 0.0352(15) Uani 1 1 d . . . . .
C62 C 0.4105(4) 0.2174(3) 0.0565(3) 0.057(2) Uani 1 1 d . . . . .
H62 H 0.3815 0.2054 0.0843 0.068 Uiso 1 1 calc R . . . .
C63 C 0.4100(4) 0.1846(3) 0.0104(3) 0.066(2) Uani 1 1 d . . . . .
H63 H 0.3811 0.1501 0.0075 0.079 Uiso 1 1 calc R . . . .
C64 C 0.4490(4) 0.2000(3) -0.0304(3) 0.0500(18) Uani 1 1 d . . . . .
H64 H 0.4474 0.1778 -0.0624 0.060 Uiso 1 1 calc R . . . .
C65 C 0.4911(4) 0.2486(4) -0.0244(3) 0.076(3) Uani 1 1 d . . . . .
H65 H 0.5199 0.2602 -0.0525 0.091 Uiso 1 1 calc R . . . .
C66 C 0.4928(4) 0.2817(3) 0.0222(3) 0.075(3) Uani 1 1 d . . . . .
H66 H 0.5230 0.3152 0.0255 0.090 Uiso 1 1 calc R . . . .
C71 C 0.4794(3) 0.5084(3) 0.1237(2) 0.0417(16) Uani 1 1 d . . . . .
C72 C 0.4614(3) 0.4721(3) 0.0807(2) 0.0450(17) Uani 1 1 d . . . . .
H72 H 0.4694 0.4293 0.0817 0.054 Uiso 1 1 calc R . . . .
C73 C 0.4321(3) 0.4981(3) 0.0368(2) 0.0503(19) Uani 1 1 d . . . . .
H73 H 0.4208 0.4730 0.0078 0.060 Uiso 1 1 calc R . . . .
C74 C 0.4191(3) 0.5594(4) 0.0347(3) 0.0541(19) Uani 1 1 d . . . . .
H74 H 0.3969 0.5767 0.0052 0.065 Uiso 1 1 calc R . . . .
C75 C 0.4388(4) 0.5953(3) 0.0760(3) 0.059(2) Uani 1 1 d . . . . .
H75 H 0.4326 0.6383 0.0739 0.070 Uiso 1 1 calc R . . . .
C76 C 0.4676(3) 0.5704(3) 0.1208(3) 0.0473(17) Uani 1 1 d . . . . .
H76 H 0.4791 0.5961 0.1495 0.057 Uiso 1 1 calc R . . . .
C81 C 0.5396(3) 0.5387(3) 0.2209(2) 0.0367(15) Uani 1 1 d . . . . .
C82 C 0.4899(4) 0.5700(3) 0.2469(3) 0.0489(17) Uani 1 1 d . . . . .
H82 H 0.4453 0.5540 0.2475 0.059 Uiso 1 1 calc R . . . .
C83 C 0.5040(4) 0.6254(3) 0.2728(3) 0.0531(19) Uani 1 1 d . . . . .
H83 H 0.4690 0.6467 0.2906 0.064 Uiso 1 1 calc R . . . .
C84 C 0.5680(4) 0.6484(3) 0.2724(3) 0.0500(19) Uani 1 1 d . . . . .
H84 H 0.5782 0.6855 0.2900 0.060 Uiso 1 1 calc R . . . .
C85 C 0.6178(4) 0.6165(3) 0.2457(3) 0.0514(18) Uani 1 1 d . . . . .
H85 H 0.6624 0.6324 0.2449 0.062 Uiso 1 1 calc R . . . .
C86 C 0.6041(4) 0.5624(3) 0.2204(2) 0.0437(16) Uani 1 1 d . . . . .
H86 H 0.6392 0.5413 0.2026 0.052 Uiso 1 1 calc R . . . .
C91 C 0.5980(3) 0.4434(3) 0.1591(2) 0.0433(16) Uani 1 1 d . . . . .
C92 C 0.6392(3) 0.4158(2) 0.1948(3) 0.0398(16) Uani 1 1 d . . . . .
H92 H 0.6226 0.4095 0.2293 0.048 Uiso 1 1 calc R . . . .
C93 C 0.7043(3) 0.3965(3) 0.1830(3) 0.0457(17) Uani 1 1 d . . . . .
H93 H 0.7326 0.3794 0.2093 0.055 Uiso 1 1 calc R . . . .
C94 C 0.7258(5) 0.4028(5) 0.1338(4) 0.099(3) Uani 1 1 d . . . . .
H94 H 0.7690 0.3876 0.1244 0.119 Uiso 1 1 calc R . . . .
C95 C 0.6868(5) 0.4308(6) 0.0968(3) 0.121(4) Uani 1 1 d . . . . .
H95 H 0.7038 0.4363 0.0623 0.145 Uiso 1 1 calc R . . . .
C96 C 0.6222(4) 0.4512(5) 0.1093(3) 0.090(3) Uani 1 1 d . . . . .
H96 H 0.5951 0.4705 0.0834 0.108 Uiso 1 1 calc R . . . .
O1A O 0.6948(14) 0.3244(12) 0.0028(11) 0.078(5) Uani 0.25 1 d . U P A 2
O1S O 0.7364(6) 0.3167(6) 0.0068(5) 0.074(3) Uani 0.5 1 d . U P A 1
C2A C 0.724(2) 0.2837(16) -0.0356(15) 0.077(5) Uani 0.25 1 d . U P A 2
H2AA H 0.7244 0.3031 -0.0707 0.092 Uiso 0.25 1 calc R . P A 2
H2AB H 0.7703 0.2722 -0.0259 0.092 Uiso 0.25 1 calc R . P A 2
C2S C 0.6834(11) 0.3007(9) -0.0276(9) 0.084(4) Uani 0.5 1 d . U P A 1
H2SA H 0.6898 0.3215 -0.0617 0.100 Uiso 0.5 1 calc R . P A 1
H2SB H 0.6397 0.3140 -0.0127 0.100 Uiso 0.5 1 calc R . P A 1
C3S C 0.6830(6) 0.2348(5) -0.0353(4) 0.074(2) Uani 0.75 1 d . U P . .
H3SA H 0.7131 0.2224 -0.0644 0.089 Uiso 0.5 1 calc R . P A 1
H3SB H 0.6368 0.2193 -0.0421 0.089 Uiso 0.5 1 calc R . P A 1
H3SC H 0.7065 0.1975 -0.0477 0.089 Uiso 0.25 1 calc R . P A 2
H3SD H 0.6419 0.2415 -0.0566 0.089 Uiso 0.25 1 calc R . P A 2
C4A C 0.6678(19) 0.2317(16) 0.0201(13) 0.076(5) Uani 0.25 1 d . U P A 2
H4AA H 0.6954 0.1993 0.0365 0.091 Uiso 0.25 1 calc R . P A 2
H4AB H 0.6197 0.2208 0.0248 0.091 Uiso 0.25 1 calc R . P A 2
C4S C 0.7094(7) 0.2131(7) 0.0169(6) 0.061(3) Uani 0.5 1 d . U P A 1
H4SA H 0.6724 0.1961 0.0387 0.073 Uiso 0.5 1 calc R . P A 1
H4SB H 0.7444 0.1813 0.0122 0.073 Uiso 0.5 1 calc R . P A 1
C5A C 0.6813(19) 0.2905(15) 0.0466(13) 0.078(6) Uani 0.25 1 d . U P A 2
H5AA H 0.6415 0.3059 0.0659 0.094 Uiso 0.25 1 calc R . P A 2
H5AB H 0.7206 0.2881 0.0705 0.094 Uiso 0.25 1 calc R . P A 2
C5S C 0.7384(8) 0.2689(7) 0.0416(6) 0.068(3) Uani 0.5 1 d . U P A 1
H5SA H 0.7124 0.2795 0.0735 0.082 Uiso 0.5 1 calc R . P A 1
H5SB H 0.7857 0.2610 0.0521 0.082 Uiso 0.5 1 calc R . P A 1
loop_
_atom_site_aniso_label
_atom_site_aniso_U_11
_atom_site_aniso_U_22
_atom_site_aniso_U_33
_atom_site_aniso_U_23
_atom_site_aniso_U_13
_atom_site_aniso_U_12
Ir1 0.02998(15) 0.02585(14) 0.03009(14) -0.00043(10) -0.00377(10) 0.00164(11)
P1 0.0375(10) 0.0337(9) 0.0348(8) 0.0014(7) -0.0029(7) 0.0014(7)
N1 0.034(3) 0.028(3) 0.036(3) 0.000(2) -0.001(2) 0.002(2)
N2 0.029(3) 0.032(3) 0.028(2) 0.004(2) -0.005(2) -0.006(2)
N3 0.033(3) 0.019(2) 0.039(3) 0.000(2) 0.000(2) 0.002(2)
N4 0.028(3) 0.032(3) 0.034(3) -0.003(2) -0.011(2) 0.004(2)
C1 0.032(3) 0.019(2) 0.021(2) 0.001(2) 0.000(2) 0.009(2)
C2 0.039(3) 0.037(3) 0.050(3) -0.010(2) -0.004(3) 0.002(3)
C3 0.052(5) 0.037(4) 0.058(4) 0.003(3) -0.001(4) 0.000(3)
C4 0.069(6) 0.059(5) 0.058(5) 0.007(4) -0.010(4) -0.006(4)
C5 0.093(7) 0.057(5) 0.079(6) 0.018(4) 0.000(5) -0.004(5)
C6 0.083(7) 0.055(5) 0.109(7) 0.031(5) 0.018(6) -0.006(5)
C7 0.067(6) 0.040(4) 0.124(8) 0.023(5) -0.003(5) -0.011(4)
C8 0.068(6) 0.044(4) 0.080(6) 0.015(4) -0.004(5) -0.007(4)
C11 0.026(3) 0.023(3) 0.029(3) -0.002(2) 0.004(3) 0.000(3)
C12 0.026(3) 0.030(3) 0.047(4) 0.009(3) -0.002(3) 0.004(3)
C13 0.043(4) 0.039(4) 0.030(3) 0.001(3) 0.008(3) 0.006(3)
C14 0.035(4) 0.037(3) 0.024(3) 0.001(3) 0.001(3) -0.005(3)
C15 0.039(4) 0.034(3) 0.033(3) 0.000(3) 0.000(3) -0.004(3)
C16 0.043(4) 0.031(3) 0.028(3) 0.004(3) 0.000(3) -0.007(3)
C17 0.048(4) 0.042(4) 0.030(3) 0.007(3) -0.005(3) 0.000(3)
C18 0.044(4) 0.038(4) 0.040(4) 0.013(3) -0.007(3) 0.005(3)
C19 0.025(3) 0.028(3) 0.042(3) 0.000(3) -0.006(3) 0.000(3)
C20 0.038(4) 0.021(3) 0.033(3) 0.004(3) 0.002(3) -0.011(3)
C21 0.024(3) 0.019(3) 0.045(4) 0.002(3) -0.002(3) -0.001(2)
C22 0.036(4) 0.030(3) 0.054(4) 0.002(3) 0.003(3) 0.002(3)
C23 0.038(4) 0.032(3) 0.039(3) -0.004(3) 0.004(3) 0.004(3)
C24 0.039(4) 0.029(3) 0.036(3) -0.002(3) 0.002(3) -0.002(3)
C25 0.029(3) 0.033(3) 0.034(3) -0.004(3) 0.002(3) 0.000(3)
C26 0.040(4) 0.032(3) 0.033(3) -0.002(3) -0.003(3) 0.009(3)
C27 0.047(4) 0.040(4) 0.038(4) -0.005(3) -0.009(3) 0.001(3)
C28 0.037(4) 0.031(3) 0.039(3) -0.002(3) -0.008(3) 0.004(3)
C29 0.031(3) 0.032(3) 0.034(3) 0.002(3) -0.002(3) -0.001(3)
C30 0.028(3) 0.026(3) 0.039(3) 0.006(3) 0.002(3) -0.004(3)
C31 0.024(3) 0.030(3) 0.037(3) -0.004(3) -0.006(3) 0.002(3)
C32 0.039(4) 0.039(4) 0.045(4) 0.004(3) -0.002(3) 0.005(3)
C33 0.030(4) 0.048(4) 0.048(4) -0.011(3) -0.004(3) -0.001(3)
C34 0.044(4) 0.036(4) 0.054(4) -0.003(3) -0.016(4) 0.006(3)
C35 0.060(5) 0.037(4) 0.046(4) 0.011(3) -0.009(4) -0.001(4)
C36 0.043(4) 0.040(4) 0.044(4) 0.000(3) -0.007(3) -0.002(3)
C41 0.050(4) 0.053(4) 0.028(3) -0.002(3) -0.003(3) 0.013(4)
C42 0.187(11) 0.064(5) 0.035(4) 0.002(4) 0.031(5) -0.022(6)
C43 0.187(12) 0.106(8) 0.047(5) 0.003(5) 0.037(6) -0.011(8)
C44 0.105(8) 0.093(7) 0.031(4) -0.014(4) -0.013(5) 0.038(6)
C45 0.073(6) 0.094(7) 0.072(6) -0.047(5) -0.008(5) 0.005(5)
C46 0.053(5) 0.073(5) 0.056(5) -0.027(4) 0.007(4) -0.004(4)
C51 0.032(4) 0.037(4) 0.040(3) 0.003(3) -0.006(3) 0.002(3)
C52 0.046(4) 0.037(4) 0.056(4) 0.005(3) -0.007(3) -0.007(3)
C53 0.046(4) 0.039(4) 0.063(5) 0.008(3) -0.011(4) 0.005(3)
C54 0.048(5) 0.052(4) 0.053(4) 0.009(4) -0.004(4) 0.020(4)
C55 0.036(4) 0.065(5) 0.047(4) 0.014(4) -0.010(3) 0.000(4)
C56 0.047(5) 0.045(4) 0.052(4) 0.009(3) -0.010(4) 0.000(3)
C61 0.032(4) 0.040(4) 0.034(3) -0.002(3) 0.006(3) 0.004(3)
C62 0.081(6) 0.047(4) 0.042(4) -0.008(3) 0.020(4) -0.021(4)
C63 0.114(7) 0.038(4) 0.045(4) -0.007(3) 0.022(5) -0.019(4)
C64 0.068(5) 0.044(4) 0.038(4) -0.012(3) 0.008(4) -0.004(4)
C65 0.089(7) 0.097(7) 0.041(4) -0.010(4) 0.030(4) -0.025(5)
C66 0.104(7) 0.068(5) 0.051(5) -0.012(4) 0.023(5) -0.043(5)
C71 0.039(4) 0.046(4) 0.041(4) 0.011(3) 0.002(3) -0.003(3)
C72 0.055(5) 0.045(4) 0.035(3) 0.012(3) 0.003(3) -0.007(3)
C73 0.061(5) 0.056(5) 0.034(4) 0.009(3) -0.001(3) -0.021(4)
C74 0.046(4) 0.074(5) 0.042(4) 0.025(4) -0.005(3) -0.001(4)
C75 0.066(5) 0.053(5) 0.056(5) 0.027(4) 0.005(4) -0.001(4)
C76 0.060(5) 0.042(4) 0.040(4) 0.014(3) -0.006(3) -0.006(3)
C81 0.045(4) 0.028(3) 0.037(3) 0.001(3) -0.003(3) 0.000(3)
C82 0.055(5) 0.036(4) 0.056(4) 0.003(3) -0.008(4) -0.005(3)
C83 0.062(5) 0.034(4) 0.063(5) -0.003(3) 0.008(4) 0.005(4)
C84 0.063(5) 0.030(4) 0.057(5) -0.001(3) -0.009(4) 0.001(4)
C85 0.049(5) 0.040(4) 0.065(5) 0.005(4) -0.011(4) -0.015(3)
C86 0.047(4) 0.036(4) 0.048(4) -0.002(3) -0.003(3) -0.003(3)
C91 0.039(4) 0.048(4) 0.042(4) 0.005(3) -0.003(3) 0.000(3)
C92 0.045(4) 0.025(3) 0.050(4) 0.002(3) -0.001(3) -0.001(3)
C93 0.035(4) 0.043(4) 0.058(5) -0.009(3) 0.001(3) -0.006(3)
C94 0.062(6) 0.168(10) 0.067(6) -0.017(6) -0.002(5) 0.035(6)
C95 0.083(8) 0.234(13) 0.046(5) 0.009(7) 0.015(5) 0.061(8)
C96 0.055(5) 0.178(10) 0.037(4) 0.014(5) 0.005(4) 0.044(6)
O1A 0.076(12) 0.081(5) 0.077(6) 0.003(5) 0.000(8) 0.002(6)
O1S 0.078(7) 0.082(5) 0.061(5) 0.012(3) -0.003(5) -0.004(5)
C2A 0.073(9) 0.081(6) 0.076(6) 0.003(5) -0.003(7) 0.002(6)
C2S 0.092(8) 0.079(5) 0.080(6) 0.006(4) -0.021(7) 0.005(4)
C3S 0.067(6) 0.080(4) 0.075(4) 0.006(3) -0.008(4) 0.006(4)
C4A 0.071(14) 0.081(6) 0.075(5) 0.005(4) -0.007(6) 0.001(7)
C4S 0.035(7) 0.079(5) 0.069(5) 0.007(4) 0.007(5) 0.006(4)
C5A 0.076(16) 0.082(6) 0.076(5) 0.003(5) -0.002(7) -0.003(7)
C5S 0.059(8) 0.081(5) 0.066(4) 0.013(4) 0.000(5) -0.003(5)
loop_
_atom_type_symbol
_atom_type_description
_atom_type_scat_dispersion_real
_atom_type_scat_dispersion_imag
_atom_type_scat_source
C C 0.0033 0.0016 'International Tables Vol C Tables 4.2.6.8 and 6.1.1.4'
H H 0.0000 0.0000 'International Tables Vol C Tables 4.2.6.8 and 6.1.1.4'
Ir Ir -1.4442 7.9887 'International Tables Vol C Tables 4.2.6.8 and 6.1.1.4'
N N 0.0061 0.0033 'International Tables Vol C Tables 4.2.6.8 and 6.1.1.4'
O O 0.0106 0.0060 'International Tables Vol C Tables 4.2.6.8 and 6.1.1.4'
P P 0.1023 0.0942 'International Tables Vol C Tables 4.2.6.8 and 6.1.1.4'
loop_
_geom_angle_atom_site_label_1
_geom_angle_atom_site_label_2
_geom_angle_atom_site_label_3
_geom_angle
N1 Ir1 P1 92.29(13)
N1 Ir1 N2 90.28(18)
N1 Ir1 N3 176.60(18)
N1 Ir1 C1 87.96(19)
N2 Ir1 P1 93.39(12)
N2 Ir1 N3 90.22(18)
N2 Ir1 C1 85.17(18)
N3 Ir1 P1 91.04(13)
N3 Ir1 C1 88.73(18)
N4 Ir1 P1 90.86(13)
N4 Ir1 N1 89.40(18)
N4 Ir1 N2 175.75(18)
N4 Ir1 N3 89.85(18)
N4 Ir1 C1 90.58(19)
C1 Ir1 P1 178.55(15)
C71 P1 Ir1 116.0(2)
C71 P1 C81 100.5(3)
C71 P1 C91 103.4(3)
C81 P1 Ir1 118.2(2)
C81 P1 C91 101.5(3)
C91 P1 Ir1 114.8(2)
C11 N1 Ir1 126.1(4)
C11 N1 C14 107.2(4)
C14 N1 Ir1 126.7(4)
C16 N2 Ir1 124.5(4)
C19 N2 Ir1 125.9(4)
C19 N2 C16 108.4(5)
C21 N3 Ir1 124.9(4)
C24 N3 Ir1 125.8(4)
C24 N3 C21 109.3(5)
C26 N4 Ir1 125.8(4)
C29 N4 Ir1 127.9(4)
C29 N4 C26 106.2(4)
C2 C1 Ir1 163.8(5)
C1 C2 C3 176.0(7)
C4 C3 C2 119.5(7)
C8 C3 C2 123.7(6)
C8 C3 C4 116.8(7)
C3 C4 C5 120.4(8)
C6 C5 C4 120.1(8)
C7 C6 C5 120.9(8)
C6 C7 C8 118.6(8)
C7 C8 C3 123.2(7)
N1 C11 C12 108.6(5)
N1 C11 C30 126.2(5)
C30 C11 C12 125.1(5)
C13 C12 C11 108.2(5)
C12 C13 C14 106.7(5)
N1 C14 C13 109.2(5)
N1 C14 C15 126.2(5)
C15 C14 C13 124.4(5)
C14 C15 C16 124.3(5)
C14 C15 C41 117.9(5)
C16 C15 C41 117.8(5)
N2 C16 C15 127.8(5)
N2 C16 C17 107.6(5)
C15 C16 C17 124.6(5)
C18 C17 C16 106.9(6)
C17 C18 C19 109.4(6)
N2 C19 C18 107.6(5)
N2 C19 C20 125.2(5)
C20 C19 C18 127.0(6)
C19 C20 C21 127.5(6)
C19 C20 C51 117.2(5)
C21 C20 C51 115.3(5)
N3 C21 C22 106.9(5)
C20 C21 N3 125.9(5)
C20 C21 C22 127.2(5)
C23 C22 C21 108.9(6)
C22 C23 C24 107.1(5)
N3 C24 C23 107.8(5)
N3 C24 C25 127.2(5)
C25 C24 C23 124.8(5)
C24 C25 C26 124.5(5)
C24 C25 C61 119.1(5)
C26 C25 C61 116.4(5)
N4 C26 C25 126.4(5)
N4 C26 C27 108.9(5)
C25 C26 C27 124.5(5)
C28 C27 C26 106.8(5)
C27 C28 C29 107.0(5)
N4 C29 C28 111.0(5)
N4 C29 C30 125.0(5)
C30 C29 C28 123.9(5)
C11 C30 C31 117.5(5)
C29 C30 C11 124.7(5)
C29 C30 C31 117.8(5)
C32 C31 C30 121.6(5)
C32 C31 C36 119.6(5)
C36 C31 C30 118.7(5)
C31 C32 C33 121.2(6)
C32 C33 C34 118.9(6)
C35 C34 C33 119.9(6)
C34 C35 C36 121.1(6)
C35 C36 C31 119.3(6)
C42 C41 C15 122.1(7)
C42 C41 C46 117.6(7)
C46 C41 C15 120.2(6)
C41 C42 C43 121.2(8)
C44 C43 C42 120.8(9)
C45 C44 C43 117.0(8)
C44 C45 C46 122.8(9)
C45 C46 C41 120.6(8)
C52 C51 C20 119.6(6)
C56 C51 C20 122.2(5)
C56 C51 C52 118.1(6)
C53 C52 C51 120.4(6)
C54 C53 C52 119.9(6)
C53 C54 C55 121.5(6)
C54 C55 C56 119.1(7)
C51 C56 C55 121.0(6)
C62 C61 C25 121.6(5)
C66 C61 C25 121.5(6)
C66 C61 C62 116.9(6)
C61 C62 C63 121.3(6)
C64 C63 C62 121.9(7)
C63 C64 C65 117.5(6)
C64 C65 C66 121.2(7)
C61 C66 C65 121.1(7)
C72 C71 P1 118.8(5)
C76 C71 P1 122.9(5)
C76 C71 C72 118.3(6)
C73 C72 C71 120.5(6)
C74 C73 C72 121.0(7)
C73 C74 C75 118.6(7)
C74 C75 C76 121.7(7)
C71 C76 C75 119.9(7)
C82 C81 P1 118.1(5)
C82 C81 C86 118.8(6)
C86 C81 P1 122.8(5)
C81 C82 C83 121.0(7)
C84 C83 C82 119.8(7)
C83 C84 C85 118.8(6)
C86 C85 C84 121.4(7)
C85 C86 C81 120.2(6)
C92 C91 P1 117.8(5)
C92 C91 C96 117.7(7)
C96 C91 P1 124.4(5)
C91 C92 C93 123.1(7)
C94 C93 C92 117.9(7)
C93 C94 C95 121.2(9)
C94 C95 C96 120.3(8)
C91 C96 C95 119.6(7)
C5A O1A C2A 107(3)
C5S O1S C2S 103.6(13)
C3S C2A O1A 104(3)
O1S C2S C3S 109.5(15)
C2A C3S C4A 100(2)
C2S C3S C4S 101.0(12)
C3S C4A C5A 112(3)
C5S C4S C3S 104.5(12)
O1A C5A C4A 98(3)
O1S C5S C4S 109.9(13)
loop_
_geom_bond_atom_site_label_1
_geom_bond_atom_site_label_2
_geom_bond_distance
Ir1 P1 2.4600(16)
Ir1 N1 2.044(4)
Ir1 N2 2.060(4)
Ir1 N3 2.063(4)
Ir1 N4 2.036(4)
Ir1 C1 2.085(6)
P1 C71 1.839(6)
P1 C81 1.842(6)
P1 C91 1.847(7)
N1 C11 1.367(7)
N1 C14 1.374(7)
N2 C16 1.377(7)
N2 C19 1.374(7)
N3 C21 1.382(7)
N3 C24 1.359(7)
N4 C26 1.387(7)
N4 C29 1.354(7)
C1 C2 1.103(7)
C2 C3 1.475(9)
C3 C4 1.397(9)
C3 C8 1.395(9)
C4 C5 1.408(9)
C5 C6 1.381(11)
C6 C7 1.365(11)
C7 C8 1.390(9)
C11 C12 1.433(7)
C11 C30 1.405(7)
C12 C13 1.347(8)
C13 C14 1.437(8)
C14 C15 1.393(8)
C15 C16 1.404(8)
C15 C41 1.487(8)
C16 C17 1.455(8)
C17 C18 1.336(8)
C18 C19 1.425(8)
C19 C20 1.374(8)
C20 C21 1.381(7)
C20 C51 1.521(8)
C21 C22 1.437(8)
C22 C23 1.344(8)
C23 C24 1.454(8)
C24 C25 1.380(8)
C25 C26 1.397(7)
C25 C61 1.501(8)
C26 C27 1.448(8)
C27 C28 1.358(8)
C28 C29 1.424(7)
C29 C30 1.403(7)
C30 C31 1.515(7)
C31 C32 1.360(8)
C31 C36 1.390(8)
C32 C33 1.381(8)
C33 C34 1.387(8)
C34 C35 1.364(8)
C35 C36 1.372(8)
C41 C42 1.335(9)
C41 C46 1.379(9)
C42 C43 1.420(11)
C43 C44 1.357(12)
C44 C45 1.350(12)
C45 C46 1.371(10)
C51 C52 1.411(8)
C51 C56 1.381(8)
C52 C53 1.379(8)
C53 C54 1.363(9)
C54 C55 1.367(8)
C55 C56 1.396(8)
C61 C62 1.371(8)
C61 C66 1.357(9)
C62 C63 1.376(8)
C63 C64 1.341(9)
C64 C65 1.360(9)
C65 C66 1.392(9)
C71 C72 1.399(8)
C71 C76 1.377(8)
C72 C73 1.384(8)
C73 C74 1.365(9)
C74 C75 1.371(10)
C75 C76 1.390(9)
C81 C82 1.371(9)
C81 C86 1.380(9)
C82 C83 1.407(9)
C83 C84 1.364(9)
C84 C85 1.388(9)
C85 C86 1.374(8)
C91 C92 1.362(8)
C91 C96 1.370(9)
C92 C93 1.392(8)
C93 C94 1.333(10)
C94 C95 1.365(12)
C95 C96 1.393(11)
O1A C2A 1.44(4)
O1A C5A 1.37(4)
O1S C2S 1.41(2)
O1S C5S 1.372(17)
C2A C3S 1.34(4)
C2S C3S 1.46(2)
C3S C4A 1.45(3)
C3S C4S 1.508(17)
C4A C5A 1.48(4)
C4S C5S 1.49(2)
loop_
_geom_torsion_atom_site_label_1
_geom_torsion_atom_site_label_2
_geom_torsion_atom_site_label_3
_geom_torsion_atom_site_label_4
_geom_torsion
Ir1 P1 C71 C72 -58.7(6)
Ir1 P1 C71 C76 119.4(5)
Ir1 P1 C81 C82 -49.9(6)
Ir1 P1 C81 C86 136.8(4)
Ir1 P1 C91 C92 -56.0(6)
Ir1 P1 C91 C96 127.4(7)
Ir1 N1 C11 C12 -177.1(3)
Ir1 N1 C11 C30 5.4(8)
Ir1 N1 C14 C13 177.2(4)
Ir1 N1 C14 C15 1.9(8)
Ir1 N2 C16 C15 -6.0(8)
Ir1 N2 C16 C17 171.2(4)
Ir1 N2 C19 C18 -170.8(4)
Ir1 N2 C19 C20 5.8(8)
Ir1 N3 C21 C20 4.3(8)
Ir1 N3 C21 C22 -178.1(3)
Ir1 N3 C24 C23 178.1(4)
Ir1 N3 C24 C25 -7.0(8)
Ir1 N4 C26 C25 -6.5(8)
Ir1 N4 C26 C27 178.7(4)
Ir1 N4 C29 C28 -178.4(4)
Ir1 N4 C29 C30 1.3(8)
P1 C71 C72 C73 177.6(5)
P1 C71 C76 C75 -178.3(5)
P1 C81 C82 C83 -173.5(5)
P1 C81 C86 C85 173.1(5)
P1 C91 C92 C93 -175.8(5)
P1 C91 C96 C95 177.1(8)
N1 C11 C12 C13 -1.6(6)
N1 C11 C30 C29 3.5(9)
N1 C11 C30 C31 -179.4(5)
N1 C14 C15 C16 -1.3(10)
N1 C14 C15 C41 -179.8(6)
N2 C16 C17 C18 -1.9(7)
N2 C19 C20 C21 0.5(10)
N2 C19 C20 C51 178.0(5)
N3 C21 C22 C23 -1.5(7)
N3 C24 C25 C26 2.0(10)
N3 C24 C25 C61 -176.3(5)
N4 C26 C27 C28 0.4(7)
N4 C29 C30 C11 -7.0(9)
N4 C29 C30 C31 175.8(5)
C2 C3 C4 C5 -177.2(6)
C2 C3 C8 C7 177.0(7)
C3 C4 C5 C6 -0.3(12)
C4 C3 C8 C7 -1.4(11)
C4 C5 C6 C7 -0.9(14)
C5 C6 C7 C8 0.9(14)
C6 C7 C8 C3 0.3(13)
C8 C3 C4 C5 1.4(10)
C11 N1 C14 C13 -2.4(6)
C11 N1 C14 C15 -177.7(6)
C11 C12 C13 C14 0.2(6)
C11 C30 C31 C32 -71.0(7)
C11 C30 C31 C36 112.6(6)
C12 C11 C30 C29 -173.7(5)
C12 C11 C30 C31 3.5(8)
C12 C13 C14 N1 1.4(6)
C12 C13 C14 C15 176.8(6)
C13 C14 C15 C16 -175.9(6)
C13 C14 C15 C41 5.6(9)
C14 N1 C11 C12 2.5(6)
C14 N1 C11 C30 -175.1(5)
C14 C15 C16 N2 3.6(10)
C14 C15 C16 C17 -173.1(6)
C14 C15 C41 C42 87.7(9)
C14 C15 C41 C46 -89.7(8)
C15 C16 C17 C18 175.4(6)
C15 C41 C42 C43 -177.8(8)
C15 C41 C46 C45 177.1(7)
C16 N2 C19 C18 -2.6(6)
C16 N2 C19 C20 174.0(5)
C16 C15 C41 C42 -90.9(9)
C16 C15 C41 C46 91.7(7)
C16 C17 C18 C19 0.3(7)
C17 C18 C19 N2 1.4(7)
C17 C18 C19 C20 -175.1(6)
C18 C19 C20 C21 176.4(6)
C18 C19 C20 C51 -6.1(9)
C19 N2 C16 C15 -174.4(6)
C19 N2 C16 C17 2.8(6)
C19 C20 C21 N3 -6.1(9)
C19 C20 C21 C22 176.8(6)
C19 C20 C51 C52 114.6(6)
C19 C20 C51 C56 -69.9(8)
C20 C21 C22 C23 176.1(6)
C20 C51 C52 C53 174.5(6)
C20 C51 C56 C55 -173.5(6)
C21 N3 C24 C23 -2.4(6)
C21 N3 C24 C25 172.6(6)
C21 C20 C51 C52 -67.6(7)
C21 C20 C51 C56 108.0(7)
C21 C22 C23 C24 0.1(7)
C22 C23 C24 N3 1.4(7)
C22 C23 C24 C25 -173.7(6)
C23 C24 C25 C26 176.1(6)
C23 C24 C25 C61 -2.2(9)
C24 N3 C21 C20 -175.2(5)
C24 N3 C21 C22 2.4(6)
C24 C25 C26 N4 5.3(10)
C24 C25 C26 C27 179.4(6)
C24 C25 C61 C62 102.5(7)
C24 C25 C61 C66 -79.7(8)
C25 C26 C27 C28 -174.5(6)
C25 C61 C62 C63 177.1(7)
C25 C61 C66 C65 -176.3(7)
C26 N4 C29 C28 1.4(6)
C26 N4 C29 C30 -178.9(5)
C26 C25 C61 C62 -76.0(8)
C26 C25 C61 C66 101.8(8)
C26 C27 C28 C29 0.4(7)
C27 C28 C29 N4 -1.2(7)
C27 C28 C29 C30 179.1(5)
C28 C29 C30 C11 172.6(5)
C28 C29 C30 C31 -4.5(8)
C29 N4 C26 C25 173.7(6)
C29 N4 C26 C27 -1.1(6)
C29 C30 C31 C32 106.3(6)
C29 C30 C31 C36 -70.0(7)
C30 C11 C12 C13 175.9(5)
C30 C31 C32 C33 -178.1(5)
C30 C31 C36 C35 177.7(5)
C31 C32 C33 C34 1.4(9)
C32 C31 C36 C35 1.2(9)
C32 C33 C34 C35 -0.6(9)
C33 C34 C35 C36 0.1(10)
C34 C35 C36 C31 -0.4(9)
C36 C31 C32 C33 -1.8(9)
C41 C15 C16 N2 -177.8(5)
C41 C15 C16 C17 5.4(9)
C41 C42 C43 C44 1.6(16)
C42 C41 C46 C45 -0.5(11)
C42 C43 C44 C45 -1.8(15)
C43 C44 C45 C46 1.0(14)
C44 C45 C46 C41 0.2(13)
C46 C41 C42 C43 -0.4(13)
C51 C20 C21 N3 176.4(5)
C51 C20 C21 C22 -0.7(8)
C51 C52 C53 C54 -1.1(10)
C52 C51 C56 C55 2.0(9)
C52 C53 C54 C55 2.7(10)
C53 C54 C55 C56 -1.9(10)
C54 C55 C56 C51 -0.5(10)
C56 C51 C52 C53 -1.2(10)
C61 C25 C26 N4 -176.3(5)
C61 C25 C26 C27 -2.3(9)
C61 C62 C63 C64 -1.0(12)
C62 C61 C66 C65 1.6(12)
C62 C63 C64 C65 1.8(12)
C63 C64 C65 C66 -0.9(13)
C64 C65 C66 C61 -0.8(14)
C66 C61 C62 C63 -0.7(11)
C71 P1 C81 C82 77.3(5)
C71 P1 C81 C86 -96.0(5)
C71 P1 C91 C92 176.7(5)
C71 P1 C91 C96 0.0(8)
C71 C72 C73 C74 -1.0(10)
C72 C71 C76 C75 -0.2(10)
C72 C73 C74 C75 3.2(11)
C73 C74 C75 C76 -4.0(11)
C74 C75 C76 C71 2.6(11)
C76 C71 C72 C73 -0.5(10)
C81 P1 C71 C72 172.6(5)
C81 P1 C71 C76 -9.4(6)
C81 P1 C91 C92 72.8(5)
C81 P1 C91 C96 -103.8(7)
C81 C82 C83 C84 -0.3(10)
C82 C81 C86 C85 -0.1(9)
C82 C83 C84 C85 0.6(10)
C83 C84 C85 C86 -0.6(10)
C84 C85 C86 C81 0.4(10)
C86 C81 C82 C83 0.1(10)
C91 P1 C71 C72 67.9(6)
C91 P1 C71 C76 -114.0(6)
C91 P1 C81 C82 -176.5(5)
C91 P1 C81 C86 10.2(6)
C91 C92 C93 C94 -3.3(10)
C92 C91 C96 C95 0.4(13)
C92 C93 C94 C95 4.0(14)
C93 C94 C95 C96 -2.6(18)
C94 C95 C96 C91 0.3(17)
C96 C91 C92 C93 1.1(10)
O1A C2A C3S C4A -37(3)
O1S C2S C3S C4S 31.0(19)
C2A O1A C5A C4A -30(4)
C2A C3S C4A C5A 19(3)
C2S O1S C5S C4S 24.2(19)
C2S C3S C4S C5S -14.8(16)
C3S C4A C5A O1A 7(4)
C3S C4S C5S O1S -5.6(17)
C5A O1A C2A C3S 47(4)
C5S O1S C2S C3S -35(2)
