#------------------------------------------------------------------------------
#$Date: 2020-01-05 16:31:29 +0200 (Sun, 05 Jan 2020) $
#$Revision: 246606 $
#$URL: file:///home/coder/svn-repositories/cod/cif/7/70/32/7703248.cif $
#------------------------------------------------------------------------------
#
# This file is available in the Crystallography Open Database (COD),
# http://www.crystallography.net/
#
# All data on this site have been placed in the public domain by the
# contributors.
#
data_7703248
loop_
_publ_author_name
'Nishi, Miki'
'Hayata, Yuki'
'Hoshino, Norihisa'
'Hanasaki, Noriaki'
'Akutagawa, Tomoyuki'
'Matsuda, Masaki'
_publ_section_title
;
 Intermolecular interactions of tetrabenzoporphyrin- and
 phthalocyanine-based charge-transfer complexes.
;
_journal_issue                   48
_journal_name_full
'Dalton transactions (Cambridge, England : 2003)'
_journal_page_first              17723
_journal_page_last               17728
_journal_paper_doi               10.1039/c9dt03653a
_journal_volume                  48
_journal_year                    2019
_chemical_formula_moiety         '2(C36 H20 Br2 Co N4), C24 H20 P'
_chemical_formula_sum            'C96 H60 Br4 Co2 N8 P'
_chemical_formula_weight         1793.99
_space_group_crystal_system      tetragonal
_space_group_IT_number           86
_space_group_name_Hall           '-P 4bc'
_space_group_name_H-M_alt        'P 42/n :2'
_atom_sites_solution_hydrogens   geom
_audit_creation_method           SHELXL-2018/1
_audit_update_record
;
2019-08-15 deposited with the CCDC.	2019-10-21 downloaded from the CCDC.
;
_cell_angle_alpha                90
_cell_angle_beta                 90
_cell_angle_gamma                90
_cell_formula_units_Z            2
_cell_length_a                   21.5389(4)
_cell_length_b                   21.5389(4)
_cell_length_c                   7.66860(10)
_cell_measurement_reflns_used    20328
_cell_measurement_temperature    300(2)
_cell_measurement_theta_max      68.16
_cell_measurement_theta_min      4.105
_cell_volume                     3557.65(10)
_computing_cell_refinement       'RAPID AUTO'
_computing_data_collection       'RAPID AUTO'
_computing_data_reduction        'RAPID AUTO'
_computing_structure_refinement  'SHELXL-2018/1 (Sheldrick, 2018)'
_computing_structure_solution    'SIR-2019 (Burla, 2019)'
_diffrn_ambient_temperature      300(2)
_diffrn_measured_fraction_theta_full 0.991
_diffrn_measured_fraction_theta_max 0.990
_diffrn_measurement_device_type  'Rigaku R-AXIS RAPID'
_diffrn_measurement_method       'phi and omega scans'
_diffrn_radiation_type           CuK\a
_diffrn_radiation_wavelength     1.54187
_diffrn_reflns_av_R_equivalents  0.0497
_diffrn_reflns_av_unetI/netI     0.0312
_diffrn_reflns_Laue_measured_fraction_full 0.991
_diffrn_reflns_Laue_measured_fraction_max 0.990
_diffrn_reflns_limit_h_max       25
_diffrn_reflns_limit_h_min       -25
_diffrn_reflns_limit_k_max       25
_diffrn_reflns_limit_k_min       -25
_diffrn_reflns_limit_l_max       8
_diffrn_reflns_limit_l_min       -8
_diffrn_reflns_number            37919
_diffrn_reflns_point_group_measured_fraction_full 0.991
_diffrn_reflns_point_group_measured_fraction_max 0.990
_diffrn_reflns_theta_full        67.687
_diffrn_reflns_theta_max         68.209
_diffrn_reflns_theta_min         4.105
_diffrn_source                   'rotating-anode X-ray tube'
_exptl_absorpt_coefficient_mu    6.967
_exptl_absorpt_correction_T_max  0.9842
_exptl_absorpt_correction_T_min  0.8276
_exptl_absorpt_correction_type   numerical
_exptl_crystal_colour            black
_exptl_crystal_density_diffrn    1.675
_exptl_crystal_description       needle
_exptl_crystal_F_000             1802
_exptl_crystal_size_max          0.500
_exptl_crystal_size_mid          0.030
_exptl_crystal_size_min          0.030
_refine_diff_density_max         0.647
_refine_diff_density_min         -0.570
_refine_diff_density_rms         0.077
_refine_ls_extinction_method     none
_refine_ls_goodness_of_fit_ref   1.227
_refine_ls_hydrogen_treatment    constr
_refine_ls_matrix_type           full
_refine_ls_number_parameters     252
_refine_ls_number_reflns         3219
_refine_ls_number_restraints     0
_refine_ls_restrained_S_all      1.227
_refine_ls_R_factor_all          0.0672
_refine_ls_R_factor_gt           0.0524
_refine_ls_shift/su_max          0.016
_refine_ls_shift/su_mean         0.001
_refine_ls_structure_factor_coef Fsqd
_refine_ls_weighting_details
'w=1/[\s^2^(Fo^2^)+(0.1000P)^2^] where P=(Fo^2^+2Fc^2^)/3'
_refine_ls_weighting_scheme      calc
_refine_ls_wR_factor_gt          0.1642
_refine_ls_wR_factor_ref         0.1769
_reflns_Friedel_coverage         0.000
_reflns_number_gt                2446
_reflns_number_total             3219
_reflns_threshold_expression     'I > 2\s(I)'
_cod_data_source_file            c9dt03653a2.cif
_cod_data_source_block           TPPCoTBPBr22rt
_cod_original_cell_volume        3557.65(14)
_cod_original_sg_symbol_H-M      'P 42/n'
_cod_database_code               7703248
_shelx_shelxl_version_number     2018/1
_shelx_space_group_comment
;
The symmetry employed for this shelxl refinement is uniquely defined
by the following loop, which should always be used as a source of
symmetry information in preference to the above space-group names.
They are only intended as comments.
;
_shelx_estimated_absorpt_t_min   0.128
_shelx_estimated_absorpt_t_max   0.818
_shelx_res_file
;
TITL CoTBPBR
    CoTBPBR.res
    created by SHELXL-2018/1 at 11:04:46 on 09-Jul-2019
REM  Yadorkari-X generated
CELL 1.54187 21.5389 21.5389 7.6686 90.0000 90.0000 90.0000
ZERR 2.0 0.0004 0.0004 0.0001 0.0000 0.0000 0.0000
LATT 1
SYMM 1/2-X, 1/2-Y, +Z
SYMM -Y, 1/2+X, 1/2+Z
SYMM 1/2+Y, -X, 1/2+Z
REM  SPGR P42/n tetragonal
SFAC C H N P Co Br
UNIT 192 120 16 2 4 8
SIZE 0.50 0.03 0.03
TEMP 27.0
L.S. 1
FMAP 2
PLAN -25
ACTA
CONF
LIST 4

WGHT    0.100000
FVAR       2.26827
CO1   5    0.000000    0.500000    0.500000    10.50000    0.04831    0.05364 =
         0.04444    0.00703   -0.00359   -0.00304
BR1   6    0.053625    0.408463    0.395703    11.00000    0.06345    0.06284 =
         0.05800    0.00199   -0.00043    0.00095
N1    3    0.071006    0.510900    0.668595    11.00000    0.04925    0.05473 =
         0.04806    0.00623   -0.00588   -0.00228
N2    3   -0.043955    0.444922    0.673097    11.00000    0.05133    0.05020 =
         0.04575    0.00351    0.00403   -0.00363
C1    1    0.124460    0.543343    0.638521    11.00000    0.05091    0.05386 =
         0.05256    0.00592   -0.00364   -0.00155
C2    1    0.167067    0.534480    0.783090    11.00000    0.04960    0.05810 =
         0.04665    0.00194   -0.00748   -0.00237
C3    1    0.227652    0.554895    0.810972    11.00000    0.05190    0.07051 =
         0.06169    0.00978   -0.00462   -0.00651
AFIX  43
H1    2    0.247693    0.580468    0.731098    11.00000   -1.20000
AFIX   0
C4    1    0.256809    0.535534    0.962568    11.00000    0.05904    0.07196 =
         0.06233   -0.00087   -0.01238   -0.00745
AFIX  43
H2    2    0.297473    0.547912    0.983879    11.00000   -1.20000
AFIX   0
C5    1    0.226688    0.497991    1.083765    11.00000    0.05837    0.07189 =
         0.05640    0.00701   -0.01391   -0.00362
AFIX  43
H3    2    0.247298    0.486190    1.185045    11.00000   -1.20000
AFIX   0
C6    1    0.167120    0.478238    1.055699    11.00000    0.06406    0.06753 =
         0.05701    0.00846   -0.00859   -0.00286
AFIX  43
H4    2    0.146675    0.453593    1.137051    11.00000   -1.20000
AFIX   0
C7    1    0.137983    0.496282    0.900864    11.00000    0.04910    0.05826 =
         0.04583    0.00249   -0.00500    0.00004
C8    1    0.077136    0.481903    0.826766    11.00000    0.05254    0.05793 =
         0.04331    0.00230   -0.00828    0.00026
C9    1    0.035095    0.442883    0.899889    11.00000    0.05491    0.06465 =
         0.04956    0.01554   -0.00611   -0.00204
AFIX  43
H5    2    0.045191    0.426392    1.008322    11.00000   -1.20000
AFIX   0
C10   1   -0.020587    0.425399    0.830138    11.00000    0.05538    0.05187 =
         0.04074    0.00625   -0.00369    0.00218
C11   1   -0.064063    0.383822    0.913921    11.00000    0.05892    0.05082 =
         0.05116    0.00682   -0.00321   -0.00254
C12   1   -0.063315    0.351409    1.071520    11.00000    0.06627    0.06545 =
         0.04964    0.01060   -0.00601   -0.00506
AFIX  43
H6    2   -0.029461    0.354090    1.146415    11.00000   -1.20000
AFIX   0
C13   1   -0.113110    0.315979    1.112567    11.00000    0.07786    0.07084 =
         0.05172    0.02060   -0.00220   -0.00661
AFIX  43
H7    2   -0.113365    0.294993    1.218551    11.00000   -1.20000
AFIX   0
C14   1   -0.165951    0.309576    0.997519    11.00000    0.07794    0.06593 =
         0.06889    0.02300    0.01682   -0.00170
AFIX  43
H8    2   -0.199755    0.284957    1.027710    11.00000   -1.20000
AFIX   0
C15   1   -0.164382    0.340637    0.844818    11.00000    0.05447    0.07407 =
         0.06193    0.00466   -0.00805   -0.00332
AFIX  43
H9    2   -0.197620    0.336974    0.768097    11.00000   -1.20000
AFIX   0
C16   1   -0.114419    0.377895    0.799453    11.00000    0.05373    0.05591 =
         0.05447    0.01170   -0.00094   -0.00293
C17   1   -0.099709    0.416649    0.648919    11.00000    0.05050    0.06250 =
         0.04829    0.00427   -0.00336    0.00183
C18   1   -0.137850    0.423068    0.507867    11.00000    0.04847    0.06712 =
         0.05845    0.01900   -0.00312   -0.00962
AFIX  43
H10   2   -0.176031    0.402952    0.511739    11.00000   -1.20000
AFIX   0
P1    4    0.250000    0.250000    1.250000    10.25000    0.05183    0.05183 =
         0.05908    0.00000    0.00000    0.00000
C19   1    0.185722    0.265070    1.109199    11.00000    0.05731    0.05268 =
         0.05732   -0.00143    0.00018   -0.00108
C24   1    0.190761    0.311950    0.983010    11.00000    0.06895    0.06722 =
         0.08057    0.00408   -0.00582    0.00249
AFIX  43
H15   2    0.226022    0.336853    0.980428    11.00000   -1.20000
AFIX   0
C23   1    0.144621    0.321528    0.863929    11.00000    0.08906    0.07702 =
         0.07350    0.00698   -0.01199    0.01016
AFIX  43
H14   2    0.148107    0.353136    0.781893    11.00000   -1.20000
AFIX   0
C22   1    0.093333    0.284314    0.866317    11.00000    0.07457    0.11396 =
         0.07021   -0.00292   -0.01648    0.01072
AFIX  43
H13   2    0.061767    0.291295    0.785930    11.00000   -1.20000
AFIX   0
C21   1    0.087351    0.237894    0.981852    11.00000    0.06241    0.11766 =
         0.07975   -0.00308   -0.01575   -0.01383
AFIX  43
H12   2    0.052142    0.212916    0.979550    11.00000   -1.20000
AFIX   0
C20   1    0.134175    0.226731    1.106900    11.00000    0.07333    0.07970 =
         0.07514    0.00507   -0.00804   -0.00993
AFIX  43
H11   2    0.130440    0.194257    1.186133    11.00000   -1.20000

AFIX   0
HKLF 4 1 1 0 0 0 1 0 0 0 1




REM  CoTBPBR
REM R1 =  0.0524 for    2446 Fo > 4sig(Fo)  and  0.0672 for all    3219 data
REM    252 parameters refined using      0 restraints

END

WGHT      0.0870      2.3189

REM Highest difference peak  0.647,  deepest hole -0.570,  1-sigma level  0.077
Q1    1  -0.2013  0.2901  0.9120  11.00000  0.05    0.65
Q2    1  -0.0319  0.5522  0.4998  11.00000  0.05    0.45
Q3    1   0.0729  0.3605  0.4702  11.00000  0.05    0.41
Q4    1  -0.0212  0.5406  0.5892  11.00000  0.05    0.40
Q5    1   0.1193  0.2322  1.0550  11.00000  0.05    0.37
Q6    1   0.0537  0.4090  0.2255  11.00000  0.05    0.35
Q7    1  -0.1908  0.3565  0.4740  11.00000  0.05    0.35
Q8    1  -0.1441  0.2974  0.9917  11.00000  0.05    0.34
Q9    1   0.3170  0.2478  1.0456  11.00000  0.05    0.33
Q10   1   0.0564  0.4115  0.5694  11.00000  0.05    0.33
Q11   1   0.0760  0.3616  0.3557  11.00000  0.05    0.31
Q12   1   0.0042  0.3837  0.2922  11.00000  0.05    0.31
Q13   1   0.3003  0.2650  1.1445  11.00000  0.05    0.31
Q14   1  -0.0097  0.6160  0.4981  11.00000  0.05    0.30
Q15   1  -0.0001  0.5007  0.6807  11.00000  0.05    0.30
Q16   1  -0.0391  0.4753  0.6145  11.00000  0.05    0.29
Q17   1   0.1013  0.4244  0.3068  11.00000  0.05    0.26
Q18   1   0.0781  0.2792  0.9591  11.00000  0.05    0.26
Q19   1   0.2144  0.2944  0.9722  11.00000  0.05    0.25
Q20   1  -0.0362  0.5426  0.6962  11.00000  0.05    0.25
Q21   1   0.1017  0.4217  0.4805  11.00000  0.05    0.25
Q22   1  -0.0774  0.3726  0.8802  11.00000  0.05    0.23
Q23   1   0.1062  0.3833  0.4071  11.00000  0.05    0.23
Q24   1   0.1204  0.3131  0.9472  11.00000  0.05    0.22
Q25   1   0.0486  0.5141  0.6067  11.00000  0.05    0.22
;
_shelx_res_checksum              10295
loop_
_space_group_symop_operation_xyz
'x, y, z'
'-x+1/2, -y+1/2, z'
'-y, x+1/2, z+1/2'
'y+1/2, -x, z+1/2'
'-x, -y, -z'
'x-1/2, y-1/2, -z'
'y, -x-1/2, -z-1/2'
'-y-1/2, x, -z-1/2'
loop_
_atom_site_label
_atom_site_type_symbol
_atom_site_fract_x
_atom_site_fract_y
_atom_site_fract_z
_atom_site_U_iso_or_equiv
_atom_site_adp_type
_atom_site_occupancy
_atom_site_site_symmetry_order
_atom_site_calc_flag
_atom_site_refinement_flags_posn
_atom_site_refinement_flags_adp
_atom_site_refinement_flags_occupancy
Co1 Co 0.000000 0.500000 0.500000 0.0488(3) Uani 1 2 d S . P
Br1 Br 0.05362(2) 0.40846(2) 0.39570(7) 0.0614(3) Uani 1 1 d . . .
N1 N 0.07101(16) 0.51090(16) 0.6686(5) 0.0507(9) Uani 1 1 d . . .
N2 N -0.04395(16) 0.44492(16) 0.6731(5) 0.0491(8) Uani 1 1 d . . .
C1 C 0.1245(2) 0.5433(2) 0.6385(6) 0.0524(11) Uani 1 1 d . . .
C2 C 0.16707(19) 0.53448(19) 0.7831(6) 0.0514(10) Uani 1 1 d . . .
C3 C 0.2277(2) 0.5549(2) 0.8110(6) 0.0614(12) Uani 1 1 d . . .
H1 H 0.247693 0.580468 0.731098 0.074 Uiso 1 1 calc R U .
C4 C 0.2568(2) 0.5355(2) 0.9626(6) 0.0644(13) Uani 1 1 d . . .
H2 H 0.297473 0.547912 0.983879 0.077 Uiso 1 1 calc R U .
C5 C 0.2267(2) 0.4980(3) 1.0838(6) 0.0622(13) Uani 1 1 d . . .
H3 H 0.247298 0.486190 1.185045 0.075 Uiso 1 1 calc R U .
C6 C 0.1671(2) 0.4782(2) 1.0557(7) 0.0629(13) Uani 1 1 d . . .
H4 H 0.146675 0.453593 1.137051 0.075 Uiso 1 1 calc R U .
C7 C 0.1380(2) 0.4963(2) 0.9009(6) 0.0511(11) Uani 1 1 d . . .
C8 C 0.0771(2) 0.4819(2) 0.8268(6) 0.0513(10) Uani 1 1 d . . .
C9 C 0.0351(2) 0.4429(2) 0.8999(6) 0.0564(12) Uani 1 1 d . . .
H5 H 0.045191 0.426392 1.008322 0.068 Uiso 1 1 calc R U .
C10 C -0.0206(2) 0.4254(2) 0.8301(6) 0.0493(10) Uani 1 1 d . . .
C11 C -0.0641(2) 0.3838(2) 0.9139(6) 0.0536(11) Uani 1 1 d . . .
C12 C -0.0633(2) 0.3514(2) 1.0715(6) 0.0605(12) Uani 1 1 d . . .
H6 H -0.029461 0.354090 1.146415 0.073 Uiso 1 1 calc R U .
C13 C -0.1131(3) 0.3160(2) 1.1126(6) 0.0668(14) Uani 1 1 d . . .
H7 H -0.113365 0.294993 1.218551 0.080 Uiso 1 1 calc R U .
C14 C -0.1660(3) 0.3096(2) 0.9975(6) 0.0709(15) Uani 1 1 d . . .
H8 H -0.199755 0.284957 1.027710 0.085 Uiso 1 1 calc R U .
C15 C -0.1644(2) 0.3406(2) 0.8448(7) 0.0635(13) Uani 1 1 d . . .
H9 H -0.197620 0.336974 0.768097 0.076 Uiso 1 1 calc R U .
C16 C -0.1144(2) 0.3779(2) 0.7995(6) 0.0547(11) Uani 1 1 d . . .
C17 C -0.0997(2) 0.4166(2) 0.6489(6) 0.0538(11) Uani 1 1 d . . .
C18 C -0.1379(2) 0.4231(2) 0.5079(6) 0.0580(12) Uani 1 1 d . . .
H10 H -0.176031 0.402952 0.511739 0.070 Uiso 1 1 calc R U .
P1 P 0.250000 0.250000 1.250000 0.0542(6) Uani 1 4 d S T P
C19 C 0.1857(2) 0.2651(2) 1.1092(6) 0.0558(11) Uani 1 1 d . . .
C24 C 0.1908(3) 0.3119(3) 0.9830(7) 0.0722(15) Uani 1 1 d . . .
H15 H 0.226022 0.336853 0.980428 0.087 Uiso 1 1 calc R U .
C23 C 0.1446(3) 0.3215(3) 0.8639(7) 0.0799(16) Uani 1 1 d . . .
H14 H 0.148107 0.353136 0.781893 0.096 Uiso 1 1 calc R U .
C22 C 0.0933(3) 0.2843(3) 0.8663(8) 0.0862(17) Uani 1 1 d . . .
H13 H 0.061767 0.291295 0.785930 0.103 Uiso 1 1 calc R U .
C21 C 0.0874(3) 0.2379(3) 0.9819(8) 0.0866(19) Uani 1 1 d . . .
H12 H 0.052142 0.212916 0.979550 0.104 Uiso 1 1 calc R U .
C20 C 0.1342(3) 0.2267(3) 1.1069(7) 0.0761(16) Uani 1 1 d . . .
H11 H 0.130440 0.194257 1.186133 0.091 Uiso 1 1 calc R U .
loop_
_atom_site_aniso_label
_atom_site_aniso_U_11
_atom_site_aniso_U_22
_atom_site_aniso_U_33
_atom_site_aniso_U_23
_atom_site_aniso_U_13
_atom_site_aniso_U_12
Co1 0.0483(6) 0.0536(6) 0.0444(6) 0.0070(5) -0.0036(4) -0.0030(4)
Br1 0.0634(4) 0.0628(4) 0.0580(4) 0.0020(2) -0.0004(2) 0.0010(2)
N1 0.049(2) 0.055(2) 0.048(2) 0.0062(17) -0.0059(17) -0.0023(16)
N2 0.051(2) 0.050(2) 0.046(2) 0.0035(17) 0.0040(16) -0.0036(16)
C1 0.051(3) 0.054(3) 0.053(3) 0.006(2) -0.004(2) -0.002(2)
C2 0.050(2) 0.058(3) 0.047(3) 0.002(2) -0.007(2) -0.0024(19)
C3 0.052(3) 0.071(3) 0.062(3) 0.010(2) -0.005(2) -0.007(2)
C4 0.059(3) 0.072(3) 0.062(3) -0.001(3) -0.012(2) -0.007(2)
C5 0.058(3) 0.072(3) 0.056(3) 0.007(2) -0.014(2) -0.004(2)
C6 0.064(3) 0.068(3) 0.057(3) 0.008(2) -0.009(2) -0.003(2)
C7 0.049(2) 0.058(3) 0.046(3) 0.002(2) -0.005(2) 0.000(2)
C8 0.053(2) 0.058(3) 0.043(2) 0.002(2) -0.008(2) 0.000(2)
C9 0.055(3) 0.065(3) 0.050(3) 0.016(2) -0.006(2) -0.002(2)
C10 0.055(3) 0.052(2) 0.041(2) 0.0063(19) -0.004(2) 0.0022(19)
C11 0.059(3) 0.051(3) 0.051(3) 0.007(2) -0.003(2) -0.003(2)
C12 0.066(3) 0.065(3) 0.050(3) 0.011(2) -0.006(2) -0.005(2)
C13 0.078(3) 0.071(3) 0.052(3) 0.021(2) -0.002(2) -0.007(3)
C14 0.078(4) 0.066(3) 0.069(4) 0.023(3) 0.017(3) -0.002(3)
C15 0.054(3) 0.074(3) 0.062(3) 0.005(3) -0.008(2) -0.003(2)
C16 0.054(3) 0.056(3) 0.054(3) 0.012(2) -0.001(2) -0.003(2)
C17 0.050(3) 0.063(3) 0.048(3) 0.004(2) -0.003(2) 0.002(2)
C18 0.048(3) 0.067(3) 0.058(3) 0.019(2) -0.003(2) -0.010(2)
P1 0.0518(8) 0.0518(8) 0.0591(15) 0.000 0.000 0.000
C19 0.057(3) 0.053(3) 0.057(3) -0.001(2) 0.000(2) -0.001(2)
C24 0.069(3) 0.067(3) 0.081(4) 0.004(3) -0.006(3) 0.002(3)
C23 0.089(4) 0.077(4) 0.074(4) 0.007(3) -0.012(3) 0.010(3)
C22 0.075(4) 0.114(5) 0.070(4) -0.003(4) -0.016(3) 0.011(4)
C21 0.062(3) 0.118(5) 0.080(4) -0.003(4) -0.016(3) -0.014(3)
C20 0.073(4) 0.080(4) 0.075(4) 0.005(3) -0.008(3) -0.010(3)
loop_
_atom_type_symbol
_atom_type_description
_atom_type_scat_dispersion_real
_atom_type_scat_dispersion_imag
_atom_type_scat_source
C C 0.0181 0.0091 'International Tables Vol C Tables 4.2.6.8 and 6.1.1.4'
H H 0.0000 0.0000 'International Tables Vol C Tables 4.2.6.8 and 6.1.1.4'
N N 0.0311 0.0180 'International Tables Vol C Tables 4.2.6.8 and 6.1.1.4'
P P 0.2955 0.4335 'International Tables Vol C Tables 4.2.6.8 and 6.1.1.4'
Co Co -2.3653 3.6143 'International Tables Vol C Tables 4.2.6.8 and 6.1.1.4'
Br Br -0.6763 1.2805 'International Tables Vol C Tables 4.2.6.8 and 6.1.1.4'
loop_
_geom_angle_atom_site_label_1
_geom_angle_atom_site_label_2
_geom_angle_atom_site_label_3
_geom_angle
_geom_angle_site_symmetry_1
_geom_angle_site_symmetry_3
N2 Co1 N2 180.00(17) 5_566 .
N2 Co1 N1 89.86(15) 5_566 .
N2 Co1 N1 90.14(15) . .
N2 Co1 N1 90.14(15) 5_566 5_566
N2 Co1 N1 89.85(15) . 5_566
N1 Co1 N1 180.00(12) . 5_566
N2 Co1 Br1 92.16(10) 5_566 .
N2 Co1 Br1 87.84(10) . .
N1 Co1 Br1 86.83(10) . .
N1 Co1 Br1 93.16(10) 5_566 .
N2 Co1 Br1 87.84(10) 5_566 5_566
N2 Co1 Br1 92.16(10) . 5_566
N1 Co1 Br1 93.17(10) . 5_566
N1 Co1 Br1 86.83(10) 5_566 5_566
Br1 Co1 Br1 180.0 . 5_566
C1 N1 C8 107.5(4) . .
C1 N1 Co1 126.2(3) . .
C8 N1 Co1 126.0(3) . .
C17 N2 C10 107.9(4) . .
C17 N2 Co1 126.1(3) . .
C10 N2 Co1 125.9(3) . .
C18 C1 N1 126.0(4) 5_566 .
C18 C1 C2 124.3(4) 5_566 .
N1 C1 C2 109.7(4) . .
C7 C2 C3 121.0(4) . .
C7 C2 C1 107.0(4) . .
C3 C2 C1 131.9(4) . .
C4 C3 C2 117.3(4) . .
C3 C4 C5 121.6(5) . .
C6 C5 C4 120.8(4) . .
C5 C6 C7 117.9(5) . .
C2 C7 C6 121.4(4) . .
C2 C7 C8 106.3(4) . .
C6 C7 C8 132.4(4) . .
C9 C8 N1 125.7(4) . .
C9 C8 C7 124.7(4) . .
N1 C8 C7 109.5(4) . .
C8 C9 C10 126.5(4) . .
C9 C10 N2 125.6(4) . .
C9 C10 C11 124.4(4) . .
N2 C10 C11 110.0(4) . .
C12 C11 C16 120.4(4) . .
C12 C11 C10 133.4(4) . .
C16 C11 C10 106.2(4) . .
C13 C12 C11 118.3(5) . .
C12 C13 C14 122.4(4) . .
C15 C14 C13 117.5(5) . .
C14 C15 C16 121.6(5) . .
C15 C16 C11 119.8(4) . .
C15 C16 C17 134.3(4) . .
C11 C16 C17 106.0(4) . .
N2 C17 C18 126.5(4) . .
N2 C17 C16 109.9(4) . .
C18 C17 C16 123.6(4) . .
C17 C18 C1 125.3(5) . 5_566
C19 P1 C19 105.6(3) 7_568 8_658
C19 P1 C19 111.45(16) 7_568 2
C19 P1 C19 111.45(15) 8_658 2
C19 P1 C19 111.45(15) 7_568 .
C19 P1 C19 111.45(16) 8_658 .
C19 P1 C19 105.6(3) 2 .
C20 C19 C24 118.9(5) . .
C20 C19 P1 121.4(4) . .
C24 C19 P1 119.2(4) . .
C23 C24 C19 120.9(6) . .
C22 C23 C24 119.4(6) . .
C21 C22 C23 121.6(6) . .
C22 C21 C20 120.4(6) . .
C19 C20 C21 118.7(6) . .
loop_
_geom_bond_atom_site_label_1
_geom_bond_atom_site_label_2
_geom_bond_distance
_geom_bond_site_symmetry_2
Co1 N2 2.016(3) 5_566
Co1 N2 2.016(3) .
Co1 N1 2.016(3) .
Co1 N1 2.016(3) 5_566
Co1 Br1 2.4210(5) .
Co1 Br1 2.4210(5) 5_566
N1 C1 1.366(5) .
N1 C8 1.371(5) .
N2 C17 1.359(5) .
N2 C10 1.371(5) .
C1 C18 1.366(6) 5_566
C1 C2 1.452(6) .
C2 C7 1.373(6) .
C2 C3 1.394(6) .
C3 C4 1.386(6) .
C4 C5 1.392(6) .
C5 C6 1.369(7) .
C6 C7 1.398(6) .
C7 C8 1.462(6) .
C8 C9 1.357(6) .
C9 C10 1.366(6) .
C10 C11 1.446(6) .
C11 C12 1.396(6) .
C11 C16 1.401(6) .
C12 C13 1.353(7) .
C13 C14 1.447(7) .
C14 C15 1.349(6) .
C15 C16 1.387(6) .
C16 C17 1.459(6) .
C17 C18 1.365(6) .
P1 C19 1.785(5) 7_568
P1 C19 1.785(5) 8_658
P1 C19 1.785(5) 2
P1 C19 1.785(5) .
C19 C20 1.384(7) .
C19 C24 1.403(7) .
C24 C23 1.365(7) .
C23 C22 1.365(9) .
C22 C21 1.342(9) .
C21 C20 1.412(7) .
loop_
_geom_torsion_atom_site_label_1
_geom_torsion_atom_site_label_2
_geom_torsion_atom_site_label_3
_geom_torsion_atom_site_label_4
_geom_torsion
_geom_torsion_site_symmetry_1
_geom_torsion_site_symmetry_4
C8 N1 C1 C18 177.6(5) . 5_566
Co1 N1 C1 C18 3.7(7) . 5_566
C8 N1 C1 C2 0.4(5) . .
Co1 N1 C1 C2 -173.5(3) . .
C18 C1 C2 C7 -177.5(5) 5_566 .
N1 C1 C2 C7 -0.3(5) . .
C18 C1 C2 C3 -0.7(8) 5_566 .
N1 C1 C2 C3 176.6(5) . .
C7 C2 C3 C4 -0.6(7) . .
C1 C2 C3 C4 -177.1(5) . .
C2 C3 C4 C5 -1.0(8) . .
C3 C4 C5 C6 0.8(8) . .
C4 C5 C6 C7 0.8(8) . .
C3 C2 C7 C6 2.3(7) . .
C1 C2 C7 C6 179.6(4) . .
C3 C2 C7 C8 -177.3(4) . .
C1 C2 C7 C8 0.0(5) . .
C5 C6 C7 C2 -2.4(7) . .
C5 C6 C7 C8 177.1(5) . .
C1 N1 C8 C9 -176.9(5) . .
Co1 N1 C8 C9 -2.9(7) . .
C1 N1 C8 C7 -0.4(5) . .
Co1 N1 C8 C7 173.5(3) . .
C2 C7 C8 C9 176.8(5) . .
C6 C7 C8 C9 -2.7(9) . .
C2 C7 C8 N1 0.3(5) . .
C6 C7 C8 N1 -179.2(5) . .
N1 C8 C9 C10 0.0(9) . .
C7 C8 C9 C10 -175.9(5) . .
C8 C9 C10 N2 -0.5(8) . .
C8 C9 C10 C11 -179.6(5) . .
C17 N2 C10 C9 179.1(5) . .
Co1 N2 C10 C9 3.9(7) . .
C17 N2 C10 C11 -1.7(5) . .
Co1 N2 C10 C11 -176.9(3) . .
C9 C10 C11 C12 -1.0(9) . .
N2 C10 C11 C12 179.8(5) . .
C9 C10 C11 C16 -179.6(5) . .
N2 C10 C11 C16 1.1(5) . .
C16 C11 C12 C13 -2.1(8) . .
C10 C11 C12 C13 179.4(5) . .
C11 C12 C13 C14 1.4(8) . .
C12 C13 C14 C15 -0.1(8) . .
C13 C14 C15 C16 -0.6(8) . .
C14 C15 C16 C11 0.0(8) . .
C14 C15 C16 C17 -179.4(5) . .
C12 C11 C16 C15 1.4(7) . .
C10 C11 C16 C15 -179.7(4) . .
C12 C11 C16 C17 -179.1(4) . .
C10 C11 C16 C17 -0.2(5) . .
C10 N2 C17 C18 -179.3(5) . .
Co1 N2 C17 C18 -4.1(7) . .
C10 N2 C17 C16 1.5(5) . .
Co1 N2 C17 C16 176.8(3) . .
C15 C16 C17 N2 178.6(5) . .
C11 C16 C17 N2 -0.8(5) . .
C15 C16 C17 C18 -0.6(9) . .
C11 C16 C17 C18 180.0(4) . .
N2 C17 C18 C1 4.0(8) . 5_566
C16 C17 C18 C1 -176.9(5) . 5_566
C19 P1 C19 C20 -122.4(5) 7_568 .
C19 P1 C19 C20 -4.7(4) 8_658 .
C19 P1 C19 C20 116.4(5) 2 .
C19 P1 C19 C24 65.8(3) 7_568 .
C19 P1 C19 C24 -176.6(4) 8_658 .
C19 P1 C19 C24 -55.4(4) 2 .
C20 C19 C24 C23 2.6(8) . .
P1 C19 C24 C23 174.7(4) . .
C19 C24 C23 C22 -1.0(9) . .
C24 C23 C22 C21 -0.8(10) . .
C23 C22 C21 C20 0.8(10) . .
C24 C19 C20 C21 -2.5(8) . .
P1 C19 C20 C21 -174.4(4) . .
C22 C21 C20 C19 0.9(10) . .
