#------------------------------------------------------------------------------
#$Date: 2020-01-05 16:31:29 +0200 (Sun, 05 Jan 2020) $
#$Revision: 246606 $
#$URL: file:///home/coder/svn-repositories/cod/cif/7/70/32/7703244.cif $
#------------------------------------------------------------------------------
#
# This file is available in the Crystallography Open Database (COD),
# http://www.crystallography.net/
#
# All data on this site have been placed in the public domain by the
# contributors.
#
data_7703244
loop_
_publ_author_name
'Nishi, Miki'
'Hayata, Yuki'
'Hoshino, Norihisa'
'Hanasaki, Noriaki'
'Akutagawa, Tomoyuki'
'Matsuda, Masaki'
_publ_section_title
;
 Intermolecular interactions of tetrabenzoporphyrin- and
 phthalocyanine-based charge-transfer complexes.
;
_journal_issue                   48
_journal_name_full
'Dalton transactions (Cambridge, England : 2003)'
_journal_page_first              17723
_journal_page_last               17728
_journal_paper_doi               10.1039/c9dt03653a
_journal_volume                  48
_journal_year                    2019
_chemical_formula_moiety         '2(C36 H20 Cl2 Co N4), C24 H20 P'
_chemical_formula_sum            'C96 H60 Cl4 Co2 N8 P'
_chemical_formula_weight         1616.15
_space_group_crystal_system      tetragonal
_space_group_IT_number           86
_space_group_name_Hall           '-P 4bc'
_space_group_name_H-M_alt        'P 42/n :2'
_atom_sites_solution_hydrogens   geom
_audit_creation_method           SHELXL-2018/1
_audit_update_record
;
2019-08-15 deposited with the CCDC.	2019-10-21 downloaded from the CCDC.
;
_cell_angle_alpha                90
_cell_angle_beta                 90
_cell_angle_gamma                90
_cell_formula_units_Z            2
_cell_length_a                   21.6858(4)
_cell_length_b                   21.6858(4)
_cell_length_c                   7.58710(10)
_cell_measurement_reflns_used    15413
_cell_measurement_temperature    300(2)
_cell_measurement_theta_max      68.205
_cell_measurement_theta_min      4.075
_cell_volume                     3568.02(10)
_computing_cell_refinement       'RAPID AUTO'
_computing_data_collection       'RAPID AUTO'
_computing_data_reduction        'RAPID AUTO'
_computing_structure_refinement  'SHELXL-2018/1 (Sheldrick, 2018)'
_computing_structure_solution    'SIR-2004 (Burla, 2004)'
_diffrn_ambient_temperature      300(2)
_diffrn_measured_fraction_theta_full 0.996
_diffrn_measured_fraction_theta_max 0.994
_diffrn_measurement_device_type  'Rigaku R-AXIS RAPID'
_diffrn_measurement_method       'phi and omega scans'
_diffrn_radiation_type           CuK\a
_diffrn_radiation_wavelength     1.54187
_diffrn_reflns_av_R_equivalents  0.0420
_diffrn_reflns_av_unetI/netI     0.0250
_diffrn_reflns_Laue_measured_fraction_full 0.996
_diffrn_reflns_Laue_measured_fraction_max 0.994
_diffrn_reflns_limit_h_max       25
_diffrn_reflns_limit_h_min       -26
_diffrn_reflns_limit_k_max       25
_diffrn_reflns_limit_k_min       -26
_diffrn_reflns_limit_l_max       8
_diffrn_reflns_limit_l_min       -8
_diffrn_reflns_number            38337
_diffrn_reflns_point_group_measured_fraction_full 0.996
_diffrn_reflns_point_group_measured_fraction_max 0.994
_diffrn_reflns_theta_full        67.687
_diffrn_reflns_theta_max         68.204
_diffrn_reflns_theta_min         4.077
_diffrn_source                   'rotating-anode X-ray tube'
_exptl_absorpt_coefficient_mu    5.700
_exptl_absorpt_correction_T_max  1.0000
_exptl_absorpt_correction_T_min  0.8754
_exptl_absorpt_correction_type   empirical
_exptl_absorpt_process_details   'ABSCOR (Rigaku, 2010)'
_exptl_crystal_colour            black
_exptl_crystal_density_diffrn    1.504
_exptl_crystal_description       needle
_exptl_crystal_F_000             1658
_exptl_crystal_size_max          0.200
_exptl_crystal_size_mid          0.030
_exptl_crystal_size_min          0.030
_refine_diff_density_max         0.329
_refine_diff_density_min         -0.781
_refine_diff_density_rms         0.066
_refine_ls_extinction_method     none
_refine_ls_goodness_of_fit_ref   1.350
_refine_ls_hydrogen_treatment    constr
_refine_ls_matrix_type           full
_refine_ls_number_parameters     252
_refine_ls_number_reflns         3238
_refine_ls_number_restraints     0
_refine_ls_restrained_S_all      1.350
_refine_ls_R_factor_all          0.0673
_refine_ls_R_factor_gt           0.0557
_refine_ls_shift/su_max          0.000
_refine_ls_shift/su_mean         0.000
_refine_ls_structure_factor_coef Fsqd
_refine_ls_weighting_details
'w=1/[\s^2^(Fo^2^)+(0.1000P)^2^] where P=(Fo^2^+2Fc^2^)/3'
_refine_ls_weighting_scheme      calc
_refine_ls_wR_factor_gt          0.1729
_refine_ls_wR_factor_ref         0.1816
_reflns_Friedel_coverage         0.000
_reflns_number_gt                2604
_reflns_number_total             3238
_reflns_threshold_expression     'I > 2\s(I)'
_cod_data_source_file            c9dt03653a2.cif
_cod_data_source_block           TPPCotbpCl22rt
_cod_original_cell_volume        3568.01(14)
_cod_original_sg_symbol_H-M      'P 42/n'
_cod_database_code               7703244
_shelx_shelxl_version_number     2018/1
_shelx_space_group_comment
;
The symmetry employed for this shelxl refinement is uniquely defined
by the following loop, which should always be used as a source of
symmetry information in preference to the above space-group names.
They are only intended as comments.
;
_shelx_estimated_absorpt_t_min   0.395
_shelx_estimated_absorpt_t_max   0.848
_shelx_res_file
;
TITL C:\Users\Masaki\Desktop\CotbpCl22at300K\CotbpCl2
    CotbpCl2.res
    created by SHELXL-2018/1 at 09:18:57 on 09-Aug-2019
REM  Yadorkari-X generated
CELL 1.54187 21.6858 21.6858 7.5871 90.0000 90.0000 90.0000
ZERR 2.0 0.0004 0.0004 0.0001 0.0000 0.0000 0.0000
LATT 1
SYMM 1/2-X, 1/2-Y, +Z
SYMM -Y, 1/2+X, 1/2+Z
SYMM 1/2+Y, -X, 1/2+Z
REM  SPGR P42/n tetragonal
SFAC C H N P Cl Co
UNIT 192 120 16 2 8 4
SIZE 0.20 0.03 0.03
TEMP 27.0
L.S. 10
FMAP 2
PLAN -25
ACTA
CONF
LIST 4

WGHT    0.100000
FVAR       2.96842
CO1   6    1.000000    0.000000    0.500000    10.50000    0.04401    0.03936 =
         0.03773   -0.00286   -0.00374    0.00166
CL1   5    1.084361    0.048641    0.390141    11.00000    0.05414    0.05406 =
         0.05342   -0.00038    0.00140   -0.00263
N1    3    0.943836    0.043350    0.328981    11.00000    0.04191    0.04272 =
         0.04336   -0.00166   -0.00258    0.00219
N2    3    0.990338    0.070685    0.670314    11.00000    0.04673    0.04158 =
         0.04047   -0.00295   -0.00169    0.00076
C1    1    0.941490   -0.034663    0.095286    11.00000    0.05096    0.04759 =
         0.04063   -0.00617   -0.01123    0.00590
AFIX  43
H1    2    0.925133   -0.044355   -0.014587    11.00000   -1.20000
AFIX   0
C2    1    0.924588    0.020564    0.167681    11.00000    0.04581    0.04684 =
         0.04095   -0.00313   -0.00815    0.00199
C3    1    0.882296    0.063789    0.085117    11.00000    0.04139    0.04588 =
         0.04540   -0.00060   -0.00156    0.00291
C4    1    0.851363    0.063202   -0.073568    11.00000    0.05425    0.05911 =
         0.04608   -0.00370   -0.00966    0.00372
AFIX  43
H2    2    0.854992    0.030153   -0.150990    11.00000   -1.20000
AFIX   0
C5    1    0.814864    0.113324   -0.113453    11.00000    0.05789    0.06568 =
         0.04835   -0.00240   -0.01406    0.00918
AFIX  43
H3    2    0.793530    0.113941   -0.219771    11.00000   -1.20000
AFIX   0
C6    1    0.809166    0.162767    0.000762    11.00000    0.05591    0.05671 =
         0.06369    0.00049   -0.01283    0.00954
AFIX  43
H4    2    0.784334    0.195985   -0.030429    11.00000   -1.20000
AFIX   0
C7    1    0.839853    0.163521    0.160635    11.00000    0.05481    0.04344 =
         0.05728   -0.00453   -0.00708    0.00285
AFIX  43
H5    2    0.835559    0.196424    0.238287    11.00000   -1.20000
AFIX   0
C8    1    0.877347    0.113450    0.201452    11.00000    0.04446    0.04348 =
         0.04181    0.00082   -0.00273    0.00214
C9    1    0.916177    0.099069    0.351490    11.00000    0.04423    0.04012 =
         0.04481   -0.00525   -0.00400    0.00320
C10   1    0.922731    0.136794    0.496140    11.00000    0.05562    0.04489 =
         0.04860   -0.00638   -0.00851    0.00530
AFIX  43
H6    2    0.901703    0.174167    0.494882    11.00000   -1.20000
AFIX   0
C11   1    0.957790    0.123753    0.642191    11.00000    0.04523    0.04184 =
         0.04088   -0.00247   -0.00351    0.00253
C12   1    0.966470    0.165928    0.787946    11.00000    0.04721    0.04108 =
         0.04380   -0.00551   -0.00086    0.00188
C13   1    0.945782    0.226113    0.817785    11.00000    0.05518    0.04800 =
         0.05035   -0.00457   -0.00090    0.00583
AFIX  43
H7    2    0.919819    0.245945    0.738383    11.00000   -1.20000
AFIX   0
C14   1    0.965645    0.255042    0.971051    11.00000    0.06833    0.04792 =
         0.05465   -0.01062    0.00146    0.00650
AFIX  43
H8    2    0.953542    0.295431    0.993449    11.00000   -1.20000
AFIX   0
C15   1    1.003170    0.224822    1.091215    11.00000    0.06236    0.05293 =
         0.05344   -0.01764   -0.00583    0.00620
AFIX  43
H9    2    1.015030    0.245145    1.193694    11.00000   -1.20000
AFIX   0
C16   1    1.023421    0.165071    1.062268    11.00000    0.05798    0.05591 =
         0.04768   -0.00915   -0.00363    0.00278
AFIX  43
H10   2    1.048391    0.144871    1.143494    11.00000   -1.20000
AFIX   0
C17   1    1.004942    0.136559    0.907129    11.00000    0.04598    0.04187 =
         0.04337   -0.00457   -0.00123    0.00051
C18   1    1.019694    0.076894    0.829866    11.00000    0.04896    0.04476 =
         0.03835   -0.00630   -0.00346   -0.00031
P1    4    1.250000    0.250000    0.250000    10.25000    0.04521    0.04521 =
         0.05606    0.00000    0.00000    0.00000
C19   1    1.184652    0.258163    0.392884    11.00000    0.04977    0.05271 =
         0.05746    0.00174   -0.00331    0.00037
C20   1    1.183940    0.307910    0.509234    11.00000    0.06489    0.06155 =
         0.07334   -0.00377    0.00969   -0.00335
AFIX  43
H11   2    1.215571    0.336848    0.506162    11.00000   -1.20000
AFIX   0
C21   1    1.136493    0.314371    0.628900    11.00000    0.08243    0.07845 =
         0.07482   -0.00596    0.01218    0.01127
AFIX  43
H12   2    1.135659    0.347708    0.705973    11.00000   -1.20000
AFIX   0
C22   1    1.090654    0.270998    0.632549    11.00000    0.05663    0.12416 =
         0.08314    0.00154    0.01928    0.00564
AFIX  43
H13   2    1.058117    0.275612    0.711304    11.00000   -1.20000
AFIX   0
C23   1    1.091753    0.220919    0.522476    11.00000    0.06083    0.12119 =
         0.07323   -0.00429    0.00942   -0.02984
AFIX  43
H14   2    1.060452    0.191682    0.528603    11.00000   -1.20000
AFIX   0
C24   1    1.139259    0.213587    0.402035    11.00000    0.05434    0.07927 =
         0.06431   -0.00296    0.00506   -0.01198
AFIX  43
H15   2    1.140548    0.179255    0.328671    11.00000   -1.20000

AFIX   0
HKLF 4




REM  C:\Users\Masaki\Desktop\CotbpCl22at300K\CotbpCl2
REM R1 =  0.0557 for    2604 Fo > 4sig(Fo)  and  0.0673 for all    3238 data
REM    252 parameters refined using      0 restraints

END

WGHT      0.0897      2.2542

REM Highest difference peak  0.329,  deepest hole -0.781,  1-sigma level  0.066
Q1    1   0.8592  0.1829  0.5283  11.00000  0.05    0.33
Q2    1   0.9560 -0.0197  0.5744  11.00000  0.05    0.26
Q3    1   1.1379  0.0589  0.3517  11.00000  0.05    0.25
Q4    1   1.0788  0.0415  0.0979  11.00000  0.05    0.23
Q5    1   1.0825  0.0450  0.5806  11.00000  0.05    0.23
Q6    1   1.1329  0.0638  0.4737  11.00000  0.05    0.22
Q7    1   1.2565  0.3003  0.0663  11.00000  0.05    0.22
Q8    1   0.9549  0.1892  0.8066  11.00000  0.05    0.22
Q9    1   0.8865  0.2065  0.5274  11.00000  0.05    0.20
Q10   1   1.0555  0.0137  0.5502  11.00000  0.05    0.20
Q11   1   1.0191 -0.0421  0.6163  11.00000  0.05    0.19
Q12   1   1.0113 -0.0545  0.5863  11.00000  0.05    0.18
Q13   1   1.0190 -0.0640  0.4944  11.00000  0.05    0.18
Q14   1   0.7781  0.2030 -0.0634  11.00000  0.05    0.18
Q15   1   0.9680 -0.0846  0.5850  11.00000  0.05    0.18
Q16   1   0.9822  0.0410  0.6144  11.00000  0.05    0.18
Q17   1   1.0424  0.0452  0.4937  11.00000  0.05    0.18
Q18   1   0.9849 -0.1103  0.0929  11.00000  0.05    0.18
Q19   1   1.2570  0.3057  0.1917  11.00000  0.05    0.18
Q20   1   0.8610  0.1322  0.1786  11.00000  0.05    0.18
Q21   1   1.1104  0.0088  0.2870  11.00000  0.05    0.17
Q22   1   1.0045 -0.0012  0.6715  11.00000  0.05    0.17
Q23   1   1.2571  0.3504  0.1521  11.00000  0.05    0.17
Q24   1   0.8017  0.2017 -0.1317  11.00000  0.05    0.17
Q25   1   0.8830  0.0530  0.1237  11.00000  0.05    0.17
;
_shelx_res_checksum              11461
loop_
_space_group_symop_operation_xyz
'x, y, z'
'-x+1/2, -y+1/2, z'
'-y, x+1/2, z+1/2'
'y+1/2, -x, z+1/2'
'-x, -y, -z'
'x-1/2, y-1/2, -z'
'y, -x-1/2, -z-1/2'
'-y-1/2, x, -z-1/2'
loop_
_atom_site_label
_atom_site_type_symbol
_atom_site_fract_x
_atom_site_fract_y
_atom_site_fract_z
_atom_site_U_iso_or_equiv
_atom_site_adp_type
_atom_site_occupancy
_atom_site_site_symmetry_order
_atom_site_calc_flag
_atom_site_refinement_flags_posn
_atom_site_refinement_flags_adp
_atom_site_refinement_flags_occupancy
Co1 Co 1.000000 0.000000 0.500000 0.0404(3) Uani 1 2 d S . P
Cl1 Cl 1.08436(4) 0.04864(4) 0.39014(12) 0.0539(3) Uani 1 1 d . . .
N1 N 0.94384(12) 0.04335(12) 0.3290(3) 0.0427(6) Uani 1 1 d . . .
N2 N 0.99034(12) 0.07068(12) 0.6703(4) 0.0429(6) Uani 1 1 d . . .
C1 C 0.94149(16) -0.03466(15) 0.0953(5) 0.0464(8) Uani 1 1 d . . .
H1 H 0.925133 -0.044355 -0.014587 0.056 Uiso 1 1 calc R U .
C2 C 0.92459(15) 0.02056(15) 0.1677(4) 0.0445(8) Uani 1 1 d . . .
C3 C 0.88230(15) 0.06379(15) 0.0851(4) 0.0442(7) Uani 1 1 d . . .
C4 C 0.85136(16) 0.06320(17) -0.0736(5) 0.0531(9) Uani 1 1 d . . .
H2 H 0.854992 0.030153 -0.150990 0.064 Uiso 1 1 calc R U .
C5 C 0.81486(17) 0.11332(18) -0.1135(5) 0.0573(9) Uani 1 1 d . . .
H3 H 0.793530 0.113941 -0.219771 0.069 Uiso 1 1 calc R U .
C6 C 0.80917(19) 0.16277(19) 0.0008(5) 0.0588(11) Uani 1 1 d . . .
H4 H 0.784334 0.195985 -0.030429 0.071 Uiso 1 1 calc R U .
C7 C 0.83985(16) 0.16352(16) 0.1606(5) 0.0518(9) Uani 1 1 d . . .
H5 H 0.835559 0.196424 0.238287 0.062 Uiso 1 1 calc R U .
C8 C 0.87735(14) 0.11345(14) 0.2015(4) 0.0433(7) Uani 1 1 d . . .
C9 C 0.91618(15) 0.09907(14) 0.3515(4) 0.0431(8) Uani 1 1 d . . .
C10 C 0.92273(17) 0.13679(16) 0.4961(4) 0.0497(9) Uani 1 1 d . . .
H6 H 0.901703 0.174167 0.494882 0.060 Uiso 1 1 calc R U .
C11 C 0.95779(15) 0.12375(14) 0.6422(4) 0.0427(7) Uani 1 1 d . . .
C12 C 0.96647(15) 0.16593(15) 0.7879(4) 0.0440(7) Uani 1 1 d . . .
C13 C 0.94578(17) 0.22611(16) 0.8178(5) 0.0512(8) Uani 1 1 d . . .
H7 H 0.919819 0.245945 0.738383 0.061 Uiso 1 1 calc R U .
C14 C 0.96564(19) 0.25504(17) 0.9711(5) 0.0570(10) Uani 1 1 d . . .
H8 H 0.953542 0.295431 0.993449 0.068 Uiso 1 1 calc R U .
C15 C 1.00317(18) 0.22482(17) 1.0912(5) 0.0562(9) Uani 1 1 d . . .
H9 H 1.015030 0.245145 1.193694 0.067 Uiso 1 1 calc R U .
C16 C 1.02342(17) 0.16507(17) 1.0623(5) 0.0539(9) Uani 1 1 d . . .
H10 H 1.048391 0.144871 1.143494 0.065 Uiso 1 1 calc R U .
C17 C 1.00494(15) 0.13656(15) 0.9071(4) 0.0437(8) Uani 1 1 d . . .
C18 C 1.01969(15) 0.07689(15) 0.8299(4) 0.0440(8) Uani 1 1 d . . .
P1 P 1.250000 0.250000 0.250000 0.0488(5) Uani 1 4 d S T P
C19 C 1.18465(16) 0.25816(17) 0.3929(5) 0.0533(9) Uani 1 1 d . . .
C20 C 1.1839(2) 0.3079(2) 0.5092(5) 0.0666(12) Uani 1 1 d . . .
H11 H 1.215571 0.336848 0.506162 0.080 Uiso 1 1 calc R U .
C21 C 1.1365(2) 0.3144(2) 0.6289(6) 0.0786(13) Uani 1 1 d . . .
H12 H 1.135659 0.347708 0.705973 0.094 Uiso 1 1 calc R U .
C22 C 1.0907(2) 0.2710(3) 0.6325(7) 0.0880(16) Uani 1 1 d . . .
H13 H 1.058117 0.275612 0.711304 0.106 Uiso 1 1 calc R U .
C23 C 1.0918(2) 0.2209(3) 0.5225(6) 0.0851(15) Uani 1 1 d . . .
H14 H 1.060452 0.191682 0.528603 0.102 Uiso 1 1 calc R U .
C24 C 1.13926(17) 0.2136(2) 0.4020(5) 0.0660(11) Uani 1 1 d . . .
H15 H 1.140548 0.179255 0.328671 0.079 Uiso 1 1 calc R U .
loop_
_atom_site_aniso_label
_atom_site_aniso_U_11
_atom_site_aniso_U_22
_atom_site_aniso_U_33
_atom_site_aniso_U_23
_atom_site_aniso_U_13
_atom_site_aniso_U_12
Co1 0.0440(4) 0.0394(4) 0.0377(5) -0.0029(3) -0.0037(3) 0.0017(3)
Cl1 0.0541(5) 0.0541(5) 0.0534(6) -0.0004(4) 0.0014(4) -0.0026(3)
N1 0.0419(14) 0.0427(15) 0.0434(15) -0.0017(12) -0.0026(12) 0.0022(11)
N2 0.0467(15) 0.0416(14) 0.0405(16) -0.0030(12) -0.0017(12) 0.0008(11)
C1 0.0510(19) 0.0476(18) 0.0406(19) -0.0062(14) -0.0112(15) 0.0059(15)
C2 0.0458(18) 0.0468(18) 0.0409(19) -0.0031(14) -0.0081(14) 0.0020(14)
C3 0.0414(17) 0.0459(18) 0.0454(19) -0.0006(15) -0.0016(14) 0.0029(14)
C4 0.054(2) 0.059(2) 0.046(2) -0.0037(17) -0.0097(16) 0.0037(16)
C5 0.058(2) 0.066(2) 0.048(2) -0.0024(18) -0.0141(17) 0.0092(18)
C6 0.056(2) 0.057(2) 0.064(3) 0.0005(17) -0.0128(18) 0.0095(18)
C7 0.055(2) 0.0434(18) 0.057(2) -0.0045(16) -0.0071(17) 0.0028(15)
C8 0.0445(17) 0.0435(17) 0.0418(18) 0.0008(14) -0.0027(14) 0.0021(14)
C9 0.0442(17) 0.0401(16) 0.0448(19) -0.0052(14) -0.0040(14) 0.0032(13)
C10 0.056(2) 0.0449(18) 0.049(2) -0.0064(14) -0.0085(16) 0.0053(16)
C11 0.0452(17) 0.0418(17) 0.0409(18) -0.0025(14) -0.0035(14) 0.0025(13)
C12 0.0472(18) 0.0411(17) 0.0438(19) -0.0055(14) -0.0009(15) 0.0019(13)
C13 0.055(2) 0.0480(19) 0.050(2) -0.0046(16) -0.0009(16) 0.0058(15)
C14 0.068(2) 0.048(2) 0.055(2) -0.0106(17) 0.0015(19) 0.0065(17)
C15 0.062(2) 0.053(2) 0.053(2) -0.0176(17) -0.0058(18) 0.0062(17)
C16 0.058(2) 0.056(2) 0.048(2) -0.0092(17) -0.0036(17) 0.0028(16)
C17 0.0460(18) 0.0419(17) 0.0434(19) -0.0046(14) -0.0012(14) 0.0005(13)
C18 0.0490(18) 0.0448(18) 0.0383(18) -0.0063(14) -0.0035(14) -0.0003(14)
P1 0.0452(6) 0.0452(6) 0.0561(12) 0.000 0.000 0.000
C19 0.050(2) 0.053(2) 0.057(2) 0.0017(17) -0.0033(16) 0.0004(16)
C20 0.065(3) 0.062(3) 0.073(3) -0.004(2) 0.010(2) -0.003(2)
C21 0.082(3) 0.078(3) 0.075(3) -0.006(2) 0.012(2) 0.011(2)
C22 0.057(3) 0.124(4) 0.083(4) 0.002(3) 0.019(2) 0.006(3)
C23 0.061(3) 0.121(4) 0.073(3) -0.004(3) 0.009(2) -0.030(3)
C24 0.054(2) 0.079(3) 0.064(3) -0.003(2) 0.0051(19) -0.012(2)
loop_
_atom_type_symbol
_atom_type_description
_atom_type_scat_dispersion_real
_atom_type_scat_dispersion_imag
_atom_type_scat_source
C C 0.0181 0.0091 'International Tables Vol C Tables 4.2.6.8 and 6.1.1.4'
H H 0.0000 0.0000 'International Tables Vol C Tables 4.2.6.8 and 6.1.1.4'
N N 0.0311 0.0180 'International Tables Vol C Tables 4.2.6.8 and 6.1.1.4'
P P 0.2955 0.4335 'International Tables Vol C Tables 4.2.6.8 and 6.1.1.4'
Cl Cl 0.3639 0.7018 'International Tables Vol C Tables 4.2.6.8 and 6.1.1.4'
Co Co -2.3653 3.6143 'International Tables Vol C Tables 4.2.6.8 and 6.1.1.4'
loop_
_geom_angle_atom_site_label_1
_geom_angle_atom_site_label_2
_geom_angle_atom_site_label_3
_geom_angle
_geom_angle_site_symmetry_1
_geom_angle_site_symmetry_3
N1 Co1 N1 180.0 . 5_756
N1 Co1 N2 89.72(11) . .
N1 Co1 N2 90.28(11) 5_756 .
N1 Co1 N2 90.28(11) . 5_756
N1 Co1 N2 89.72(11) 5_756 5_756
N2 Co1 N2 180.0 . 5_756
N1 Co1 Cl1 88.06(8) . 5_756
N1 Co1 Cl1 91.95(8) 5_756 5_756
N2 Co1 Cl1 91.96(8) . 5_756
N2 Co1 Cl1 88.04(8) 5_756 5_756
N1 Co1 Cl1 91.94(8) . .
N1 Co1 Cl1 88.05(8) 5_756 .
N2 Co1 Cl1 88.04(8) . .
N2 Co1 Cl1 91.96(8) 5_756 .
Cl1 Co1 Cl1 180.0 5_756 .
C9 N1 C2 107.2(3) . .
C9 N1 Co1 126.9(2) . .
C2 N1 Co1 125.9(2) . .
C11 N2 C18 107.1(3) . .
C11 N2 Co1 126.4(2) . .
C18 N2 Co1 126.2(2) . .
C18 C1 C2 125.8(3) 5_756 .
C1 C2 N1 125.9(3) . .
C1 C2 C3 124.1(3) . .
N1 C2 C3 109.9(3) . .
C4 C3 C8 121.5(3) . .
C4 C3 C2 132.7(3) . .
C8 C3 C2 105.9(3) . .
C5 C4 C3 117.6(3) . .
C4 C5 C6 121.7(3) . .
C7 C6 C5 121.0(4) . .
C6 C7 C8 117.8(3) . .
C7 C8 C3 120.4(3) . .
C7 C8 C9 133.0(3) . .
C3 C8 C9 106.6(3) . .
N1 C9 C10 125.7(3) . .
N1 C9 C8 110.4(3) . .
C10 C9 C8 123.9(3) . .
C11 C10 C9 125.3(3) . .
N2 C11 C10 125.8(3) . .
N2 C11 C12 110.2(3) . .
C10 C11 C12 123.9(3) . .
C17 C12 C13 121.1(3) . .
C17 C12 C11 106.6(3) . .
C13 C12 C11 132.2(3) . .
C14 C13 C12 117.2(3) . .
C15 C14 C13 121.2(3) . .
C16 C15 C14 121.6(3) . .
C15 C16 C17 117.3(4) . .
C12 C17 C16 121.5(3) . .
C12 C17 C18 106.1(3) . .
C16 C17 C18 132.3(3) . .
C1 C18 N2 125.8(3) 5_756 .
C1 C18 C17 124.3(3) 5_756 .
N2 C18 C17 109.9(3) . .
C19 P1 C19 111.44(12) 8_746 2_755
C19 P1 C19 105.6(2) 8_746 7_676
C19 P1 C19 111.44(12) 2_755 7_676
C19 P1 C19 111.44(12) 8_746 .
C19 P1 C19 105.6(2) 2_755 .
C19 P1 C19 111.44(12) 7_676 .
C24 C19 C20 120.1(4) . .
C24 C19 P1 121.6(3) . .
C20 C19 P1 117.9(3) . .
C21 C20 C19 120.2(4) . .
C22 C21 C20 119.0(5) . .
C21 C22 C23 121.3(4) . .
C22 C23 C24 120.4(4) . .
C19 C24 C23 118.8(4) . .
loop_
_geom_bond_atom_site_label_1
_geom_bond_atom_site_label_2
_geom_bond_distance
_geom_bond_site_symmetry_2
Co1 N1 2.013(3) .
Co1 N1 2.013(3) 5_756
Co1 N2 2.016(3) .
Co1 N2 2.016(3) 5_756
Co1 Cl1 2.2703(9) 5_756
Co1 Cl1 2.2703(9) .
N1 C9 1.360(4) .
N1 C2 1.384(4) .
N2 C11 1.367(4) .
N2 C18 1.374(4) .
C1 C18 1.367(4) 5_756
C1 C2 1.368(4) .
C2 C3 1.453(4) .
C3 C4 1.378(5) .
C3 C8 1.397(4) .
C4 C5 1.378(5) .
C5 C6 1.384(5) .
C6 C7 1.384(5) .
C7 C8 1.391(4) .
C8 C9 1.450(4) .
C9 C10 1.376(4) .
C10 C11 1.373(4) .
C11 C12 1.447(4) .
C12 C17 1.385(4) .
C12 C13 1.399(4) .
C13 C14 1.390(5) .
C14 C15 1.387(5) .
C15 C16 1.386(5) .
C16 C17 1.389(5) .
C17 C18 1.456(4) .
P1 C19 1.793(4) 8_746
P1 C19 1.793(4) 2_755
P1 C19 1.793(4) 7_676
P1 C19 1.793(4) .
C19 C24 1.381(5) .
C19 C20 1.394(5) .
C20 C21 1.379(6) .
C21 C22 1.369(7) .
C22 C23 1.370(7) .
C23 C24 1.386(6) .
loop_
_geom_torsion_atom_site_label_1
_geom_torsion_atom_site_label_2
_geom_torsion_atom_site_label_3
_geom_torsion_atom_site_label_4
_geom_torsion
_geom_torsion_site_symmetry_1
_geom_torsion_site_symmetry_4
C18 C1 C2 N1 0.1(6) 5_756 .
C18 C1 C2 C3 -178.9(3) 5_756 .
C9 N1 C2 C1 -179.6(3) . .
Co1 N1 C2 C1 -1.5(5) . .
C9 N1 C2 C3 -0.5(4) . .
Co1 N1 C2 C3 177.6(2) . .
C1 C2 C3 C4 -1.7(6) . .
N1 C2 C3 C4 179.1(4) . .
C1 C2 C3 C8 179.7(3) . .
N1 C2 C3 C8 0.6(4) . .
C8 C3 C4 C5 -0.4(5) . .
C2 C3 C4 C5 -178.8(4) . .
C3 C4 C5 C6 0.0(6) . .
C4 C5 C6 C7 -0.4(6) . .
C5 C6 C7 C8 1.0(6) . .
C6 C7 C8 C3 -1.4(5) . .
C6 C7 C8 C9 179.0(4) . .
C4 C3 C8 C7 1.1(5) . .
C2 C3 C8 C7 179.9(3) . .
C4 C3 C8 C9 -179.2(3) . .
C2 C3 C8 C9 -0.4(4) . .
C2 N1 C9 C10 179.4(3) . .
Co1 N1 C9 C10 1.3(5) . .
C2 N1 C9 C8 0.3(4) . .
Co1 N1 C9 C8 -177.8(2) . .
C7 C8 C9 N1 179.8(4) . .
C3 C8 C9 N1 0.1(4) . .
C7 C8 C9 C10 0.7(6) . .
C3 C8 C9 C10 -179.0(3) . .
N1 C9 C10 C11 -0.8(6) . .
C8 C9 C10 C11 178.2(3) . .
C18 N2 C11 C10 178.9(3) . .
Co1 N2 C11 C10 4.1(5) . .
C18 N2 C11 C12 0.2(4) . .
Co1 N2 C11 C12 -174.5(2) . .
C9 C10 C11 N2 -2.1(6) . .
C9 C10 C11 C12 176.4(3) . .
N2 C11 C12 C17 -0.6(4) . .
C10 C11 C12 C17 -179.3(3) . .
N2 C11 C12 C13 176.6(3) . .
C10 C11 C12 C13 -2.0(6) . .
C17 C12 C13 C14 0.3(5) . .
C11 C12 C13 C14 -176.7(4) . .
C12 C13 C14 C15 -1.6(6) . .
C13 C14 C15 C16 1.3(6) . .
C14 C15 C16 C17 0.4(6) . .
C13 C12 C17 C16 1.4(5) . .
C11 C12 C17 C16 179.0(3) . .
C13 C12 C17 C18 -176.9(3) . .
C11 C12 C17 C18 0.7(4) . .
C15 C16 C17 C12 -1.7(5) . .
C15 C16 C17 C18 176.1(4) . .
C11 N2 C18 C1 -178.0(3) . 5_756
Co1 N2 C18 C1 -3.2(5) . 5_756
C11 N2 C18 C17 0.2(4) . .
Co1 N2 C18 C17 175.0(2) . .
C12 C17 C18 C1 177.7(3) . 5_756
C16 C17 C18 C1 -0.3(6) . 5_756
C12 C17 C18 N2 -0.6(4) . .
C16 C17 C18 N2 -178.6(4) . .
C19 P1 C19 C24 8.0(3) 8_746 .
C19 P1 C19 C24 -113.2(4) 2_755 .
C19 P1 C19 C24 125.7(4) 7_676 .
C19 P1 C19 C20 -178.7(3) 8_746 .
C19 P1 C19 C20 60.2(3) 2_755 .
C19 P1 C19 C20 -61.0(2) 7_676 .
C24 C19 C20 C21 -2.9(6) . .
P1 C19 C20 C21 -176.3(3) . .
C19 C20 C21 C22 0.6(7) . .
C20 C21 C22 C23 1.3(8) . .
C21 C22 C23 C24 -1.0(8) . .
C20 C19 C24 C23 3.1(6) . .
P1 C19 C24 C23 176.3(3) . .
C22 C23 C24 C19 -1.2(7) . .
