#------------------------------------------------------------------------------
#$Date: 2023-05-30 01:51:04 +0300 (Tue, 30 May 2023) $
#$Revision: 284051 $
#$URL: file:///home/coder/svn-repositories/cod/cif/7/71/31/7713177.cif $
#------------------------------------------------------------------------------
#
# This file is available in the Crystallography Open Database (COD),
# http://www.crystallography.net/
#
# All data on this site have been placed in the public domain by the
# contributors.
#
data_7713177
loop_
_publ_author_name
'Sahoo, Dipankar'
'Mazumdar, Rakesh'
'Pramanik, Subhadip'
'Banerjee, Sayantani'
'Patra, Ranjan'
'Rath, Sankar Prasad'
_publ_section_title
;
 Modulation of iron spin states in highly distorted iron(III)porphyrin:
 H-bonding interactions and implications for the hemoproteins
;
_journal_name_full               'Dalton Transactions'
_journal_paper_doi               10.1039/D3DT00846K
_journal_year                    2023
_chemical_formula_sum            'C52 H34 Br8 Cl Fe N4 O6'
_chemical_formula_weight         1541.41
_space_group_crystal_system      orthorhombic
_space_group_IT_number           19
_space_group_name_Hall           'P 2ac 2ab'
_space_group_name_H-M_alt        'P 21 21 21'
_atom_sites_solution_hydrogens   mixed
_audit_creation_method           SHELXL-2018/3
_audit_update_record
;
2023-05-23 deposited with the CCDC.	2023-05-29 downloaded from the CCDC.
;
_cell_angle_alpha                90
_cell_angle_beta                 90
_cell_angle_gamma                90
_cell_formula_units_Z            4
_cell_length_a                   14.639(5)
_cell_length_b                   16.495(5)
_cell_length_c                   21.095(6)
_cell_measurement_reflns_used    999
_cell_measurement_temperature    100(2)
_cell_measurement_theta_max      27.25
_cell_measurement_theta_min      2.5
_cell_volume                     5094(3)
_computing_cell_refinement       'Bruker SAINT'
_computing_data_collection       'Bruker APEX'
_computing_data_reduction        'Bruker SAINT'
_computing_molecular_graphics    'SHELXL 5.1, XP (Sheldrick, 1994)'
_computing_publication_material  SHELXL-97
_computing_structure_refinement  'SHELXL-2018/3 (Sheldrick, 2018)'
_computing_structure_solution    'SHELXS-97 (Sheldrick, 2008)'
_diffrn_ambient_temperature      100(2)
_diffrn_measured_fraction_theta_full 0.995
_diffrn_measured_fraction_theta_max 0.995
_diffrn_measurement_device_type  'Bruker SMART APEX'
_diffrn_measurement_method       \w
_diffrn_radiation_type           MoK\a
_diffrn_radiation_wavelength     0.71073
_diffrn_reflns_av_R_equivalents  0.0883
_diffrn_reflns_av_unetI/netI     0.1116
_diffrn_reflns_Laue_measured_fraction_full 0.995
_diffrn_reflns_Laue_measured_fraction_max 0.995
_diffrn_reflns_limit_h_max       8
_diffrn_reflns_limit_h_min       -17
_diffrn_reflns_limit_k_max       19
_diffrn_reflns_limit_k_min       -19
_diffrn_reflns_limit_l_max       25
_diffrn_reflns_limit_l_min       -25
_diffrn_reflns_number            26131
_diffrn_reflns_point_group_measured_fraction_full 0.993
_diffrn_reflns_point_group_measured_fraction_max 0.993
_diffrn_reflns_theta_full        24.996
_diffrn_reflns_theta_max         24.996
_diffrn_reflns_theta_min         1.860
_diffrn_source                   'fine-focus sealed tube'
_exptl_absorpt_coefficient_mu    6.680
_exptl_absorpt_correction_T_max  0.512
_exptl_absorpt_correction_T_min  0.408
_exptl_absorpt_correction_type   multi-scan
_exptl_absorpt_process_details   'SADABS 2.05 (Sheldrick, 2002)'
_exptl_crystal_colour            'dark red'
_exptl_crystal_density_diffrn    2.010
_exptl_crystal_description       block
_exptl_crystal_F_000             2980
_exptl_crystal_size_max          0.140
_exptl_crystal_size_mid          0.120
_exptl_crystal_size_min          0.100
_refine_diff_density_max         0.672
_refine_diff_density_min         -0.582
_refine_diff_density_rms         0.138
_refine_ls_abs_structure_details
;
 Flack x determined using 2301 quotients [(I+)-(I-)]/[(I+)+(I-)]
 (Parsons, Flack and Wagner, Acta Cryst. B69 (2013) 249-259).
;
_refine_ls_abs_structure_Flack   0.025(12)
_refine_ls_extinction_method     none
_refine_ls_goodness_of_fit_ref   0.961
_refine_ls_hydrogen_treatment    mixed
_refine_ls_matrix_type           full
_refine_ls_number_parameters     659
_refine_ls_number_reflns         8917
_refine_ls_number_restraints     14
_refine_ls_restrained_S_all      0.961
_refine_ls_R_factor_all          0.0727
_refine_ls_R_factor_gt           0.0499
_refine_ls_shift/su_max          0.001
_refine_ls_shift/su_mean         0.000
_refine_ls_structure_factor_coef Fsqd
_refine_ls_weighting_details
'w=1/[\s^2^(Fo^2^)+(0.0149P)^2^] where P=(Fo^2^+2Fc^2^)/3'
_refine_ls_weighting_scheme      calc
_refine_ls_wR_factor_gt          0.0796
_refine_ls_wR_factor_ref         0.0887
_reflns_Friedel_coverage         0.803
_reflns_Friedel_fraction_full    0.992
_reflns_Friedel_fraction_max     0.992
_reflns_number_gt                6897
_reflns_number_total             8917
_reflns_threshold_expression     'I > 2\s(I)'
_cod_data_source_file            d3dt00846k2.cif
_cod_data_source_block           shelx_CCDC1
_cod_database_code               7713177
_shelx_shelxl_version_number     2018/3
_shelx_space_group_comment
;
The symmetry employed for this shelxl refinement is uniquely defined
by the following loop, which should always be used as a source of
symmetry information in preference to the above space-group names.
They are only intended as comments.
;
_shelx_estimated_absorpt_t_min   0.455
_shelx_estimated_absorpt_t_max   0.555
_shelx_res_file
;
TITL 30marbm in P 21 21 21
    shelx.res
    created by SHELXL-2018/3 at 17:06:51 on 18-May-2023
CELL  0.71073  14.6389  16.4946  21.0951   90.000   90.000   90.000
ZERR     4.00   0.0045   0.0050   0.0064    0.000    0.000    0.000
LATT  -1
SYMM  1/2 - X, - Y, 1/2 + Z
SYMM  1/2 + X, 1/2 - Y, - Z
SYMM  - X, 1/2 + Y, 1/2 - Z
SFAC  C    H    N    O    CL   FE   BR
UNIT  208  136   16   24   4    4    32
TEMP -173.0
omit -3 50.0
omit 1   9  21
omit 0   1   4
omit -9   8   8
omit 2  18   6
omit 6  12   4
omit -5  13   5
omit 1  18  11
omit -5  14  15
omit 13  12   8
omit  4  13   2
omit -8  15   5
omit 15   6   5
omit -4   2  24
omit 13   2  13
omit -6  12  11
omit 2  18   8
omit -15   3   9
omit  -4   6   2
omit  6   0  15
omit 1   0   2
MERG   2
FMAP   2
PLAN   10
L.S.   12
DFIX 0.82 o1 h1a o2 h2a
isor 0.005 n4
isor 0.01 c21
acta 50
SIZE 0.14 0.12 0.10 ! Dark Red
WGHT    0.014900
FVAR       0.16190
FE1   6    0.574808    0.834622    0.162624    11.00000    0.01552    0.01428 =
         0.01499    0.00009   -0.00006    0.00004
N1    3    0.581671    0.782558    0.249993    11.00000    0.00632    0.01706 =
         0.01085    0.00159   -0.00295    0.00297
N2    3    0.712514    0.823381    0.154361    11.00000    0.01610    0.01911 =
         0.01263   -0.00282    0.00514    0.00732
N3    3    0.567566    0.890341    0.076390    11.00000    0.01247    0.01397 =
         0.01467    0.00444    0.00059    0.00467
N4    3    0.437412    0.841422    0.169780    11.00000    0.01074    0.01610 =
         0.01004   -0.00098    0.00671   -0.00295
O1    4    0.594231    0.951496    0.200816    11.00000    0.01884    0.01730 =
         0.01891   -0.00615   -0.00154    0.00774
O2    4    0.561154    0.713926    0.125511    11.00000    0.02385    0.01991 =
         0.01169   -0.00640    0.00617   -0.00331
BR1   7    0.483088    0.789702    0.432676    11.00000    0.02366    0.02794 =
         0.01551   -0.00150    0.00188    0.00191
BR2   7    0.713044    0.757594    0.422450    11.00000    0.02212    0.02946 =
         0.01657   -0.00077   -0.00373    0.00163
BR3   7    0.938781    0.677355    0.178416    11.00000    0.02423    0.03137 =
         0.02351    0.00295    0.00187    0.01106
BR4   7    0.929782    0.772383    0.035635    11.00000    0.02218    0.02364 =
         0.02477    0.00228    0.00904    0.00390
BR5   7    0.683209    1.063051   -0.041743    11.00000    0.02663    0.02573 =
         0.02605    0.00862   -0.00052   -0.00423
BR6   7    0.460244    1.093064   -0.008781    11.00000    0.02867    0.01980 =
         0.03754    0.00774   -0.00322    0.00102
BR7   7    0.187966    0.819542    0.078056    11.00000    0.02079    0.03225 =
         0.02330    0.00486   -0.00753   -0.00532
BR8   7    0.205107    0.709881    0.214276    11.00000    0.02247    0.02694 =
         0.02141    0.00149   -0.00181   -0.00843
C1    1    0.509306    0.780756    0.291330    11.00000    0.01646    0.01069 =
         0.01352    0.00232    0.00174    0.00478
C2    1    0.544822    0.774422    0.355203    11.00000    0.02709    0.00856 =
         0.02023    0.00276   -0.00046   -0.00460
C3    1    0.637663    0.766013    0.351486    11.00000    0.01888    0.01277 =
         0.01752    0.00288   -0.00242    0.00341
C4    1    0.662239    0.768934    0.285047    11.00000    0.01671    0.01377 =
         0.01388    0.00362   -0.00725    0.00170
C5    1    0.747971    0.757220    0.256595    11.00000    0.01189    0.02210 =
         0.02267   -0.00659   -0.00435   -0.00645
C6    1    0.767695    0.774254    0.192224    11.00000    0.02342    0.01203 =
         0.01720   -0.00478   -0.00301   -0.00799
C7    1    0.847070    0.751854    0.157677    11.00000    0.00558    0.01999 =
         0.02750   -0.00284   -0.00158   -0.00372
C8    1    0.844258    0.789727    0.100227    11.00000    0.02700    0.01399 =
         0.01077    0.00118   -0.00029   -0.00980
C9    1    0.759111    0.835958    0.097990    11.00000    0.02839    0.00505 =
         0.01284    0.00279    0.00693   -0.00045
C10   1    0.731664    0.890518    0.050101    11.00000    0.01171    0.01366 =
         0.02056   -0.00525    0.00372   -0.00214
C11   1    0.644243    0.921690    0.045434    11.00000    0.02213    0.01031 =
         0.00624   -0.00046    0.00037   -0.00287
C12   1    0.613490    0.989948    0.006879    11.00000    0.03101    0.01747 =
         0.01707    0.00642    0.00054   -0.01138
C13   1    0.524036    0.999474    0.016321    11.00000    0.01722    0.01984 =
         0.02360    0.00563   -0.00369    0.00739
C14   1    0.493222    0.935964    0.057386    11.00000    0.01863    0.01709 =
         0.00813   -0.00002    0.00531   -0.00195
C15   1    0.401077    0.915736    0.071531    11.00000    0.02138    0.00385 =
         0.00806   -0.00149   -0.00326    0.00085
C16   1    0.377972    0.861926    0.119067    11.00000    0.01459    0.02070 =
         0.01447   -0.01058   -0.00383    0.00365
C17   1    0.290386    0.822232    0.131426    11.00000    0.01630    0.02148 =
         0.01687   -0.00542   -0.00226   -0.00982
C18   1    0.296783    0.781937    0.186272    11.00000    0.01709    0.01690 =
         0.01997   -0.00179    0.00898   -0.00225
C19   1    0.385730    0.794869    0.213506    11.00000    0.02140    0.00479 =
         0.02064    0.00478    0.00255    0.00287
C20   1    0.418247    0.775562    0.273232    11.00000    0.02268    0.00425 =
         0.01599    0.00214   -0.00129   -0.00021
C21   1    0.823136    0.724727    0.296113    11.00000    0.00353    0.01835 =
         0.01085    0.00061    0.00233   -0.00238
C22   1    0.825607    0.643547    0.314733    11.00000    0.01872    0.00995 =
         0.03108   -0.00428    0.00783   -0.00159
AFIX  43
H22A  2    0.775443    0.609071    0.305270    11.00000   -1.20000
AFIX   0
C23   1    0.899755    0.613060    0.346561    11.00000    0.02986    0.02400 =
         0.02823    0.01193   -0.00660   -0.00081
AFIX  43
H23A  2    0.902104    0.556949    0.356586    11.00000   -1.20000
AFIX   0
C24   1    0.970795    0.662917    0.364127    11.00000    0.02042    0.03384 =
         0.03346    0.00207   -0.01713    0.01058
AFIX  43
H24A  2    1.021654    0.641564    0.386569    11.00000   -1.20000
AFIX   0
C25   1    0.967479    0.743141    0.349030    11.00000    0.02834    0.03095 =
         0.03481   -0.00144   -0.00614    0.00073
AFIX  43
H25A  2    1.015332    0.777899    0.362694    11.00000   -1.20000
AFIX   0
C26   1    0.895768    0.775196    0.314145    11.00000    0.02196    0.02036 =
         0.02774    0.00495    0.00457   -0.00830
AFIX  43
H26A  2    0.895825    0.830851    0.302558    11.00000   -1.20000
AFIX   0
C27   1    0.805389    0.918921    0.005109    11.00000    0.01594    0.01599 =
         0.02018    0.00740    0.00541    0.00660
C28   1    0.873216    0.969235    0.026581    11.00000    0.00652    0.02622 =
         0.02299    0.00382    0.00033   -0.00202
AFIX  43
H28A  2    0.874433    0.985182    0.069846    11.00000   -1.20000
AFIX   0
C29   1    0.939220    0.996570   -0.014163    11.00000    0.02887    0.02482 =
         0.02633    0.00058    0.00946   -0.00856
AFIX  43
H29A  2    0.985147    1.032433    0.000869    11.00000   -1.20000
AFIX   0
C30   1    0.939709    0.972351   -0.077368    11.00000    0.02233    0.02723 =
         0.03512    0.01793    0.01649    0.00814
AFIX  43
H30A  2    0.986349    0.990773   -0.105172    11.00000   -1.20000
AFIX   0
C31   1    0.871948    0.921366   -0.099390    11.00000    0.03424    0.02940 =
         0.02657    0.00566    0.00345    0.00345
AFIX  43
H31A  2    0.872707    0.904395   -0.142422    11.00000   -1.20000
AFIX   0
C32   1    0.802740    0.894542   -0.059591    11.00000    0.02509    0.02186 =
         0.02072    0.00600   -0.00225    0.00575
AFIX  43
H32A  2    0.755021    0.860907   -0.075079    11.00000   -1.20000
AFIX   0
C33   1    0.329519    0.951605    0.029709    11.00000    0.01657    0.02159 =
         0.01048    0.00310   -0.00019   -0.00221
C34   1    0.265332    1.006018    0.054824    11.00000    0.02302    0.02500 =
         0.01578    0.00158   -0.00160    0.00228
AFIX  43
H34A  2    0.263993    1.017085    0.099009    11.00000   -1.20000
AFIX   0
C35   1    0.203866    1.043414    0.014210    11.00000    0.00860    0.02617 =
         0.03049    0.01112    0.00890   -0.00147
AFIX  43
H35A  2    0.161237    1.081170    0.030986    11.00000   -1.20000
AFIX   0
C36   1    0.203103    1.027289   -0.049375    11.00000    0.02158    0.02070 =
         0.02608    0.01290   -0.00203   -0.00005
AFIX  43
H36A  2    0.160033    1.052877   -0.076476    11.00000   -1.20000
AFIX   0
C37   1    0.266990    0.972355   -0.073800    11.00000    0.02506    0.02455 =
         0.02094    0.00878   -0.00331   -0.01146
AFIX  43
H37A  2    0.267380    0.960514   -0.117871    11.00000   -1.20000
AFIX   0
C38   1    0.328963    0.935570   -0.034485    11.00000    0.01985    0.01248 =
         0.02175   -0.00789   -0.00162   -0.00774
AFIX  43
H38A  2    0.372088    0.898558   -0.051659    11.00000   -1.20000
AFIX   0
C39   1    0.349977    0.745976    0.321307    11.00000    0.02406    0.01872 =
         0.01452   -0.00345   -0.00562   -0.00412
C40   1    0.282804    0.796265    0.344241    11.00000    0.00563    0.02486 =
         0.02366   -0.00180   -0.00473    0.00262
AFIX  43
H40A  2    0.278604    0.850237    0.328793    11.00000   -1.20000
AFIX   0
C41   1    0.220632    0.769444    0.389836    11.00000    0.01688    0.03438 =
         0.02296   -0.01146    0.00316    0.00430
AFIX  43
H41A  2    0.178414    0.805956    0.408669    11.00000   -1.20000
AFIX   0
C42   1    0.221915    0.687288    0.407225    11.00000    0.00985    0.04272 =
         0.01945    0.01163   -0.00374   -0.01539
AFIX  43
H42A  2    0.176677    0.666547    0.435146    11.00000   -1.20000
AFIX   0
C43   1    0.287583    0.637692    0.384207    11.00000    0.04107    0.01570 =
         0.02106    0.00532    0.00031   -0.00585
AFIX  43
H43A  2    0.289038    0.582692    0.397534    11.00000   -1.20000
AFIX   0
C44   1    0.353160    0.665218    0.341440    11.00000    0.02959    0.02003 =
         0.02838   -0.00899   -0.00791    0.00434
AFIX  43
H44A  2    0.399294    0.629709    0.326199    11.00000   -1.20000
AFIX   0
C45   1    0.654059    0.969018    0.253338    11.00000    0.03714    0.01267 =
         0.03242   -0.00842   -0.00166   -0.00658
AFIX 137
H45A  2    0.664379    1.027632    0.255871    11.00000   -1.50000
H45B  2    0.712560    0.941274    0.247055    11.00000   -1.50000
H45C  2    0.625909    0.950059    0.292795    11.00000   -1.50000
AFIX   0
C46   1    0.607988    0.689812    0.068636    11.00000    0.02452    0.02238 =
         0.02501   -0.01018    0.00571   -0.00425
AFIX 137
H46A  2    0.580422    0.639992    0.052059    11.00000   -1.50000
H46B  2    0.672570    0.680073    0.078210    11.00000   -1.50000
H46C  2    0.602890    0.732936    0.036876    11.00000   -1.50000
AFIX   0
C47   1    0.980615    0.988271    0.317494    11.00000    0.04188    0.02047 =
         0.03177   -0.00504    0.01020   -0.00457
AFIX  43
H47A  2    0.979286    1.009084    0.359475    11.00000   -1.20000
AFIX   0
C48   1    1.056157    0.947748    0.295617    11.00000    0.02452    0.03050 =
         0.03462    0.00774   -0.01052   -0.01145
AFIX  43
H48A  2    1.106508    0.940840    0.323511    11.00000   -1.20000
AFIX   0
C49   1    1.062490    0.917011    0.236014    11.00000    0.02956    0.02945 =
         0.03860    0.00254    0.00324   -0.00579
AFIX  43
H49A  2    1.116029    0.889559    0.222340    11.00000   -1.20000
AFIX   0
C50   1    0.987607    0.927035    0.195297    11.00000    0.05401    0.03097 =
         0.02469   -0.00628    0.00684   -0.00731
AFIX  43
H50A  2    0.989490    0.905516    0.153545    11.00000   -1.20000
AFIX   0
C51   1    0.911350    0.968136    0.215970    11.00000    0.01716    0.02729 =
         0.03541    0.01045   -0.00089   -0.01284
AFIX  43
H51A  2    0.861417    0.975974    0.187866    11.00000   -1.20000
AFIX   0
C52   1    0.906407    0.998452    0.277673    11.00000    0.03795    0.01728 =
         0.04372   -0.00228    0.01419    0.00219
AFIX  43
H52A  2    0.853044    1.025582    0.292052    11.00000   -1.20000
AFIX   0
CL1   5    0.384371    1.023328    0.262309    11.00000    0.02809    0.02440 =
         0.02026   -0.00082    0.00011    0.00539
O3    4    0.302948    0.984275    0.238988    11.00000    0.02510    0.03172 =
         0.05995   -0.00950   -0.01251    0.00334
O4    4    0.432845    0.967221    0.301589    11.00000    0.03910    0.02639 =
         0.02978   -0.00669   -0.00956    0.00404
O5    4    0.357915    1.093160    0.298029    11.00000    0.04096    0.01732 =
         0.03221   -0.00721    0.00722    0.00673
O6    4    0.440587    1.046785    0.208888    11.00000    0.04511    0.03093 =
         0.03056    0.00601    0.01320    0.00810
H2A   2    0.571563    0.708609    0.163410    11.00000    0.05802
H1A   2    0.552542    0.982861    0.202932    11.00000    0.01253
HKLF    4




REM  30marbm in P 21 21 21
REM wR2 = 0.0887, GooF = S = 0.961, Restrained GooF = 0.961 for all data
REM R1 = 0.0499 for 6897 Fo > 4sig(Fo) and 0.0727 for all 8917 data
REM 659 parameters refined using 14 restraints

END

WGHT      0.0148      0.0000

REM Highest difference peak  0.672,  deepest hole -0.582,  1-sigma level  0.138
Q1    1   0.8650  0.6990  0.0811  11.00000  0.05    0.59
Q2    1   0.7225  1.1226 -0.0435  11.00000  0.05    0.57
Q3    1   0.9336  0.8175  0.0797  11.00000  0.05    0.56
Q4    1   0.9741  0.7360  0.2062  11.00000  0.05    0.55
Q5    1   0.9221  0.6940  0.2226  11.00000  0.05    0.54
Q6    1   0.6987  1.0746 -0.0943  11.00000  0.05    0.54
Q7    1   0.6984  0.7796 -0.1221  11.00000  0.05    0.54
Q8    1   0.3988  1.0853 -0.0524  11.00000  0.05    0.53
Q9    1   0.9477  1.0364  0.2086  11.00000  0.05    0.53
Q10   1   0.1853  0.7485  0.2593  11.00000  0.05    0.52
;
_shelx_res_checksum              22296
loop_
_space_group_symop_operation_xyz
'x, y, z'
'-x+1/2, -y, z+1/2'
'x+1/2, -y+1/2, -z'
'-x, y+1/2, -z+1/2'
loop_
_atom_site_label
_atom_site_type_symbol
_atom_site_fract_x
_atom_site_fract_y
_atom_site_fract_z
_atom_site_U_iso_or_equiv
_atom_site_adp_type
_atom_site_occupancy
_atom_site_site_symmetry_order
_atom_site_calc_flag
_atom_site_refinement_flags_posn
_atom_site_refinement_flags_adp
_atom_site_refinement_flags_occupancy
_atom_site_disorder_assembly
_atom_site_disorder_group
Fe1 Fe 0.57481(13) 0.83462(10) 0.16262(8) 0.0149(4) Uani 1 1 d . . . . .
N1 N 0.5817(6) 0.7826(5) 0.2500(4) 0.011(2) Uani 1 1 d . . . . .
N2 N 0.7125(7) 0.8234(5) 0.1544(4) 0.016(2) Uani 1 1 d . . . . .
N3 N 0.5676(7) 0.8903(5) 0.0764(4) 0.014(2) Uani 1 1 d . . . . .
N4 N 0.4374(7) 0.8414(5) 0.1698(4) 0.012(2) Uani 1 1 d . U . . .
O1 O 0.5942(6) 0.9515(5) 0.2008(4) 0.018(2) Uani 1 1 d D . . . .
O2 O 0.5612(6) 0.7139(5) 0.1255(4) 0.018(2) Uani 1 1 d D . . . .
Br1 Br 0.48309(9) 0.78970(8) 0.43268(5) 0.0224(3) Uani 1 1 d . . . . .
Br2 Br 0.71304(9) 0.75759(7) 0.42245(6) 0.0227(3) Uani 1 1 d . . . . .
Br3 Br 0.93878(10) 0.67736(8) 0.17842(6) 0.0264(3) Uani 1 1 d . . . . .
Br4 Br 0.92978(9) 0.77238(7) 0.03563(6) 0.0235(3) Uani 1 1 d . . . . .
Br5 Br 0.68321(10) 1.06305(7) -0.04174(6) 0.0261(3) Uani 1 1 d . . . . .
Br6 Br 0.46024(10) 1.09306(8) -0.00878(6) 0.0287(4) Uani 1 1 d . . . . .
Br7 Br 0.18797(9) 0.81954(8) 0.07806(6) 0.0254(3) Uani 1 1 d . . . . .
Br8 Br 0.20511(9) 0.70988(8) 0.21428(6) 0.0236(3) Uani 1 1 d . . . . .
C1 C 0.5093(9) 0.7808(7) 0.2913(5) 0.014(3) Uani 1 1 d . . . . .
C2 C 0.5448(9) 0.7744(7) 0.3552(5) 0.019(3) Uani 1 1 d . . . . .
C3 C 0.6377(9) 0.7660(7) 0.3515(5) 0.016(3) Uani 1 1 d . . . . .
C4 C 0.6622(8) 0.7689(7) 0.2850(5) 0.015(3) Uani 1 1 d . . . . .
C5 C 0.7480(9) 0.7572(7) 0.2566(6) 0.019(3) Uani 1 1 d . . . . .
C6 C 0.7677(9) 0.7743(7) 0.1922(5) 0.018(3) Uani 1 1 d . . . . .
C7 C 0.8471(8) 0.7519(7) 0.1577(6) 0.018(3) Uani 1 1 d . . . . .
C8 C 0.8443(9) 0.7897(7) 0.1002(5) 0.017(3) Uani 1 1 d . . . . .
C9 C 0.7591(9) 0.8360(6) 0.0980(5) 0.015(3) Uani 1 1 d . . . . .
C10 C 0.7317(8) 0.8905(7) 0.0501(5) 0.015(3) Uani 1 1 d . . . . .
C11 C 0.6442(9) 0.9217(6) 0.0454(5) 0.013(3) Uani 1 1 d . . . . .
C12 C 0.6135(10) 0.9899(7) 0.0069(6) 0.022(3) Uani 1 1 d . . . . .
C13 C 0.5240(9) 0.9995(7) 0.0163(6) 0.020(3) Uani 1 1 d . . . . .
C14 C 0.4932(9) 0.9360(7) 0.0574(5) 0.015(3) Uani 1 1 d . . . . .
C15 C 0.4011(8) 0.9157(6) 0.0715(5) 0.011(3) Uani 1 1 d . . . . .
C16 C 0.3780(9) 0.8619(7) 0.1191(5) 0.017(3) Uani 1 1 d . . . . .
C17 C 0.2904(9) 0.8222(7) 0.1314(5) 0.018(3) Uani 1 1 d . . . . .
C18 C 0.2968(9) 0.7819(7) 0.1863(5) 0.018(3) Uani 1 1 d . . . . .
C19 C 0.3857(9) 0.7949(7) 0.2135(5) 0.016(3) Uani 1 1 d . . . . .
C20 C 0.4182(9) 0.7756(6) 0.2732(5) 0.014(3) Uani 1 1 d . . . . .
C21 C 0.8231(8) 0.7247(7) 0.2961(5) 0.011(3) Uani 1 1 d . U . . .
C22 C 0.8256(9) 0.6435(7) 0.3147(6) 0.020(3) Uani 1 1 d . . . . .
H22A H 0.775443 0.609071 0.305270 0.024 Uiso 1 1 calc R U . . .
C23 C 0.8998(10) 0.6131(8) 0.3466(6) 0.027(4) Uani 1 1 d . . . . .
H23A H 0.902104 0.556949 0.356586 0.033 Uiso 1 1 calc R U . . .
C24 C 0.9708(10) 0.6629(8) 0.3641(6) 0.029(4) Uani 1 1 d . . . . .
H24A H 1.021654 0.641564 0.386569 0.035 Uiso 1 1 calc R U . . .
C25 C 0.9675(10) 0.7431(8) 0.3490(6) 0.031(4) Uani 1 1 d . . . . .
H25A H 1.015332 0.777899 0.362694 0.038 Uiso 1 1 calc R U . . .
C26 C 0.8958(9) 0.7752(8) 0.3141(6) 0.023(3) Uani 1 1 d . . . . .
H26A H 0.895825 0.830851 0.302558 0.028 Uiso 1 1 calc R U . . .
C27 C 0.8054(9) 0.9189(7) 0.0051(6) 0.017(3) Uani 1 1 d . . . . .
C28 C 0.8732(8) 0.9692(7) 0.0266(6) 0.019(3) Uani 1 1 d . . . . .
H28A H 0.874433 0.985182 0.069846 0.022 Uiso 1 1 calc R U . . .
C29 C 0.9392(10) 0.9966(7) -0.0142(6) 0.027(3) Uani 1 1 d . . . . .
H29A H 0.985147 1.032433 0.000869 0.032 Uiso 1 1 calc R U . . .
C30 C 0.9397(10) 0.9724(7) -0.0774(6) 0.028(3) Uani 1 1 d . . . . .
H30A H 0.986349 0.990773 -0.105172 0.034 Uiso 1 1 calc R U . . .
C31 C 0.8719(10) 0.9214(8) -0.0994(6) 0.030(4) Uani 1 1 d . . . . .
H31A H 0.872707 0.904395 -0.142422 0.036 Uiso 1 1 calc R U . . .
C32 C 0.8027(10) 0.8945(7) -0.0596(5) 0.023(3) Uani 1 1 d . . . . .
H32A H 0.755021 0.860907 -0.075079 0.027 Uiso 1 1 calc R U . . .
C33 C 0.3295(9) 0.9516(7) 0.0297(5) 0.016(3) Uani 1 1 d . . . . .
C34 C 0.2653(9) 1.0060(7) 0.0548(6) 0.021(3) Uani 1 1 d . . . . .
H34A H 0.263993 1.017085 0.099009 0.026 Uiso 1 1 calc R U . . .
C35 C 0.2039(9) 1.0434(7) 0.0142(6) 0.022(3) Uani 1 1 d . . . . .
H35A H 0.161237 1.081170 0.030986 0.026 Uiso 1 1 calc R U . . .
C36 C 0.2031(10) 1.0273(7) -0.0494(6) 0.023(3) Uani 1 1 d . . . . .
H36A H 0.160033 1.052877 -0.076476 0.027 Uiso 1 1 calc R U . . .
C37 C 0.2670(9) 0.9724(7) -0.0738(6) 0.024(3) Uani 1 1 d . . . . .
H37A H 0.267380 0.960514 -0.117871 0.028 Uiso 1 1 calc R U . . .
C38 C 0.3290(9) 0.9356(7) -0.0345(6) 0.018(3) Uani 1 1 d . . . . .
H38A H 0.372088 0.898558 -0.051659 0.022 Uiso 1 1 calc R U . . .
C39 C 0.3500(9) 0.7460(7) 0.3213(5) 0.019(3) Uani 1 1 d . . . . .
C40 C 0.2828(8) 0.7963(7) 0.3442(5) 0.018(3) Uani 1 1 d . . . . .
H40A H 0.278604 0.850237 0.328793 0.022 Uiso 1 1 calc R U . . .
C41 C 0.2206(9) 0.7694(8) 0.3898(6) 0.025(3) Uani 1 1 d . . . . .
H41A H 0.178414 0.805956 0.408669 0.030 Uiso 1 1 calc R U . . .
C42 C 0.2219(9) 0.6873(8) 0.4072(6) 0.024(3) Uani 1 1 d . . . . .
H42A H 0.176677 0.666547 0.435146 0.029 Uiso 1 1 calc R U . . .
C43 C 0.2876(10) 0.6377(7) 0.3842(6) 0.026(3) Uani 1 1 d . . . . .
H43A H 0.289038 0.582692 0.397534 0.031 Uiso 1 1 calc R U . . .
C44 C 0.3532(10) 0.6652(7) 0.3414(6) 0.026(3) Uani 1 1 d . . . . .
H44A H 0.399294 0.629709 0.326199 0.031 Uiso 1 1 calc R U . . .
C45 C 0.6541(10) 0.9690(7) 0.2533(6) 0.027(4) Uani 1 1 d . . . . .
H45A H 0.664379 1.027632 0.255871 0.041 Uiso 1 1 calc R U . . .
H45B H 0.712560 0.941274 0.247055 0.041 Uiso 1 1 calc R U . . .
H45C H 0.625909 0.950059 0.292795 0.041 Uiso 1 1 calc R U . . .
C46 C 0.6080(9) 0.6898(7) 0.0686(5) 0.024(3) Uani 1 1 d . . . . .
H46A H 0.580422 0.639992 0.052059 0.036 Uiso 1 1 calc R U . . .
H46B H 0.672570 0.680073 0.078210 0.036 Uiso 1 1 calc R U . . .
H46C H 0.602890 0.732936 0.036876 0.036 Uiso 1 1 calc R U . . .
C47 C 0.9806(11) 0.9883(8) 0.3175(7) 0.031(4) Uani 1 1 d . . . . .
H47A H 0.979286 1.009084 0.359475 0.038 Uiso 1 1 calc R U . . .
C48 C 1.0562(10) 0.9477(8) 0.2956(6) 0.030(4) Uani 1 1 d . . . . .
H48A H 1.106508 0.940840 0.323511 0.036 Uiso 1 1 calc R U . . .
C49 C 1.0625(11) 0.9170(8) 0.2360(7) 0.033(4) Uani 1 1 d . . . . .
H49A H 1.116029 0.889559 0.222340 0.039 Uiso 1 1 calc R U . . .
C50 C 0.9876(12) 0.9270(8) 0.1953(7) 0.037(4) Uani 1 1 d . . . . .
H50A H 0.989490 0.905516 0.153545 0.044 Uiso 1 1 calc R U . . .
C51 C 0.9114(10) 0.9681(8) 0.2160(6) 0.027(3) Uani 1 1 d . . . . .
H51A H 0.861417 0.975974 0.187866 0.032 Uiso 1 1 calc R U . . .
C52 C 0.9064(11) 0.9985(7) 0.2777(7) 0.033(4) Uani 1 1 d . . . . .
H52A H 0.853044 1.025582 0.292052 0.040 Uiso 1 1 calc R U . . .
Cl1 Cl 0.3844(3) 1.02333(19) 0.26231(15) 0.0243(8) Uani 1 1 d . . . . .
O3 O 0.3029(7) 0.9843(5) 0.2390(4) 0.039(3) Uani 1 1 d . . . . .
O4 O 0.4328(7) 0.9672(5) 0.3016(4) 0.032(2) Uani 1 1 d . . . . .
O5 O 0.3579(7) 1.0932(5) 0.2980(4) 0.030(2) Uani 1 1 d . . . . .
O6 O 0.4406(7) 1.0468(5) 0.2089(4) 0.036(3) Uani 1 1 d . . . . .
H2A H 0.572(11) 0.709(9) 0.163(2) 0.06(5) Uiso 1 1 d D . . . .
H1A H 0.553(5) 0.983(5) 0.203(5) 0.01(4) Uiso 1 1 d D . . . .
loop_
_atom_site_aniso_label
_atom_site_aniso_U_11
_atom_site_aniso_U_22
_atom_site_aniso_U_33
_atom_site_aniso_U_23
_atom_site_aniso_U_13
_atom_site_aniso_U_12
Fe1 0.0155(11) 0.0143(9) 0.0150(9) 0.0001(7) -0.0001(9) 0.0000(9)
N1 0.006(5) 0.017(5) 0.011(5) 0.002(4) -0.003(5) 0.003(5)
N2 0.016(6) 0.019(5) 0.013(5) -0.003(4) 0.005(5) 0.007(5)
N3 0.012(6) 0.014(5) 0.015(5) 0.004(4) 0.001(5) 0.005(5)
N4 0.011(5) 0.016(4) 0.010(4) -0.001(4) 0.007(4) -0.003(4)
O1 0.019(6) 0.017(5) 0.019(5) -0.006(4) -0.002(4) 0.008(5)
O2 0.024(6) 0.020(5) 0.012(4) -0.006(4) 0.006(5) -0.003(4)
Br1 0.0237(8) 0.0279(7) 0.0155(6) -0.0015(6) 0.0019(6) 0.0019(6)
Br2 0.0221(8) 0.0295(7) 0.0166(6) -0.0008(6) -0.0037(7) 0.0016(6)
Br3 0.0242(8) 0.0314(7) 0.0235(7) 0.0029(6) 0.0019(7) 0.0111(7)
Br4 0.0222(8) 0.0236(7) 0.0248(7) 0.0023(6) 0.0090(7) 0.0039(6)
Br5 0.0266(9) 0.0257(7) 0.0261(7) 0.0086(6) -0.0005(7) -0.0042(7)
Br6 0.0287(9) 0.0198(7) 0.0375(8) 0.0077(6) -0.0032(7) 0.0010(7)
Br7 0.0208(8) 0.0322(7) 0.0233(7) 0.0049(6) -0.0075(7) -0.0053(7)
Br8 0.0225(8) 0.0269(7) 0.0214(6) 0.0015(6) -0.0018(7) -0.0084(7)
C1 0.016(7) 0.011(6) 0.014(6) 0.002(5) 0.002(6) 0.005(6)
C2 0.027(9) 0.009(6) 0.020(7) 0.003(5) 0.000(6) -0.005(6)
C3 0.019(8) 0.013(6) 0.018(6) 0.003(5) -0.002(6) 0.003(6)
C4 0.017(7) 0.014(6) 0.014(6) 0.004(5) -0.007(6) 0.002(6)
C5 0.012(7) 0.022(7) 0.023(7) -0.007(6) -0.004(6) -0.006(6)
C6 0.023(8) 0.012(6) 0.017(6) -0.005(5) -0.003(6) -0.008(6)
C7 0.006(7) 0.020(7) 0.027(7) -0.003(6) -0.002(6) -0.004(6)
C8 0.027(8) 0.014(6) 0.011(6) 0.001(5) 0.000(6) -0.010(6)
C9 0.028(8) 0.005(6) 0.013(6) 0.003(5) 0.007(6) 0.000(6)
C10 0.012(7) 0.014(6) 0.021(7) -0.005(5) 0.004(6) -0.002(6)
C11 0.022(8) 0.010(6) 0.006(6) 0.000(5) 0.000(6) -0.003(6)
C12 0.031(9) 0.017(7) 0.017(7) 0.006(6) 0.001(7) -0.011(7)
C13 0.017(8) 0.020(7) 0.024(7) 0.006(6) -0.004(7) 0.007(6)
C14 0.019(8) 0.017(6) 0.008(6) 0.000(5) 0.005(6) -0.002(6)
C15 0.021(8) 0.004(5) 0.008(6) -0.001(5) -0.003(6) 0.001(5)
C16 0.015(8) 0.021(7) 0.014(7) -0.011(5) -0.004(6) 0.004(6)
C17 0.016(8) 0.021(7) 0.017(6) -0.005(5) -0.002(6) -0.010(6)
C18 0.017(8) 0.017(6) 0.020(7) -0.002(5) 0.009(6) -0.002(6)
C19 0.021(8) 0.005(6) 0.021(6) 0.005(5) 0.003(6) 0.003(6)
C20 0.023(8) 0.004(6) 0.016(6) 0.002(5) -0.001(6) 0.000(6)
C21 0.004(6) 0.018(6) 0.011(5) 0.001(5) 0.002(5) -0.002(5)
C22 0.019(8) 0.010(6) 0.031(7) -0.004(6) 0.008(7) -0.002(6)
C23 0.030(9) 0.024(8) 0.028(8) 0.012(6) -0.007(8) -0.001(7)
C24 0.020(8) 0.034(9) 0.033(8) 0.002(7) -0.017(7) 0.011(7)
C25 0.028(9) 0.031(8) 0.035(8) -0.001(7) -0.006(7) 0.001(8)
C26 0.022(8) 0.020(7) 0.028(7) 0.005(6) 0.005(7) -0.008(7)
C27 0.016(7) 0.016(6) 0.020(7) 0.007(5) 0.005(7) 0.007(6)
C28 0.007(7) 0.026(7) 0.023(7) 0.004(6) 0.000(6) -0.002(6)
C29 0.029(9) 0.025(7) 0.026(7) 0.001(6) 0.009(7) -0.009(7)
C30 0.022(8) 0.027(8) 0.035(8) 0.018(7) 0.016(8) 0.008(7)
C31 0.034(10) 0.029(8) 0.027(8) 0.006(6) 0.003(8) 0.003(8)
C32 0.025(9) 0.022(7) 0.021(7) 0.006(6) -0.002(7) 0.006(7)
C33 0.017(7) 0.022(7) 0.010(6) 0.003(5) 0.000(6) -0.002(6)
C34 0.023(8) 0.025(7) 0.016(7) 0.002(6) -0.002(6) 0.002(7)
C35 0.009(7) 0.026(7) 0.030(8) 0.011(6) 0.009(7) -0.001(6)
C36 0.022(8) 0.021(7) 0.026(7) 0.013(6) -0.002(7) 0.000(6)
C37 0.025(8) 0.025(7) 0.021(7) 0.009(6) -0.003(7) -0.011(7)
C38 0.020(8) 0.012(6) 0.022(7) -0.008(5) -0.002(7) -0.008(6)
C39 0.024(8) 0.019(7) 0.015(6) -0.003(5) -0.006(6) -0.004(6)
C40 0.006(7) 0.025(7) 0.024(7) -0.002(6) -0.005(6) 0.003(6)
C41 0.017(8) 0.034(8) 0.023(7) -0.011(6) 0.003(7) 0.004(7)
C42 0.010(7) 0.043(9) 0.019(7) 0.012(6) -0.004(6) -0.015(7)
C43 0.041(10) 0.016(7) 0.021(7) 0.005(6) 0.000(8) -0.006(7)
C44 0.030(9) 0.020(7) 0.028(7) -0.009(6) -0.008(7) 0.004(7)
C45 0.037(10) 0.013(7) 0.032(8) -0.008(6) -0.002(8) -0.007(7)
C46 0.025(8) 0.022(7) 0.025(7) -0.010(6) 0.006(7) -0.004(6)
C47 0.042(10) 0.020(7) 0.032(8) -0.005(6) 0.010(8) -0.005(7)
C48 0.025(9) 0.031(8) 0.035(9) 0.008(7) -0.011(8) -0.011(8)
C49 0.030(9) 0.029(8) 0.039(9) 0.003(7) 0.003(8) -0.006(8)
C50 0.054(12) 0.031(9) 0.025(8) -0.006(7) 0.007(9) -0.007(8)
C51 0.017(8) 0.027(8) 0.035(8) 0.010(7) -0.001(7) -0.013(7)
C52 0.038(11) 0.017(7) 0.044(9) -0.002(7) 0.014(9) 0.002(7)
Cl1 0.028(2) 0.0244(18) 0.0203(17) -0.0008(14) 0.0001(17) 0.0054(16)
O3 0.025(6) 0.032(5) 0.060(7) -0.010(5) -0.013(6) 0.003(5)
O4 0.039(6) 0.026(5) 0.030(5) -0.007(4) -0.010(5) 0.004(5)
O5 0.041(7) 0.017(4) 0.032(5) -0.007(4) 0.007(5) 0.007(5)
O6 0.045(7) 0.031(5) 0.031(5) 0.006(4) 0.013(6) 0.008(5)
loop_
_atom_type_symbol
_atom_type_description
_atom_type_scat_dispersion_real
_atom_type_scat_dispersion_imag
_atom_type_scat_source
C C 0.0033 0.0016 'International Tables Vol C Tables 4.2.6.8 and 6.1.1.4'
H H 0.0000 0.0000 'International Tables Vol C Tables 4.2.6.8 and 6.1.1.4'
N N 0.0061 0.0033 'International Tables Vol C Tables 4.2.6.8 and 6.1.1.4'
O O 0.0106 0.0060 'International Tables Vol C Tables 4.2.6.8 and 6.1.1.4'
Cl Cl 0.1484 0.1585 'International Tables Vol C Tables 4.2.6.8 and 6.1.1.4'
Fe Fe 0.3463 0.8444 'International Tables Vol C Tables 4.2.6.8 and 6.1.1.4'
Br Br -0.2901 2.4595 'International Tables Vol C Tables 4.2.6.8 and 6.1.1.4'
loop_
_geom_angle_atom_site_label_1
_geom_angle_atom_site_label_2
_geom_angle_atom_site_label_3
_geom_angle
_geom_angle_site_symmetry_1
_geom_angle_site_symmetry_3
_geom_angle_publ_flag
N4 Fe1 N2 177.8(4) . . ?
N4 Fe1 N1 90.3(4) . . ?
N2 Fe1 N1 89.4(4) . . ?
N4 Fe1 N3 89.4(4) . . ?
N2 Fe1 N3 90.9(4) . . ?
N1 Fe1 N3 178.2(4) . . ?
N4 Fe1 O1 93.1(4) . . ?
N2 Fe1 O1 89.0(4) . . ?
N1 Fe1 O1 91.9(3) . . ?
N3 Fe1 O1 86.3(3) . . ?
N4 Fe1 O2 89.2(3) . . ?
N2 Fe1 O2 88.7(4) . . ?
N1 Fe1 O2 86.8(3) . . ?
N3 Fe1 O2 95.0(3) . . ?
O1 Fe1 O2 177.3(4) . . ?
C1 N1 C4 108.0(9) . . ?
C1 N1 Fe1 123.1(7) . . ?
C4 N1 Fe1 125.7(7) . . ?
C9 N2 C6 107.0(10) . . ?
C9 N2 Fe1 123.2(8) . . ?
C6 N2 Fe1 125.3(8) . . ?
C14 N3 C11 107.2(8) . . ?
C14 N3 Fe1 123.0(8) . . ?
C11 N3 Fe1 122.8(8) . . ?
C19 N4 C16 107.0(10) . . ?
C19 N4 Fe1 123.3(8) . . ?
C16 N4 Fe1 124.5(7) . . ?
C45 O1 Fe1 124.0(7) . . ?
C46 O2 Fe1 121.1(7) . . ?
N1 C1 C20 124.6(10) . . ?
N1 C1 C2 108.4(11) . . ?
C20 C1 C2 126.6(11) . . ?
C3 C2 C1 108.1(11) . . ?
C3 C2 Br1 122.7(9) . . ?
C1 C2 Br1 128.7(10) . . ?
C2 C3 C4 107.4(11) . . ?
C2 C3 Br2 123.3(9) . . ?
C4 C3 Br2 129.2(10) . . ?
C5 C4 N1 123.0(10) . . ?
C5 C4 C3 129.1(11) . . ?
N1 C4 C3 107.8(10) . . ?
C4 C5 C6 124.4(12) . . ?
C4 C5 C21 118.2(10) . . ?
C6 C5 C21 117.4(11) . . ?
N2 C6 C5 123.1(11) . . ?
N2 C6 C7 109.3(10) . . ?
C5 C6 C7 127.4(12) . . ?
C8 C7 C6 108.2(11) . . ?
C8 C7 Br3 122.0(10) . . ?
C6 C7 Br3 129.6(9) . . ?
C7 C8 C9 107.1(11) . . ?
C7 C8 Br4 123.8(10) . . ?
C9 C8 Br4 128.8(8) . . ?
N2 C9 C10 124.7(11) . . ?
N2 C9 C8 108.3(10) . . ?
C10 C9 C8 126.8(11) . . ?
C11 C10 C9 123.5(11) . . ?
C11 C10 C27 120.1(10) . . ?
C9 C10 C27 116.3(11) . . ?
C10 C11 N3 124.9(10) . . ?
C10 C11 C12 127.7(11) . . ?
N3 C11 C12 107.3(11) . . ?
C13 C12 C11 108.1(11) . . ?
C13 C12 Br5 122.5(10) . . ?
C11 C12 Br5 129.0(10) . . ?
C12 C13 C14 108.3(11) . . ?
C12 C13 Br6 122.8(10) . . ?
C14 C13 Br6 127.9(10) . . ?
N3 C14 C15 123.9(10) . . ?
N3 C14 C13 109.0(10) . . ?
C15 C14 C13 126.7(11) . . ?
C16 C15 C14 122.4(11) . . ?
C16 C15 C33 120.8(11) . . ?
C14 C15 C33 116.7(10) . . ?
C15 C16 N4 123.4(11) . . ?
C15 C16 C17 129.2(12) . . ?
N4 C16 C17 107.2(10) . . ?
C18 C17 C16 108.4(11) . . ?
C18 C17 Br7 124.3(10) . . ?
C16 C17 Br7 127.2(9) . . ?
C17 C18 C19 109.6(11) . . ?
C17 C18 Br8 122.3(10) . . ?
C19 C18 Br8 127.7(9) . . ?
C20 C19 N4 122.2(11) . . ?
C20 C19 C18 129.8(11) . . ?
N4 C19 C18 107.6(9) . . ?
C19 C20 C1 124.5(12) . . ?
C19 C20 C39 117.4(11) . . ?
C1 C20 C39 118.2(10) . . ?
C22 C21 C26 118.2(11) . . ?
C22 C21 C5 121.7(11) . . ?
C26 C21 C5 120.1(10) . . ?
C23 C22 C21 120.7(12) . . ?
C22 C23 C24 120.7(12) . . ?
C25 C24 C23 119.4(13) . . ?
C24 C25 C26 121.4(14) . . ?
C25 C26 C21 119.4(12) . . ?
C28 C27 C32 120.5(12) . . ?
C28 C27 C10 119.8(11) . . ?
C32 C27 C10 119.7(11) . . ?
C29 C28 C27 120.2(12) . . ?
C28 C29 C30 120.7(13) . . ?
C31 C30 C29 119.6(13) . . ?
C30 C31 C32 121.0(13) . . ?
C31 C32 C27 118.0(13) . . ?
C38 C33 C34 119.3(12) . . ?
C38 C33 C15 120.6(11) . . ?
C34 C33 C15 120.0(10) . . ?
C35 C34 C33 119.1(11) . . ?
C36 C35 C34 121.6(12) . . ?
C35 C36 C37 118.8(12) . . ?
C38 C37 C36 120.4(12) . . ?
C37 C38 C33 120.9(12) . . ?
C40 C39 C44 119.4(12) . . ?
C40 C39 C20 121.1(11) . . ?
C44 C39 C20 119.4(12) . . ?
C39 C40 C41 121.2(12) . . ?
C40 C41 C42 118.5(12) . . ?
C43 C42 C41 120.0(12) . . ?
C42 C43 C44 121.7(12) . . ?
C43 C44 C39 118.9(12) . . ?
C48 C47 C52 119.2(13) . . ?
C49 C48 C47 123.2(14) . . ?
C48 C49 C50 118.0(14) . . ?
C51 C50 C49 119.9(13) . . ?
C50 C51 C52 120.9(14) . . ?
C47 C52 C51 118.8(14) . . ?
O5 Cl1 O4 110.5(5) . . ?
O5 Cl1 O3 108.4(6) . . ?
O4 Cl1 O3 108.6(6) . . ?
O5 Cl1 O6 110.4(5) . . ?
O4 Cl1 O6 110.0(6) . . ?
O3 Cl1 O6 108.9(6) . . ?
loop_
_geom_bond_atom_site_label_1
_geom_bond_atom_site_label_2
_geom_bond_distance
_geom_bond_site_symmetry_2
_geom_bond_publ_flag
Fe1 N4 2.020(10) . ?
Fe1 N2 2.032(10) . ?
Fe1 N1 2.036(9) . ?
Fe1 N3 2.041(9) . ?
Fe1 O1 2.109(8) . ?
Fe1 O2 2.149(8) . ?
N1 C1 1.372(14) . ?
N1 C4 1.410(14) . ?
N2 C9 1.387(14) . ?
N2 C6 1.395(14) . ?
N3 C14 1.383(14) . ?
N3 C11 1.398(14) . ?
N4 C19 1.419(14) . ?
N4 C16 1.420(14) . ?
O1 C45 1.442(14) . ?
O2 C46 1.438(13) . ?
Br1 C2 1.884(12) . ?
Br2 C3 1.865(12) . ?
Br3 C7 1.872(12) . ?
Br4 C8 1.872(12) . ?
Br5 C12 1.884(12) . ?
Br6 C13 1.880(12) . ?
Br7 C17 1.875(12) . ?
Br8 C18 1.888(12) . ?
C1 C20 1.389(16) . ?
C1 C2 1.448(15) . ?
C2 C3 1.368(17) . ?
C3 C4 1.448(15) . ?
C4 C5 1.405(16) . ?
C5 C6 1.416(16) . ?
C5 C21 1.481(15) . ?
C6 C7 1.420(16) . ?
C7 C8 1.364(15) . ?
C8 C9 1.462(17) . ?
C9 C10 1.411(15) . ?
C10 C11 1.383(16) . ?
C10 C27 1.512(16) . ?
C11 C12 1.460(15) . ?
C12 C13 1.334(17) . ?
C13 C14 1.432(16) . ?
C14 C15 1.421(16) . ?
C15 C16 1.381(16) . ?
C15 C33 1.492(15) . ?
C16 C17 1.463(17) . ?
C17 C18 1.338(15) . ?
C18 C19 1.439(16) . ?
C19 C20 1.384(15) . ?
C20 C39 1.505(16) . ?
C21 C22 1.396(15) . ?
C21 C26 1.403(16) . ?
C22 C23 1.372(17) . ?
C23 C24 1.377(18) . ?
C24 C25 1.362(17) . ?
C25 C26 1.387(17) . ?
C27 C28 1.371(16) . ?
C27 C32 1.423(15) . ?
C28 C29 1.370(16) . ?
C29 C30 1.392(17) . ?
C30 C31 1.381(18) . ?
C31 C32 1.388(17) . ?
C33 C38 1.380(16) . ?
C33 C34 1.403(16) . ?
C34 C35 1.387(16) . ?
C35 C36 1.367(16) . ?
C36 C37 1.400(17) . ?
C37 C38 1.371(16) . ?
C39 C40 1.374(16) . ?
C39 C44 1.399(16) . ?
C40 C41 1.396(16) . ?
C41 C42 1.404(16) . ?
C42 C43 1.352(17) . ?
C43 C44 1.393(17) . ?
C47 C48 1.372(19) . ?
C47 C52 1.383(19) . ?
C48 C49 1.359(18) . ?
C49 C50 1.402(19) . ?
C50 C51 1.377(19) . ?
C51 C52 1.396(18) . ?
Cl1 O5 1.430(8) . ?
Cl1 O4 1.431(9) . ?
Cl1 O3 1.441(10) . ?
Cl1 O6 1.448(9) . ?
