#------------------------------------------------------------------------------
#$Date: 2016-02-18 14:25:00 +0200 (Thu, 18 Feb 2016) $
#$Revision: 176728 $
#$URL: svn://www.crystallography.net/cod/cif/8/10/19/8101904.cif $
#------------------------------------------------------------------------------
#
# This file is available in the Crystallography Open Database (COD),
# http://www.crystallography.net/
#
# All data on this site have been placed in the public domain by the
# contributors.
#
data_8101904
loop_
_publ_author_name
'Zeller, M.'
'DiMuzio, S. J.'
'Bee, K.'
'Clemente, J.'
'Frederick, J.'
'Fucci, A.'
'Gordon, L.'
'Harper, A.'
'Kasmar, A.'
'Kasmar, C.'
'Polomsky, S.'
'Simmons, A.'
'Smallsreed,  D.'
'Underwood, T.'
'Hunter, A. D.'
_publ_section_title
;
Crystal structures of the methylene chloride disolvates of tetrakis
(3,5-dimethoxyphenyl)porphyrin and its isotypic copper(II) and nickel(II) 
complexes, C~52~H~46~N~4~O~8~ &#x00B7; ~2~CH~2~Cl~2~, 
Cu(C~52~H~44~N~4~O~8~) &#x00B7; ~2~CH~2~Cl~2~, 
Ni(C~52~H~44~N~4~O~8~) &#x00B7; ~2~CH~2~Cl~2~
;
_journal_issue                   1
_journal_name_full
'Zeitschrift f\"ur Kristallographie - New Crystal Structures'
_journal_page_first              15
_journal_page_last               19
_journal_volume                  221
_journal_year                    2006
_chemical_formula_moiety         'C52 H44 N4 Ni O8, 2(C0.98 H1.96 Cl1.96)'
_chemical_formula_sum            'C53.96 H47.92 Cl3.92 N4 Ni O8'
_chemical_formula_weight         1077.89
_chemical_name_systematic
;tetrakis(3,5-dimethoxyphenyl)porphyrin-nickel(II) methylene chloride
 disolvate
;
_space_group_IT_number           2
_symmetry_cell_setting           triclinic
_symmetry_space_group_name_Hall  '-P 1'
_symmetry_space_group_name_H-M   'P -1'
_atom_sites_solution_hydrogens   geom
_atom_sites_solution_primary     direct
_atom_sites_solution_secondary   difmap
_audit_creation_method           SHELXL-97
_cell_angle_alpha                109.486(2)
_cell_angle_beta                 101.230(2)
_cell_angle_gamma                110.607(2)
_cell_formula_units_Z            1
_cell_length_a                   11.1964(13)
_cell_length_b                   11.3288(14)
_cell_length_c                   11.7848(14)
_cell_measurement_reflns_used    5782
_cell_measurement_temperature    100(2)
_cell_measurement_theta_max      30.46
_cell_measurement_theta_min      2.30
_cell_volume                     1233.7(3)
_computing_cell_refinement       'SAINT+ 6.45 [6]'
_computing_data_collection       'SMART 5.630 [5]'
_computing_data_reduction        'SAINT+ 6.45 [6]'
_computing_molecular_graphics    'SHELXTL 6.10 [7]'
_computing_publication_material  'SHELXTL 6.10 [7]'
_computing_structure_refinement  'SHELXTL 6.10 [7]'
_computing_structure_solution    'SHELXTL 6.10 [7]'
_diffrn_ambient_temperature      100(2)
_diffrn_measured_fraction_theta_full 0.992
_diffrn_measured_fraction_theta_max 0.992
_diffrn_measurement_device_type  'Bruker AXS SMART APEX CCD'
_diffrn_measurement_method       phi/omega
_diffrn_radiation_monochromator  graphite
_diffrn_radiation_source         'fine-focus sealed tube'
_diffrn_radiation_type           MoK\a
_diffrn_radiation_wavelength     0.71073
_diffrn_reflns_av_R_equivalents  0.0231
_diffrn_reflns_av_sigmaI/netI    0.0296
_diffrn_reflns_limit_h_max       14
_diffrn_reflns_limit_h_min       -14
_diffrn_reflns_limit_k_max       15
_diffrn_reflns_limit_k_min       -15
_diffrn_reflns_limit_l_max       15
_diffrn_reflns_limit_l_min       -15
_diffrn_reflns_number            12672
_diffrn_reflns_theta_full        28.28
_diffrn_reflns_theta_max         28.28
_diffrn_reflns_theta_min         1.96
_diffrn_standards_decay_%        none
_diffrn_standards_number         0
_exptl_absorpt_coefficient_mu    0.666
_exptl_absorpt_correction_T_max  0.77
_exptl_absorpt_correction_T_min  0.60389
_exptl_absorpt_correction_type   multi-scan
_exptl_absorpt_process_details   'SADABS in SAINT+ [6]'
_exptl_crystal_colour            black
_exptl_crystal_density_diffrn    1.451
_exptl_crystal_density_method    'not measured'
_exptl_crystal_description       block
_exptl_crystal_F_000             558.2
_exptl_crystal_size_max          0.55
_exptl_crystal_size_mid          0.41
_exptl_crystal_size_min          0.38
_refine_diff_density_max         0.798
_refine_diff_density_min         -0.584
_refine_diff_density_rms         0.073
_refine_ls_extinction_method     none
_refine_ls_goodness_of_fit_ref   1.057
_refine_ls_hydrogen_treatment    constr
_refine_ls_matrix_type           full
_refine_ls_number_parameters     383
_refine_ls_number_reflns         6071
_refine_ls_number_restraints     16
_refine_ls_restrained_S_all      1.057
_refine_ls_R_factor_all          0.0420
_refine_ls_R_factor_gt           0.0396
_refine_ls_shift/su_max          0.000
_refine_ls_shift/su_mean         0.000
_refine_ls_structure_factor_coef Fsqd
_refine_ls_weighting_details
'calc w=1/[\s^2^(Fo^2^)+(0.0653P)^2^+0.5018P] where P=(Fo^2^+2Fc^2^)/3'
_refine_ls_weighting_scheme      calc
_refine_ls_wR_factor_gt          0.1074
_refine_ls_wR_factor_ref         0.1096
_reflns_number_gt                5640
_reflns_number_total             6071
_reflns_threshold_expression     I>2sigma(I)
_cod_data_source_file            1267-1695.cff
_cod_data_source_block           III
_cod_depositor_comments
;
The following automatic conversions were performed:
'_symmetry_cell_setting' value 'Triclinic' changed to 'triclinic'
according to '/home/saulius/struct/CIF-dictionaries/cif_core.dic'
dictionary named 'cif_core.dic' version 2.4.1 from 2010-06-29.

Automatic conversion script
Id: cif_fix_enum 1555 2011-01-17 13:19:09Z saulius 
;
_cod_original_sg_symbol_H-M      P-1
_cod_database_code               8101904
loop_
_symmetry_equiv_pos_as_xyz
'x, y, z'
'-x, -y, -z'
loop_
_atom_site_label
_atom_site_type_symbol
_atom_site_fract_x
_atom_site_fract_y
_atom_site_fract_z
_atom_site_U_iso_or_equiv
_atom_site_adp_type
_atom_site_occupancy
_atom_site_symmetry_multiplicity
_atom_site_Wyckoff_symbol
_atom_site_calc_flag
_atom_site_refinement_flags
_atom_site_disorder_assembly
_atom_site_disorder_group
C1 C -0.13176(14) 0.18785(14) 0.08129(13) 0.0198(3) Uani 1 2 i d . . .
C2 C -0.12670(17) 0.29522(16) 0.19247(14) 0.0249(3) Uani 1 2 i d . . .
H2 H -0.1807 0.3439 0.1939 0.030 Uiso 1 2 i calc R . .
C3 C -0.03056(16) 0.31379(16) 0.29466(14) 0.0241(3) Uani 1 2 i d . . .
H3 H -0.0034 0.3786 0.3817 0.029 Uiso 1 2 i calc R . .
C4 C 0.02268(14) 0.21700(15) 0.24680(13) 0.0197(3) Uani 1 2 i d . . .
C5 C 0.12303(14) 0.20546(15) 0.32469(13) 0.0199(3) Uani 1 2 i d . . .
C6 C 0.17413(14) 0.11247(16) 0.27621(13) 0.0213(3) Uani 1 2 i d . . .
C7 C 0.27659(15) 0.09717(17) 0.35586(14) 0.0254(3) Uani 1 2 i d . . .
H7 H 0.3172 0.1453 0.4470 0.031 Uiso 1 2 i calc R . .
C8 C 0.30427(15) 0.00142(17) 0.27667(14) 0.0246(3) Uani 1 2 i d . . .
H8 H 0.3685 -0.0305 0.3013 0.030 Uiso 1 2 i calc R . .
C9 C 0.21822(14) -0.04305(15) 0.14822(13) 0.0202(3) Uani 1 2 i d . . .
C10 C 0.21804(14) -0.14266(15) 0.04152(13) 0.0194(3) Uani 1 2 i d . . .
C11 C 0.18256(14) 0.29939(16) 0.46594(13) 0.0205(3) Uani 1 2 i d . . .
C12 C 0.10592(14) 0.27793(15) 0.54434(13) 0.0204(3) Uani 1 2 i d . . .
H12 H 0.0155 0.2044 0.5089 0.025 Uiso 1 2 i calc R . .
C13 C 0.16522(15) 0.36674(15) 0.67509(13) 0.0198(3) Uani 1 2 i d . . .
C14 C 0.29745(15) 0.47608(14) 0.72874(13) 0.0193(3) Uani 1 2 i d . . .
H14 H 0.3367 0.5357 0.8186 0.023 Uiso 1 2 i calc R . .
C15 C 0.37051(14) 0.49633(15) 0.64903(13) 0.0197(3) Uani 1 2 i d . . .
C16 C 0.31323(15) 0.40660(16) 0.51681(14) 0.0229(3) Uani 1 2 i d . . .
H16 H 0.3643 0.4197 0.4626 0.028 Uiso 1 2 i calc R . .
C17 C -0.03428(19) 0.2482(2) 0.71263(18) 0.0398(4) Uani 1 2 i d . . .
H17A H -0.0916 0.2611 0.6482 0.060 Uiso 1 2 i calc R . .
H17B H -0.0695 0.2527 0.7831 0.060 Uiso 1 2 i calc R . .
H17C H -0.0355 0.1566 0.6727 0.060 Uiso 1 2 i calc R . .
C18 C 0.55468(17) 0.70372(15) 0.82036(14) 0.0266(3) Uani 1 2 i d . . .
H18A H 0.4948 0.7478 0.8376 0.040 Uiso 1 2 i calc R . .
H18B H 0.6450 0.7754 0.8369 0.040 Uiso 1 2 i calc R . .
H18C H 0.5631 0.6579 0.8767 0.040 Uiso 1 2 i calc R . .
C21 C 0.31338(15) -0.20488(15) 0.06234(13) 0.0197(3) Uani 1 2 i d . . .
C22 C 0.45039(15) -0.12942(15) 0.08802(14) 0.0212(3) Uani 1 2 i d . . .
H22 H 0.4838 -0.0402 0.0873 0.025 Uiso 1 2 i calc R . .
C23 C 0.54009(15) -0.18502(15) 0.11524(14) 0.0213(3) Uani 1 2 i d . . .
C24 C 0.49192(15) -0.31483(15) 0.11686(14) 0.0224(3) Uani 1 2 i d . . .
H24 H 0.5528 -0.3521 0.1363 0.027 Uiso 1 2 i calc R . .
C25 C 0.35281(16) -0.38991(15) 0.08951(14) 0.0229(3) Uani 1 2 i d . . .
C26 C 0.26250(15) -0.33710(15) 0.06137(14) 0.0221(3) Uani 1 2 i d . . .
H26 H 0.1677 -0.3898 0.0418 0.027 Uiso 1 2 i calc R . .
C27 C 0.77004(17) -0.14792(18) 0.18239(18) 0.0315(4) Uani 1 2 i d . . .
H27A H 0.7658 -0.1536 0.2628 0.047 Uiso 1 2 i calc R . .
H27B H 0.8619 -0.0802 0.1975 0.047 Uiso 1 2 i calc R . .
H27C H 0.7489 -0.2404 0.1173 0.047 Uiso 1 2 i calc R . .
C28 C 0.17892(19) -0.59076(19) 0.08309(19) 0.0367(4) Uani 1 2 i d . . .
H28A H 0.1581 -0.5316 0.1504 0.055 Uiso 1 2 i calc R . .
H28B H 0.1671 -0.6763 0.0928 0.055 Uiso 1 2 i calc R . .
H28C H 0.1171 -0.6157 -0.0016 0.055 Uiso 1 2 i calc R . .
C31A C 0.6629(15) 0.2522(13) 0.4606(12) 0.047(2) Uani 0.483(9) 2 i d PD A 1
H31A H 0.5891 0.2420 0.3906 0.057 Uiso 0.483(9) 2 i calc PR A 1
H31B H 0.7483 0.3318 0.4756 0.057 Uiso 0.483(9) 2 i calc PR A 1
C31B C 0.644(2) 0.2750(17) 0.4743(17) 0.033(4) Uani 0.247(11) 2 i d PD B 2
H31C H 0.5621 0.2703 0.4192 0.039 Uiso 0.247(11) 2 i calc PR B 2
H31D H 0.7204 0.3691 0.5040 0.039 Uiso 0.247(11) 2 i calc PR B 2
C31C C 0.6387(14) 0.3124(11) 0.5177(10) 0.031(3) Uani 0.249(5) 2 i d PD C 3
H31E H 0.7031 0.4081 0.5854 0.037 Uiso 0.249(5) 2 i calc PR C 3
H31F H 0.5585 0.3173 0.4704 0.037 Uiso 0.249(5) 2 i calc PR C 3
Cl1A Cl 0.6235(4) 0.2886(4) 0.6007(4) 0.0574(11) Uani 0.483(9) 2 i d PD A 1
Cl2A Cl 0.68267(19) 0.0998(3) 0.4131(4) 0.0584(9) Uani 0.483(9) 2 i d PD A 1
Cl1B Cl 0.6140(14) 0.253(2) 0.6073(11) 0.094(5) Uani 0.247(11) 2 i d PD B 2
Cl2B Cl 0.6836(3) 0.1508(12) 0.3855(3) 0.056(3) Uani 0.247(11) 2 i d PD B 2
Cl1C Cl 0.5865(6) 0.2034(7) 0.5894(6) 0.0431(13) Uani 0.249(5) 2 i d PD C 3
Cl2C Cl 0.7175(5) 0.2574(8) 0.4113(5) 0.0673(18) Uani 0.249(5) 2 i d PD C 3
N1 N -0.03909(12) 0.13987(12) 0.11458(11) 0.0182(2) Uani 1 2 i d . . .
N2 N 0.13632(12) 0.02410(13) 0.14750(11) 0.0191(2) Uani 1 2 i d . . .
Ni1 Ni 0.0000 0.0000 0.0000 0.01642(9) Uani 1 1 a d S . .
O1 O 0.10192(12) 0.35606(12) 0.76189(10) 0.0274(2) Uani 1 2 i d . . .
O2 O 0.49790(11) 0.60170(11) 0.68911(10) 0.0248(2) Uani 1 2 i d . . .
O3 O 0.67306(11) -0.10359(12) 0.13810(12) 0.0284(2) Uani 1 2 i d . . .
O4 O 0.31620(13) -0.51610(12) 0.09422(13) 0.0324(3) Uani 1 2 i d . . .
loop_
_atom_site_aniso_label
_atom_site_aniso_U_11
_atom_site_aniso_U_22
_atom_site_aniso_U_33
_atom_site_aniso_U_23
_atom_site_aniso_U_13
_atom_site_aniso_U_12
C1 0.0212(6) 0.0185(6) 0.0182(6) 0.0051(5) 0.0090(5) 0.0093(5)
C2 0.0326(8) 0.0247(7) 0.0169(6) 0.0046(5) 0.0083(6) 0.0171(6)
C3 0.0304(8) 0.0239(7) 0.0162(6) 0.0039(5) 0.0083(6) 0.0149(6)
C4 0.0205(6) 0.0203(6) 0.0147(6) 0.0039(5) 0.0078(5) 0.0081(5)
C5 0.0164(6) 0.0233(7) 0.0135(6) 0.0027(5) 0.0064(5) 0.0066(5)
C6 0.0160(6) 0.0269(7) 0.0147(6) 0.0033(5) 0.0054(5) 0.0085(5)
C7 0.0207(7) 0.0342(8) 0.0151(6) 0.0032(6) 0.0048(5) 0.0138(6)
C8 0.0197(7) 0.0325(8) 0.0164(6) 0.0040(6) 0.0048(5) 0.0133(6)
C9 0.0167(6) 0.0246(7) 0.0162(6) 0.0054(5) 0.0064(5) 0.0089(5)
C10 0.0184(6) 0.0209(6) 0.0179(6) 0.0066(5) 0.0080(5) 0.0089(5)
C11 0.0194(6) 0.0266(7) 0.0132(6) 0.0034(5) 0.0064(5) 0.0126(6)
C12 0.0185(6) 0.0257(7) 0.0175(6) 0.0074(5) 0.0072(5) 0.0119(5)
C13 0.0253(7) 0.0259(7) 0.0169(6) 0.0100(5) 0.0119(5) 0.0178(6)
C14 0.0270(7) 0.0204(6) 0.0130(6) 0.0050(5) 0.0076(5) 0.0153(6)
C15 0.0201(6) 0.0207(6) 0.0163(6) 0.0039(5) 0.0057(5) 0.0113(5)
C16 0.0206(7) 0.0287(7) 0.0150(6) 0.0032(5) 0.0086(5) 0.0113(6)
C17 0.0300(9) 0.0596(12) 0.0289(9) 0.0198(8) 0.0183(7) 0.0147(8)
C18 0.0355(8) 0.0185(7) 0.0150(6) 0.0029(5) 0.0035(6) 0.0079(6)
C21 0.0226(7) 0.0228(7) 0.0130(6) 0.0050(5) 0.0073(5) 0.0118(5)
C22 0.0238(7) 0.0215(7) 0.0212(7) 0.0107(5) 0.0086(5) 0.0117(6)
C23 0.0209(7) 0.0228(7) 0.0205(6) 0.0101(5) 0.0070(5) 0.0099(6)
C24 0.0267(7) 0.0226(7) 0.0216(7) 0.0106(5) 0.0091(6) 0.0138(6)
C25 0.0298(8) 0.0196(6) 0.0205(7) 0.0086(5) 0.0114(6) 0.0112(6)
C26 0.0224(7) 0.0216(7) 0.0194(6) 0.0054(5) 0.0098(5) 0.0088(5)
C27 0.0229(7) 0.0325(8) 0.0439(10) 0.0201(7) 0.0092(7) 0.0157(7)
C28 0.0389(9) 0.0271(8) 0.0391(10) 0.0150(7) 0.0198(8) 0.0061(7)
C31A 0.040(5) 0.065(5) 0.055(4) 0.039(3) 0.015(3) 0.033(3)
C31B 0.016(5) 0.041(9) 0.056(11) 0.037(9) 0.009(6) 0.015(6)
C31C 0.037(5) 0.036(5) 0.019(5) 0.007(4) 0.012(3) 0.018(4)
Cl1A 0.0455(11) 0.0646(15) 0.0333(15) -0.0065(11) 0.0004(9) 0.0281(11)
Cl2A 0.0460(7) 0.0600(12) 0.0364(12) -0.0117(7) -0.0079(6) 0.0322(7)
Cl1B 0.091(6) 0.204(12) 0.028(3) 0.041(5) 0.033(4) 0.112(8)
Cl2B 0.0263(11) 0.101(6) 0.0237(11) 0.0115(17) 0.0077(8) 0.0259(17)
Cl1C 0.0348(13) 0.074(3) 0.039(2) 0.046(2) 0.0131(12) 0.0247(15)
Cl2C 0.075(2) 0.138(5) 0.072(2) 0.081(3) 0.059(2) 0.085(3)
N1 0.0173(5) 0.0195(5) 0.0143(5) 0.0044(4) 0.0063(4) 0.0072(4)
N2 0.0152(5) 0.0229(6) 0.0138(5) 0.0028(4) 0.0058(4) 0.0078(4)
Ni1 0.01429(13) 0.01924(14) 0.01194(13) 0.00268(9) 0.00548(9) 0.00705(10)
O1 0.0328(6) 0.0329(6) 0.0193(5) 0.0109(4) 0.0158(5) 0.0148(5)
O2 0.0238(5) 0.0238(5) 0.0153(5) 0.0010(4) 0.0053(4) 0.0066(4)
O3 0.0197(5) 0.0267(6) 0.0432(7) 0.0200(5) 0.0094(5) 0.0115(4)
O4 0.0355(6) 0.0225(5) 0.0432(7) 0.0182(5) 0.0181(5) 0.0114(5)
loop_
_atom_type_symbol
_atom_type_description
_atom_type_scat_dispersion_real
_atom_type_scat_dispersion_imag
_atom_type_scat_source
C C 0.0033 0.0016 'International Tables Vol C Tables 4.2.6.8 and 6.1.1.4'
H H 0.0000 0.0000 'International Tables Vol C Tables 4.2.6.8 and 6.1.1.4'
N N 0.0061 0.0033 'International Tables Vol C Tables 4.2.6.8 and 6.1.1.4'
O O 0.0106 0.0060 'International Tables Vol C Tables 4.2.6.8 and 6.1.1.4'
Cl Cl 0.1484 0.1585 'International Tables Vol C Tables 4.2.6.8 and 6.1.1.4'
Ni Ni 0.3393 1.1124 'International Tables Vol C Tables 4.2.6.8 and 6.1.1.4'
loop_
_geom_angle_atom_site_label_1
_geom_angle_atom_site_label_2
_geom_angle_atom_site_label_3
_geom_angle
_geom_angle_site_symmetry_1
_geom_angle_site_symmetry_3
_geom_angle_publ_flag
C10 C1 N1 125.97(13) 2 . ?
C10 C1 C2 122.95(13) 2 . ?
N1 C1 C2 111.07(12) . . ?
C3 C2 C1 106.85(13) . . ?
C3 C2 H2 126.6 . . ?
C1 C2 H2 126.6 . . ?
C2 C3 C4 106.88(13) . . ?
C2 C3 H3 126.6 . . ?
C4 C3 H3 126.6 . . ?
C5 C4 N1 125.72(13) . . ?
C5 C4 C3 123.26(13) . . ?
N1 C4 C3 111.02(12) . . ?
C4 C5 C6 122.29(13) . . ?
C4 C5 C11 119.35(13) . . ?
C6 C5 C11 118.33(13) . . ?
C5 C6 N2 125.81(13) . . ?
C5 C6 C7 123.08(13) . . ?
N2 C6 C7 111.10(12) . . ?
C8 C7 C6 106.90(13) . . ?
C8 C7 H7 126.6 . . ?
C6 C7 H7 126.6 . . ?
C7 C8 C9 106.82(13) . . ?
C7 C8 H8 126.6 . . ?
C9 C8 H8 126.6 . . ?
C10 C9 N2 125.87(13) . . ?
C10 C9 C8 122.85(13) . . ?
N2 C9 C8 111.27(12) . . ?
C1 C10 C9 122.35(13) 2 . ?
C1 C10 C21 119.74(12) 2 . ?
C9 C10 C21 117.90(12) . . ?
C16 C11 C12 121.00(13) . . ?
C16 C11 C5 118.85(13) . . ?
C12 C11 C5 120.14(13) . . ?
C13 C12 C11 118.37(13) . . ?
C13 C12 H12 120.8 . . ?
C11 C12 H12 120.8 . . ?
O1 C13 C12 124.08(14) . . ?
O1 C13 C14 114.31(12) . . ?
C12 C13 C14 121.61(13) . . ?
C15 C14 C13 118.95(13) . . ?
C15 C14 H14 120.5 . . ?
C13 C14 H14 120.5 . . ?
O2 C15 C14 124.38(13) . . ?
O2 C15 C16 115.23(13) . . ?
C14 C15 C16 120.38(14) . . ?
C11 C16 C15 119.67(13) . . ?
C11 C16 H16 120.2 . . ?
C15 C16 H16 120.2 . . ?
O1 C17 H17A 109.5 . . ?
O1 C17 H17B 109.5 . . ?
H17A C17 H17B 109.5 . . ?
O1 C17 H17C 109.5 . . ?
H17A C17 H17C 109.5 . . ?
H17B C17 H17C 109.5 . . ?
O2 C18 H18A 109.5 . . ?
O2 C18 H18B 109.5 . . ?
H18A C18 H18B 109.5 . . ?
O2 C18 H18C 109.5 . . ?
H18A C18 H18C 109.5 . . ?
H18B C18 H18C 109.5 . . ?
C22 C21 C26 120.79(13) . . ?
C22 C21 C10 120.08(13) . . ?
C26 C21 C10 119.05(13) . . ?
C21 C22 C23 119.62(13) . . ?
C21 C22 H22 120.2 . . ?
C23 C22 H22 120.2 . . ?
O3 C23 C24 124.22(13) . . ?
O3 C23 C22 115.37(13) . . ?
C24 C23 C22 120.42(14) . . ?
C23 C24 C25 119.02(13) . . ?
C23 C24 H24 120.5 . . ?
C25 C24 H24 120.5 . . ?
O4 C25 C26 124.33(14) . . ?
O4 C25 C24 114.31(13) . . ?
C26 C25 C24 121.36(14) . . ?
C25 C26 C21 118.78(13) . . ?
C25 C26 H26 120.6 . . ?
C21 C26 H26 120.6 . . ?
O3 C27 H27A 109.5 . . ?
O3 C27 H27B 109.5 . . ?
H27A C27 H27B 109.5 . . ?
O3 C27 H27C 109.5 . . ?
H27A C27 H27C 109.5 . . ?
H27B C27 H27C 109.5 . . ?
O4 C28 H28A 109.5 . . ?
O4 C28 H28B 109.5 . . ?
H28A C28 H28B 109.5 . . ?
O4 C28 H28C 109.5 . . ?
H28A C28 H28C 109.5 . . ?
H28B C28 H28C 109.5 . . ?
Cl2A C31A Cl1A 111.7(6) . . ?
Cl2A C31A H31A 109.3 . . ?
Cl1A C31A H31A 109.3 . . ?
Cl2A C31A H31B 109.3 . . ?
Cl1A C31A H31B 109.3 . . ?
H31A C31A H31B 107.9 . . ?
Cl2B C31B Cl1B 112.3(9) . . ?
Cl2B C31B H31C 109.1 . . ?
Cl1B C31B H31C 109.1 . . ?
Cl2B C31B H31D 109.1 . . ?
Cl1B C31B H31D 109.1 . . ?
H31C C31B H31D 107.9 . . ?
Cl1C C31C Cl2C 113.1(6) . . ?
Cl1C C31C H31E 109.0 . . ?
Cl2C C31C H31E 109.0 . . ?
Cl1C C31C H31F 109.0 . . ?
Cl2C C31C H31F 109.0 . . ?
H31E C31C H31F 107.8 . . ?
C1 N1 C4 104.16(11) . . ?
C1 N1 Ni1 127.71(9) . . ?
C4 N1 Ni1 128.09(10) . . ?
C9 N2 C6 103.88(11) . . ?
C9 N2 Ni1 127.97(9) . . ?
C6 N2 Ni1 128.14(10) . . ?
N2 Ni1 N2 180.00(9) 2 . ?
N2 Ni1 N1 90.11(5) 2 . ?
N2 Ni1 N1 89.89(5) . . ?
N2 Ni1 N1 89.89(5) 2 2 ?
N2 Ni1 N1 90.11(5) . 2 ?
N1 Ni1 N1 180.00(10) . 2 ?
C13 O1 C17 116.97(13) . . ?
C15 O2 C18 117.09(12) . . ?
C23 O3 C27 116.93(12) . . ?
C25 O4 C28 117.44(14) . . ?
loop_
_geom_bond_atom_site_label_1
_geom_bond_atom_site_label_2
_geom_bond_distance
_geom_bond_site_symmetry_2
_geom_bond_publ_flag
C1 C10 1.379(2) 2 ?
C1 N1 1.3808(18) . ?
C1 C2 1.4348(19) . ?
C2 C3 1.349(2) . ?
C2 H2 0.9500 . ?
C3 C4 1.4332(19) . ?
C3 H3 0.9500 . ?
C4 C5 1.380(2) . ?
C4 N1 1.3843(17) . ?
C5 C6 1.383(2) . ?
C5 C11 1.4948(18) . ?
C6 N2 1.3860(17) . ?
C6 C7 1.434(2) . ?
C7 C8 1.348(2) . ?
C7 H7 0.9500 . ?
C8 C9 1.4336(19) . ?
C8 H8 0.9500 . ?
C9 C10 1.3803(19) . ?
C9 N2 1.3827(18) . ?
C10 C1 1.379(2) 2 ?
C10 C21 1.4965(19) . ?
C11 C16 1.377(2) . ?
C11 C12 1.400(2) . ?
C12 C13 1.3872(19) . ?
C12 H12 0.9500 . ?
C13 O1 1.3668(17) . ?
C13 C14 1.396(2) . ?
C14 C15 1.384(2) . ?
C14 H14 0.9500 . ?
C15 O2 1.3584(18) . ?
C15 C16 1.4027(19) . ?
C16 H16 0.9500 . ?
C17 O1 1.423(2) . ?
C17 H17A 0.9800 . ?
C17 H17B 0.9800 . ?
C17 H17C 0.9800 . ?
C18 O2 1.4281(17) . ?
C18 H18A 0.9800 . ?
C18 H18B 0.9800 . ?
C18 H18C 0.9800 . ?
C21 C22 1.378(2) . ?
C21 C26 1.398(2) . ?
C22 C23 1.4010(19) . ?
C22 H22 0.9500 . ?
C23 O3 1.3607(18) . ?
C23 C24 1.385(2) . ?
C24 C25 1.394(2) . ?
C24 H24 0.9500 . ?
C25 O4 1.3653(18) . ?
C25 C26 1.385(2) . ?
C26 H26 0.9500 . ?
C27 O3 1.4289(18) . ?
C27 H27A 0.9800 . ?
C27 H27B 0.9800 . ?
C27 H27C 0.9800 . ?
C28 O4 1.424(2) . ?
C28 H28A 0.9800 . ?
C28 H28B 0.9800 . ?
C28 H28C 0.9800 . ?
C31A Cl2A 1.736(9) . ?
C31A Cl1A 1.746(10) . ?
C31A H31A 0.9900 . ?
C31A H31B 0.9900 . ?
C31B Cl2B 1.704(13) . ?
C31B Cl1B 1.742(12) . ?
C31B H31C 0.9900 . ?
C31B H31D 0.9900 . ?
C31C Cl1C 1.722(10) . ?
C31C Cl2C 1.742(9) . ?
C31C H31E 0.9900 . ?
C31C H31F 0.9900 . ?
N1 Ni1 1.9536(12) . ?
N2 Ni1 1.9448(12) . ?
Ni1 N2 1.9448(12) 2 ?
Ni1 N1 1.9536(12) 2 ?
